138
Coordinates from ORCA-job /wrk/rja7/qm_final_3_replicates/qm_final_1.1/qm/7/freq E -2722.583778851683
  N           5.23600383526321      3.15778382519488     12.90141817142993
  C           4.11726907554384      3.51611974659295     11.86312914916958
  H           3.92044269029325      4.60245654999152     12.00994937598710
  H           3.23901430406368      2.90286652154913     12.15297620284910
  C           5.52809085868647      1.64333700855335     12.95850221364649
  H           6.02333641054285      1.34536396533711     12.01675225958845
  H           6.18327626957053      1.46601577075347     13.83789688356815
  H           4.56172490336438      1.10143733552310     13.02109341289694
  C           4.72569642051661      3.59093447592490     14.27087228401602
  H           4.52564202318255      4.68224342970871     14.26089101038921
  H           3.78959240160377      3.03907556207084     14.49058756038669
  H           5.49270995671368      3.35485447830703     15.03761749784923
  C           6.52368649438925      3.90256786410100     12.58846824387337
  H           6.31772793774881      4.99282425052754     12.55136622509937
  H           6.91856026196639      3.55748415850001     11.61301331971512
  H           7.26601206318949      3.68680769031499     13.38520954053369
  C           4.45372341703029      3.24146145961147     10.37476844209045
  H           3.52405977801393      3.55306366279610      9.82538762049712
  H           5.26730371200635      3.92620108194070     10.02331277227549
  P           3.62928131630005      0.61816385076522     10.24858928651653
  O           2.86886039557415      0.89341296968555     11.55252295255885
  O           4.39807183364449     -0.63862115884771      9.90827803778642
  O           4.84143154889095      1.91300952611765     10.08023711733304
  O           2.59188342571018      1.11176434153694      9.00004321263228
  C           2.99714838966839      0.83619160405012      7.64665184994606
  H           3.26090954822519     -0.24211586666325      7.52088381716941
  H           3.90417949427075      1.43484624544713      7.37000857251926
  C           1.83955680834652      1.22937563391956      6.71144507187525
  H           1.48407203223584      2.25177613591286      6.96514701777469
  O           0.74580765605315      0.27562764576772      6.93166031078873
  C          -0.54834084134199      0.74581720464503      6.95463566795242
  O          -0.86767219453150      1.91778110654828      6.80691987327073
  C          -1.52156079553902     -0.42477391573538      7.16572114572878
  H          -2.53524738502964      0.01083455142705      7.30828682145089
  H          -1.23412390700140     -0.95145593890347      8.10539020709143
  C           2.25049887373366      1.17543069464687      5.22201471846986
  H           2.54108355455881      0.14083423108382      4.93339902273872
  H           3.10019211779902      1.87087569963117      5.03985076046151
  O           1.12608120205533      1.51707642347851      4.35327181802835
  C           0.89978530831136      2.86500864879407      4.12115733168969
  O           1.63985341974121      3.75329028107299      4.51716094948295
  C          -0.34844546811003      3.07204188467698      3.25561528358141
  H          -1.07825931462994      2.25332234257524      3.43999097494990
  H          -0.81158434833518      4.02788775598487      3.58639081003149
  C          -1.52242094736782     -1.44327502007142      5.98393708285086
  H          -2.19988056597642     -2.28873605590938      6.25622344574332
  H          -0.50220886445021     -1.88204422494782      5.88189372733715
  C          -1.97302104471403     -0.83377657038700      4.63250328398885
  H          -1.27873145497249     -0.01017893330023      4.34389458062441
  H          -2.97913085496374     -0.36166683155064      4.75831734466423
  C          -2.03777330617324     -1.86076197499513      3.47188305749471
  H          -2.68748639708221     -2.72107790192835      3.77118088451739
  H          -1.02097223994220     -2.29375771205107      3.30072910231024
  C          -2.57267862268708     -1.24949380792536      2.15149530001133
  H          -1.91633404773534     -0.39691323792497      1.85241171318142
  H          -3.58017573289826     -0.80122797457991      2.34008100168843
  C          -2.69172919526307     -2.26299318017997      0.98387266863777
  H          -3.33049699282654     -3.11684448333345      1.31718986283013
  H          -1.68965264177675     -2.70051561788203      0.75297839669270
  C          -3.30813310848343     -1.66312383856934     -0.31965468000144
  H          -4.24295805629714     -1.11393163518920     -0.03521696961398
  H          -3.64114562273538     -2.49030860597607     -0.98667534439818
  C          -2.38564966446648     -0.71455171820495     -1.07095637897073
  H          -1.85761303590071      0.03406566074247     -0.44844032583143
  C          -2.16110964954559     -0.68243201638223     -2.40953571649561
  H          -1.47169688434148      0.09528521533752     -2.79675142521632
  C          -2.82500335159428     -1.55173387380855     -3.46845971110833
  H          -3.12437093566793     -2.53895173698566     -3.04385826891564
  H          -2.08838903579676     -1.76678542618952     -4.27726497608371
  C          -4.08992567018574     -0.86764541606747     -4.08042565611475
  H          -3.79575549493531      0.11244403847621     -4.53052251146954
  H          -4.78678253326074     -0.62088710681012     -3.24471847411023
  C          -4.84667893013792     -1.71856462627423     -5.13707773546929
  H          -5.82703844924214     -1.22752966439785     -5.35320365530839
  H          -5.09905082461712     -2.71500517670182     -4.69540510558483
  C          -4.09131203975075     -1.92576312277104     -6.47522807994419
  H          -3.12032900149803     -2.44394634503320     -6.28811876919656
  H          -3.82336410015098     -0.92807966011597     -6.90341381929221
  C          -4.89649778622666     -2.73376774323534     -7.52424651834484
  H          -5.88640391473955     -2.24041273365096     -7.69315559819932
  H          -5.13244761644267     -3.74552888339921     -7.10936949693504
  C          -4.16883137907831     -2.89257612508447     -8.88327143755907
  H          -3.16796683035860     -3.36429860288877     -8.71577593200121
  H          -3.95616437802249     -1.88068510240808     -9.30894241316893
  C          -4.95998365355377     -3.72778308716945     -9.92235065912264
  H          -5.96427854118742     -3.26214820382722    -10.08083759535910
  H          -5.16230089529842     -4.74321190564293     -9.50034520726702
  C          -4.23631301696477     -3.86719254630081    -11.28386580601263
  H          -4.82489645174557     -4.48464891488776    -12.00086511824413
  H          -3.23753244625268     -4.34952255812928    -11.16561754883408
  H          -4.06629658002683     -2.87202571258422    -11.75690885519871
  C          -0.00519995933518      3.16115464991561      1.73434822213200
  H           0.71189590090218      4.00197506056097      1.57395456765124
  H          -0.93827267390714      3.44029232120259      1.18808327821703
  C           0.57263936484095      1.85634038853781      1.12787525609241
  H          -0.13003516845035      1.01283314797971      1.33535481605640
  H           1.52209148260918      1.58484747381523      1.64659735972519
  C           0.83555137895412      1.94643596933195     -0.39633688331445
  H           1.52141159848723      2.80540583558508     -0.60325887255090
  H          -0.11930225193731      2.18655429640497     -0.92716930288539
  C           1.44394110580342      0.64975880248547     -0.98895197244041
  H           2.37125889536804      0.38708798200931     -0.42172831324006
  H           0.73597632323325     -0.19849770953524     -0.82552128842078
  C           1.78851600830407      0.75069674264082     -2.49563266692423
  H           0.87798739417381      1.03432829246231     -3.07800927805128
  H           2.52090346422935      1.58030196026047     -2.65486895235858
  C           2.37242039286630     -0.57153118860757     -3.08179468233970
  H           1.59526460368650     -1.36803654752843     -3.02936908290900
  H           3.20687344709247     -0.90970269737470     -2.41721672333657
  C           2.91410946119637     -0.40904422502024     -4.49217516039484
  H           3.84418356373314      0.19313067168159     -4.56238145131241
  C           2.38923103268768     -0.88346310928993     -5.64943760427314
  H           2.93540117237848     -0.65046394646842     -6.58555434603920
  C           1.11124079803031     -1.68869969977116     -5.82258533080437
  H           0.73319058214775     -2.04357316294245     -4.83740007713351
  H           1.33807290380170     -2.60783506019695     -6.42017302530407
  C          -0.03373530048805     -0.90796669500436     -6.54394093573543
  H          -0.30539387548038     -0.01136154199139     -5.93459085798058
  H          -0.94291879241918     -1.55457792670347     -6.56187824335912
  C           0.29228476610497     -0.46906681715791     -7.99507720381187
  H           1.17816976968825      0.21105563323652     -7.99661331198021
  H           0.59783397569043     -1.36991492228721     -8.58145393448972
  C          -0.89285435296284      0.24280597158375     -8.69757427833287
  H          -1.76865634231328     -0.44856525710135     -8.73755287805590
  H          -1.22381199829460      1.10185163358552     -8.06363209136598
  C          -0.57281408855227      0.78164488323580    -10.12129110364698
  H           0.21215768680998      1.57263303939835    -10.03612121519898
  H          -1.48139940326406      1.29648423721373    -10.51985828427446
  C          -0.09913681236425     -0.27548306779303    -11.15878888788228
  H           0.11529960345473      0.24804986207568    -12.12275517726392
  H           0.87743231129332     -0.71373786361751    -10.83747327789603
  C          -1.10761885676224     -1.42303788490849    -11.42708257916903
  H          -1.29374780151222     -1.99589562196629    -10.48768843984489
  H          -2.09659485160582     -0.98483166464600    -11.71136945836650
  C          -0.63670902246460     -2.40113425301657    -12.53176006748898
  H          -0.49159857711056     -1.87617449170330    -13.50533498734617
  H           0.33715621299260     -2.87431235422562    -12.26278232960451
  H          -1.37511776829115     -3.21855118016557    -12.69562542363860
