138
Coordinates from ORCA-job /wrk/rja7/qm_final_3_replicates/qm_final_1.1/qm/4/freq E -2722.315294921325
  N      -3.261000     -5.231000     12.784000
  C      -2.200000     -4.737000     11.750000
  H      -1.306000     -5.331000     11.874000
  H      -2.050000     -3.684000     11.936000
  C      -3.557000     -6.610000     12.419000
  H      -4.152000     -7.117000     13.163000
  H      -3.895000     -6.605000     11.393000
  H      -2.689000     -7.234000     12.268000
  C      -4.631000     -4.507000     12.548000
  H      -4.504000     -3.516000     12.959000
  H      -4.780000     -4.405000     11.484000
  H      -5.445000     -5.040000     13.018000
  C      -2.844000     -5.050000     14.191000
  H      -2.254000     -4.146000     14.235000
  H      -2.177000     -5.879000     14.382000
  H      -3.654000     -5.010000     14.904000
  C      -2.506000     -4.746000     10.210000
  H      -1.494000     -4.666000      9.758000
  H      -2.971000     -5.718000      9.938000
  P      -3.133000     -2.129000     10.026000
  O      -1.891000     -1.961000     10.851000
  O      -4.369000     -1.499000     10.539000
  O      -3.338000     -3.644000      9.952000
  O      -2.887000     -1.755000      8.488000
  C      -1.810000     -2.181000      7.695000
  H      -2.110000     -2.905000      6.907000
  H      -1.033000     -2.697000      8.299000
  C      -1.096000     -1.003000      6.942000
  H      -0.559000     -0.444000      7.738000
  O      -2.192000     -0.368000      6.272000
  C      -1.969000      0.881000      5.962000
  O      -1.034000      1.535000      6.465000
  C      -3.013000      1.462000      4.998000
  H      -3.507000      2.270000      5.578000
  H      -3.740000      0.647000      4.795000
  C       0.073000     -1.491000      5.987000
  H      -0.285000     -2.344000      5.371000
  H       0.756000     -1.964000      6.725000
  O       0.739000     -0.492000      5.179000
  C       1.742000      0.333000      5.708000
  O       2.474000      0.131000      6.669000
  C       1.867000      1.560000      4.883000
  H       0.912000      1.590000      4.316000
  H       1.931000      2.464000      5.524000
  C      -2.460000      2.026000      3.639000
  H      -1.394000      2.330000      3.573000
  H      -3.100000      2.852000      3.261000
  C      -2.578000      0.950000      2.544000
  H      -3.668000      0.735000      2.546000
  H      -2.222000     -0.017000      2.962000
  C      -1.917000      1.250000      1.218000
  H      -0.814000      1.115000      1.205000
  H      -2.113000      2.289000      0.877000
  C      -2.217000      0.207000      0.155000
  H      -3.253000      0.493000     -0.124000
  H      -2.170000     -0.820000      0.577000
  C      -1.384000      0.319000     -1.127000
  H      -0.327000      0.018000     -0.967000
  H      -1.446000      1.398000     -1.389000
  C      -2.028000     -0.315000     -2.380000
  H      -1.495000     -0.014000     -3.307000
  H      -3.128000     -0.199000     -2.489000
  C      -1.945000     -1.768000     -2.127000
  H      -2.526000     -2.166000     -1.282000
  C      -1.443000     -2.680000     -2.967000
  H      -1.475000     -3.733000     -2.650000
  C      -0.744000     -2.444000     -4.265000
  H       0.211000     -3.012000     -4.279000
  H      -0.492000     -1.382000     -4.471000
  C      -1.761000     -3.009000     -5.327000
  H      -2.765000     -2.587000     -5.110000
  H      -1.854000     -4.112000     -5.225000
  C      -1.227000     -2.611000     -6.739000
  H      -0.385000     -3.282000     -7.013000
  H      -0.944000     -1.542000     -6.635000
  C      -2.377000     -2.693000     -7.781000
  H      -3.219000     -2.192000     -7.256000
  H      -2.801000     -3.702000     -7.971000
  C      -2.122000     -1.899000     -9.063000
  H      -1.920000     -0.833000     -8.822000
  H      -3.029000     -1.904000     -9.705000
  C      -1.015000     -2.342000    -10.035000
  H      -1.032000     -3.450000    -10.115000
  H      -0.075000     -2.077000     -9.505000
  C      -1.178000     -1.883000    -11.510000
  H      -1.264000     -0.775000    -11.482000
  H      -2.113000     -2.311000    -11.931000
  C      -0.060000     -2.203000    -12.511000
  H      -0.270000     -1.932000    -13.567000
  H       0.122000     -3.299000    -12.492000
  H       0.894000     -1.743000    -12.174000
  C       2.997000      1.417000      3.835000
  H       3.872000      0.866000      4.239000
  H       3.314000      2.455000      3.600000
  C       2.454000      0.968000      2.468000
  H       1.443000      1.321000      2.172000
  H       2.325000     -0.126000      2.614000
  C       3.490000      1.346000      1.404000
  H       4.404000      0.736000      1.564000
  H       3.809000      2.403000      1.526000
  C       2.966000      1.192000      0.026000
  H       2.419000      0.244000     -0.164000
  H       2.107000      1.892000     -0.049000
  C       4.060000      1.354000     -1.063000
  H       4.957000      0.710000     -0.943000
  H       3.532000      1.044000     -1.990000
  C       4.493000      2.849000     -1.372000
  H       5.284000      2.732000     -2.144000
  H       5.005000      3.271000     -0.482000
  C       3.436000      3.785000     -1.818000
  H       2.866000      4.378000     -1.088000
  C       2.877000      3.824000     -3.087000
  H       1.941000      4.398000     -3.158000
  C       3.340000      3.067000     -4.357000
  H       2.391000      2.700000     -4.804000
  H       3.897000      2.168000     -4.017000
  C       4.295000      3.856000     -5.303000
  H       5.247000      4.097000     -4.783000
  H       3.758000      4.786000     -5.588000
  C       4.675000      3.272000     -6.626000
  H       5.522000      2.589000     -6.401000
  H       3.762000      2.757000     -6.994000
  C       4.912000      4.281000     -7.790000
  H       5.629000      5.087000     -7.520000
  H       5.444000      3.708000     -8.580000
  C       3.629000      4.813000     -8.384000
  H       2.838000      5.168000     -7.689000
  H       3.209000      3.971000     -8.974000
  C       3.705000      5.891000     -9.540000
  H       4.401000      6.695000     -9.218000
  H       4.114000      5.382000    -10.439000
  C       2.264000      6.435000     -9.896000
  H       1.779000      5.711000    -10.585000
  H       1.628000      6.518000     -8.989000
  C       2.418000      7.754000    -10.718000
  H       1.450000      8.095000    -11.143000
  H       2.794000      8.597000    -10.100000
  H       3.208000      7.725000    -11.498000
138
Coordinates from ORCA-job /wrk/rja7/qm_final_3_replicates/qm_final_1.1/qm/4/freq E -2722.391783690826
  N      -3.285820     -5.201331     12.793326
  C      -2.213083     -4.764467     11.747877
  H      -1.345689     -5.418651     11.858961
  H      -1.989721     -3.711576     11.944145
  C      -3.684441     -6.580302     12.442298
  H      -4.302613     -7.043693     13.211364
  H      -4.060044     -6.569761     11.419049
  H      -2.837958     -7.255261     12.286392
  C      -4.605517     -4.378724     12.586479
  H      -4.408154     -3.387606     12.997553
  H      -4.775468     -4.262047     11.517570
  H      -5.444982     -4.867653     13.082090
  C      -2.818544     -5.053569     14.200787
  H      -2.165523     -4.179866     14.239393
  H      -2.195820     -5.930281     14.393029
  H      -3.625045     -4.962915     14.928580
  C      -2.568568     -4.745880     10.216428
  H      -1.566108     -4.715802      9.732717
  H      -3.095427     -5.686192      9.939105
  P      -3.081287     -2.072160     10.069193
  O      -1.794471     -1.961881     10.863405
  O      -4.298335     -1.395079     10.603747
  O      -3.368458     -3.616129      9.981494
  O      -2.852199     -1.683930      8.512734
  C      -1.802611     -2.147848      7.702362
  H      -2.147121     -2.858041      6.913363
  H      -1.033466     -2.697631      8.293103
  C      -1.065476     -0.980703      6.957883
  H      -0.500802     -0.442909      7.749681
  O      -2.137563     -0.276202      6.296644
  C      -1.894887      0.991213      5.969288
  O      -0.947136      1.644838      6.430949
  C      -2.956456      1.570845      5.022099
  H      -3.433262      2.395314      5.595865
  H      -3.700761      0.765548      4.841986
  C       0.048557     -1.515643      5.975626
  H      -0.361377     -2.340707      5.351446
  H       0.742554     -2.028701      6.680324
  O       0.714155     -0.531665      5.160911
  C       1.759514      0.234434      5.687637
  O       2.483835     -0.057026      6.628683
  C       1.935070      1.492979      4.889235
  H       0.976134      1.601384      4.339123
  H       2.057555      2.366271      5.563110
  C      -2.410847      2.102660      3.653231
  H      -1.339873      2.394759      3.593848
  H      -3.040170      2.938111      3.273965
  C      -2.544076      1.000448      2.568970
  H      -3.638518      0.787988      2.557470
  H      -2.188594      0.035523      3.001184
  C      -1.889927      1.278490      1.228949
  H      -0.782952      1.142525      1.228973
  H      -2.081098      2.315415      0.873466
  C      -2.240301      0.227004      0.165756
  H      -3.280018      0.518328     -0.109417
  H      -2.209022     -0.796506      0.598977
  C      -1.413593      0.310807     -1.131155
  H      -0.358574     -0.004783     -0.980720
  H      -1.453270      1.390498     -1.410502
  C      -2.066794     -0.371586     -2.362907
  H      -1.538990     -0.091640     -3.298778
  H      -3.167771     -0.234099     -2.458147
  C      -1.985457     -1.845756     -2.107984
  H      -2.560900     -2.233191     -1.250674
  C      -1.489266     -2.776245     -2.947998
  H      -1.526449     -3.830166     -2.621340
  C      -0.793310     -2.555138     -4.261816
  H       0.160495     -3.128872     -4.272268
  H      -0.538589     -1.493401     -4.466276
  C      -1.787516     -3.109487     -5.353099
  H      -2.795058     -2.685315     -5.152367
  H      -1.880981     -4.213982     -5.253992
  C      -1.251513     -2.713200     -6.767403
  H      -0.404164     -3.382474     -7.032323
  H      -0.965791     -1.643292     -6.671902
  C      -2.384787     -2.799663     -7.830479
  H      -3.244422     -2.294601     -7.332424
  H      -2.795763     -3.816773     -8.018252
  C      -2.099802     -2.025617     -9.121643
  H      -1.906740     -0.952465     -8.894013
  H      -2.994415     -2.042026     -9.786030
  C      -0.947385     -2.501596    -10.033980
  H      -0.967481     -3.615413    -10.085287
  H      -0.016282     -2.230909     -9.486663
  C      -1.045185     -2.048634    -11.512296
  H      -1.123446     -0.936362    -11.502913
  H      -1.968900     -2.468444    -11.969785
  C       0.128362     -2.402390    -12.443033
  H      -0.025362     -2.139782    -13.511230
  H       0.298233     -3.502787    -12.403228
  H       1.071649     -1.948643    -12.064765
  C       3.051771      1.339249      3.815187
  H       3.904910      0.734636      4.189068
  H       3.418090      2.371934      3.617818
  C       2.487862      0.919040      2.435710
  H       1.486703      1.322358      2.169945
  H       2.318505     -0.175626      2.559045
  C       3.512824      1.252314      1.336323
  H       4.405222      0.599850      1.468742
  H       3.881328      2.295598      1.458804
  C       2.945177      1.124606     -0.051015
  H       2.359613      0.192010     -0.221576
  H       2.113502      1.863136     -0.112717
  C       4.002960      1.263970     -1.178594
  H       4.880458      0.588395     -1.088008
  H       3.443018      0.979518     -2.097853
  C       4.486609      2.744912     -1.465590
  H       5.254767      2.627297     -2.262794
  H       5.037951      3.129118     -0.578530
  C       3.434312      3.723803     -1.860207
  H       2.906991      4.311100     -1.089855
  C       2.845678      3.816177     -3.101689
  H       1.925250      4.423853     -3.138578
  C       3.255888      3.086656     -4.397807
  H       2.293608      2.757724     -4.850013
  H       3.797389      2.160161     -4.102736
  C       4.198941      3.894805     -5.334149
  H       5.164176      4.103850     -4.821969
  H       3.675525      4.849510     -5.570473
  C       4.536920      3.311936     -6.693900
  H       5.370626      2.597045     -6.517505
  H       3.605160      2.821006     -7.056788
  C       4.805289      4.350300     -7.826199
  H       5.558049      5.117836     -7.529721
  H       5.307782      3.786587     -8.644856
  C       3.534196      4.966439     -8.386129
  H       2.771630      5.323341     -7.659085
  H       3.060612      4.169574     -9.004078
  C       3.676789      6.103720     -9.476220
  H       4.417979      6.849753     -9.111349
  H       4.060082      5.626214    -10.404713
  C       2.280716      6.758007     -9.802340
  H       1.753469      6.103275    -10.531726
  H       1.648736      6.827818     -8.890575
  C       2.500904      8.117943    -10.531274
  H       1.550052      8.536291    -10.927883
  H       2.923549      8.897309     -9.856761
  H       3.274863      8.084338    -11.329126
138
Coordinates from ORCA-job /wrk/rja7/qm_final_3_replicates/qm_final_1.1/qm/4/freq E -2722.446575043627
  N      -3.257080     -5.223295     12.793604
  C      -2.185046     -4.787450     11.748226
  H      -1.313473     -5.450156     11.863219
  H      -1.950518     -3.727461     11.952364
  C      -3.673005     -6.619384     12.459514
  H      -4.293132     -7.067603     13.246771
  H      -4.076565     -6.624643     11.439263
  H      -2.809591     -7.291049     12.312783
  C      -4.567689     -4.383886     12.600034
  H      -4.364814     -3.384012     13.008078
  H      -4.754601     -4.265441     11.527401
  H      -5.403596     -4.876348     13.114557
  C      -2.765993     -5.078787     14.203818
  H      -2.104898     -4.201149     14.240395
  H      -2.142385     -5.962295     14.408279
  H      -3.580503     -4.982078     14.933424
  C      -2.565413     -4.765848     10.222072
  H      -1.568725     -4.731626      9.721634
  H      -3.096572     -5.702504      9.934458
  P      -3.074088     -2.066020     10.097989
  O      -1.759870     -1.975112     10.879514
  O      -4.308634     -1.393901     10.634410
  O      -3.388489     -3.652899      9.991011
  O      -2.854099     -1.656779      8.523324
  C      -1.801377     -2.123627      7.712752
  H      -2.154802     -2.834918      6.923670
  H      -1.029903     -2.675428      8.303356
  C      -1.072173     -0.948298      6.979704
  H      -0.510118     -0.403647      7.770425
  O      -2.134488     -0.220986      6.316487
  C      -1.893644      1.065251      5.982288
  O      -0.951595      1.725468      6.422551
  C      -2.973469      1.626984      5.043608
  H      -3.456185      2.454716      5.609744
  H      -3.717011      0.818515      4.873864
  C       0.015131     -1.492216      5.984224
  H      -0.411270     -2.305251      5.353707
  H       0.731512     -2.015506      6.661768
  O       0.654640     -0.504982      5.159431
  C       1.709912      0.241940      5.686609
  O       2.419173     -0.100856      6.619354
  C       1.909369      1.521554      4.900659
  H       0.954726      1.670270      4.352914
  H       2.052360      2.374965      5.595354
  C      -2.431555      2.143940      3.673229
  H      -1.361703      2.446808      3.636030
  H      -3.062289      2.978073      3.290675
  C      -2.548225      1.020635      2.596046
  H      -3.641177      0.789564      2.557925
  H      -2.177626      0.064235      3.040228
  C      -1.898200      1.297037      1.247770
  H      -0.786995      1.183390      1.267122
  H      -2.103713      2.329242      0.882081
  C      -2.275093      0.240568      0.180844
  H      -3.321597      0.518998     -0.091325
  H      -2.242729     -0.781522      0.619004
  C      -1.453918      0.321151     -1.126198
  H      -0.394757      0.009229     -0.985973
  H      -1.490028      1.400113     -1.416239
  C      -2.106237     -0.410887     -2.335197
  H      -1.592383     -0.138487     -3.280921
  H      -3.209195     -0.266052     -2.410800
  C      -2.001264     -1.900875     -2.087939
  H      -2.558276     -2.292876     -1.217379
  C      -1.502104     -2.830042     -2.937607
  H      -1.523072     -3.887676     -2.612214
  C      -0.826768     -2.595315     -4.268632
  H       0.136721     -3.155449     -4.292277
  H      -0.592933     -1.526022     -4.461136
  C      -1.798121     -3.145967     -5.380741
  H      -2.815346     -2.742011     -5.180112
  H      -1.868322     -4.254571     -5.294865
  C      -1.288012     -2.726784     -6.798064
  H      -0.424653     -3.372340     -7.073496
  H      -1.019840     -1.650755     -6.706679
  C      -2.419216     -2.835761     -7.862712
  H      -3.299264     -2.350857     -7.374634
  H      -2.794359     -3.869236     -8.046701
  C      -2.144398     -2.069977     -9.165119
  H      -1.981437     -0.987121     -8.950908
  H      -3.036680     -2.116560     -9.834400
  C      -0.954682     -2.548106    -10.037058
  H      -0.956094     -3.665829    -10.062046
  H      -0.028904     -2.253675     -9.489833
  C      -1.019574     -2.094125    -11.513727
  H      -1.112639     -0.980660    -11.516210
  H      -1.928558     -2.521690    -11.996290
  C       0.199662     -2.451929    -12.389285
  H       0.081534     -2.194486    -13.463888
  H       0.379785     -3.552247    -12.337575
  H       1.126223     -1.986478    -11.981711
  C       3.035992      1.377098      3.825977
  H       3.878129      0.752275      4.193954
  H       3.423222      2.409447      3.656270
  C       2.492462      0.944545      2.435696
  H       1.495222      1.362387      2.174855
  H       2.315137     -0.152233      2.549243
  C       3.516943      1.248960      1.320606
  H       4.403956      0.585806      1.454252
  H       3.898441      2.290701      1.433078
  C       2.939823      1.103362     -0.081011
  H       2.352443      0.164097     -0.221686
  H       2.114380      1.850318     -0.164123
  C       3.980429      1.230502     -1.225456
  H       4.856393      0.552383     -1.127481
  H       3.419994      0.933114     -2.142185
  C       4.478063      2.703114     -1.515176
  H       5.245527      2.591107     -2.315687
  H       5.034700      3.086339     -0.628765
  C       3.412144      3.683581     -1.907931
  H       2.894340      4.264371     -1.122740
  C       2.823514      3.783266     -3.139015
  H       1.903247      4.395582     -3.180193
  C       3.235771      3.066183     -4.434705
  H       2.283487      2.736097     -4.910076
  H       3.782227      2.137199     -4.151653
  C       4.161184      3.903851     -5.359721
  H       5.121383      4.125809     -4.841802
  H       3.627387      4.858254     -5.581687
  C       4.502501      3.300726     -6.730567
  H       5.340600      2.586703     -6.567840
  H       3.576733      2.793753     -7.091805
  C       4.793550      4.345262     -7.852834
  H       5.549421      5.105047     -7.536600
  H       5.300750      3.787545     -8.675061
  C       3.528722      4.989913     -8.418181
  H       2.770561      5.339945     -7.681685
  H       3.039438      4.210117     -9.049997
  C       3.728386      6.156457     -9.463444
  H       4.482703      6.871935     -9.060942
  H       4.121536      5.700583    -10.400031
  C       2.370263      6.869938     -9.800414
  H       1.837863      6.253984    -10.561596
  H       1.720809      6.931248     -8.899234
  C       2.631387      8.253454    -10.461173
  H       1.695872      8.709270    -10.855654
  H       3.059913      8.991829     -9.742373
  H       3.404056      8.220937    -11.262081
138
Coordinates from ORCA-job /wrk/rja7/qm_final_3_replicates/qm_final_1.1/qm/4/freq E -2722.497851478120
  N      -3.203214     -5.182000     12.835240
  C      -2.144443     -4.785953     11.761391
  H      -1.284915     -5.478375     11.875074
  H      -1.862377     -3.726450     11.961232
  C      -3.679968     -6.590570     12.559672
  H      -4.289974     -6.983676     13.392866
  H      -4.155421     -6.619116     11.563895
  H      -2.814635     -7.274597     12.417427
  C      -4.478422     -4.285912     12.690094
  H      -4.227859     -3.279754     13.075294
  H      -4.717354     -4.171049     11.620865
  H      -5.303043     -4.751882     13.260292
  C      -2.638236     -5.040147     14.229617
  H      -1.949984     -4.173647     14.234715
  H      -2.032092     -5.942840     14.443079
  H      -3.439483     -4.908808     14.979294
  C      -2.584617     -4.764197     10.251876
  H      -1.606778     -4.747201      9.708494
  H      -3.141373     -5.689530      9.968206
  P      -3.029112     -2.033051     10.148080
  O      -1.669770     -2.008124     10.883393
  O      -4.259463     -1.343615     10.703330
  O      -3.426468     -3.662413     10.024555
  O      -2.841539     -1.606971      8.547220
  C      -1.804543     -2.102298      7.721805
  H      -2.197112     -2.813350      6.946725
  H      -1.030198     -2.662907      8.304168
  C      -1.079215     -0.932437      6.985182
  H      -0.504159     -0.376866      7.760288
  O      -2.130026     -0.166650      6.336403
  C      -1.883303      1.136841      5.993602
  O      -0.929195      1.791845      6.391815
  C      -2.997234      1.685729      5.084710
  H      -3.470928      2.522437      5.647583
  H      -3.751514      0.882036      4.942187
  C      -0.051244     -1.501154      5.954259
  H      -0.525571     -2.287170      5.322368
  H       0.702691     -2.045211      6.574576
  O       0.555522     -0.515397      5.103410
  C       1.652393      0.184032      5.607785
  O       2.352971     -0.229594      6.516763
  C       1.899437      1.476330      4.829516
  H       0.948569      1.704383      4.303371
  H       2.104325      2.297160      5.547530
  C      -2.477618      2.179238      3.701495
  H      -1.410438      2.496086      3.690749
  H      -3.108323      3.018352      3.327450
  C      -2.582319      1.035412      2.633985
  H      -3.670671      0.779953      2.562312
  H      -2.182917      0.091401      3.083614
  C      -1.946856      1.317650      1.271338
  H      -0.833040      1.241034      1.312944
  H      -2.178718      2.345288      0.903550
  C      -2.356450      0.264583      0.196954
  H      -3.414006      0.514547     -0.066486
  H      -2.314947     -0.758141      0.635032
  C      -1.540856      0.350340     -1.120247
  H      -0.475769      0.049983     -0.984245
  H      -1.573444      1.425893     -1.427340
  C      -2.174223     -0.454992     -2.297301
  H      -1.677582     -0.188323     -3.253989
  H      -3.277889     -0.298333     -2.355906
  C      -2.031245     -1.956921     -2.052143
  H      -2.562341     -2.351292     -1.163350
  C      -1.514473     -2.882044     -2.901710
  H      -1.511187     -3.941070     -2.571948
  C      -0.860967     -2.635380     -4.250134
  H       0.119655     -3.168310     -4.281658
  H      -0.660208     -1.556819     -4.432111
  C      -1.789753     -3.194492     -5.389149
  H      -2.823982     -2.823955     -5.202463
  H      -1.823669     -4.306967     -5.312175
  C      -1.304978     -2.759147     -6.808362
  H      -0.411046     -3.364463     -7.082143
  H      -1.065742     -1.672802     -6.738886
  C      -2.419169     -2.927941     -7.883057
  H      -3.337357     -2.472398     -7.432765
  H      -2.724654     -3.989999     -8.043549
  C      -2.143651     -2.207500     -9.217031
  H      -2.035781     -1.108183     -9.046750
  H      -3.020451     -2.321697     -9.900654
  C      -0.890928     -2.693015    -10.002681
  H      -0.858493     -3.812017     -9.966509
  H       0.015332     -2.345749     -9.451102
  C      -0.886288     -2.265994    -11.486897
  H      -1.008228     -1.154537    -11.530898
  H      -1.760903     -2.720569    -12.009782
  C       0.405820     -2.633412    -12.255454
  H       0.352599     -2.401447    -13.341950
  H       0.605766     -3.729260    -12.164195
  H       1.295367     -2.134194    -11.805076
  C       3.019407      1.318018      3.742088
  H       3.835904      0.648822      4.093640
  H       3.457978      2.335618      3.598713
  C       2.469867      0.874627      2.354063
  H       1.487103      1.339617      2.117660
  H       2.254139     -0.218526      2.453242
  C       3.476190      1.123366      1.203426
  H       4.343902      0.428381      1.317144
  H       3.898129      2.153239      1.298501
  C       2.852532      0.973724     -0.198598
  H       2.247093      0.037463     -0.288926
  H       2.051028      1.748044     -0.290825
  C       3.848594      1.072690     -1.383140
  H       4.707939      0.370074     -1.291293
  H       3.270458      0.778384     -2.291250
  C       4.399145      2.523349     -1.661039
  H       5.152158      2.417172     -2.477424
  H       4.982125      2.874354     -0.776521
  C       3.337961      3.541808     -2.015374
  H       2.864994      4.107957     -1.188769
  C       2.740875      3.703568     -3.227561
  H       1.845093      4.356603     -3.250678
  C       3.123738      3.032732     -4.549546
  H       2.173146      2.750282     -5.061080
  H       3.650868      2.075961     -4.323924
  C       4.038898      3.915193     -5.442421
  H       5.002387      4.109740     -4.917997
  H       3.519951      4.890281     -5.605971
  C       4.356322      3.326585     -6.846604
  H       5.176277      2.582144     -6.730338
  H       3.424996      2.836475     -7.219654
  C       4.715790      4.404344     -7.917864
  H       5.499894      5.111154     -7.545949
  H       5.208510      3.870279     -8.766408
  C       3.489808      5.159846     -8.459903
  H       2.757307      5.494528     -7.689298
  H       2.944963      4.455311     -9.136721
  C       3.817421      6.392978     -9.379693
  H       4.614505      7.006740     -8.895156
  H       4.211628      5.998705    -10.345077
  C       2.552322      7.259521     -9.688536
  H       1.989084      6.763494    -10.514989
  H       1.880359      7.298859     -8.800873
  C       2.932389      8.679822    -10.183527
  H       2.043537      9.245168    -10.545806
  H       3.395048      9.296718     -9.375094
  H       3.699130      8.655512    -10.992225
138
Coordinates from ORCA-job /wrk/rja7/qm_final_3_replicates/qm_final_1.1/qm/4/freq E -2722.531405436901
  N      -3.113014     -5.050295     12.938608
  C      -2.098367     -4.831739     11.775029
  H      -1.334251     -5.638429     11.862384
  H      -1.640518     -3.822513     11.932099
  C      -3.811448     -6.396563     12.787941
  H      -4.385777     -6.639410     13.704746
  H      -4.430230     -6.385897     11.869510
  H      -3.044444     -7.187929     12.617261
  C      -4.223364     -3.956318     12.907494
  H      -3.776487     -2.990735     13.222795
  H      -4.575593     -3.823465     11.868041
  H      -5.030864     -4.278406     13.597786
  C      -2.375236     -4.976595     14.265746
  H      -1.583612     -4.203023     14.182714
  H      -1.880789     -5.953048     14.460995
  H      -3.084784     -4.723581     15.080263
  C      -2.668314     -4.777076     10.315600
  H      -1.750340     -4.858083      9.677303
  H      -3.328632     -5.649145     10.080847
  P      -2.845710     -2.003504     10.237125
  O      -1.418587     -2.153286     10.826552
  O      -3.975491     -1.224460     10.890786
  O      -3.455999     -3.624337     10.118001
  O      -2.764269     -1.555950      8.612767
  C      -1.808498     -2.113339      7.717665
  H      -2.303830     -2.810890      6.989444
  H      -1.019906     -2.699385      8.254587
  C      -1.092311     -0.973586      6.935181
  H      -0.470958     -0.405436      7.664691
  O      -2.139253     -0.157231      6.335884
  C      -1.875025      1.156032      5.995219
  O      -0.876703      1.777240      6.323241
  C      -3.035247      1.727118      5.157905
  H      -3.463644      2.578018      5.737010
  H      -3.822094      0.948507      5.061535
  C      -0.165623     -1.575315      5.839055
  H      -0.724050     -2.308958      5.212337
  H       0.631552     -2.153936      6.365435
  O       0.400719     -0.582937      4.957803
  C       1.569256      0.044100      5.397658
  O       2.277627     -0.425383      6.273294
  C       1.863540      1.327469      4.606881
  H       0.916486      1.653248      4.127511
  H       2.164072      2.107851      5.337247
  C      -2.571639      2.200394      3.747973
  H      -1.510273      2.539102      3.754264
  H      -3.203252      3.052972      3.405947
  C      -2.678723      1.048220      2.690334
  H      -3.759630      0.765328      2.598964
  H      -2.225535      0.122041      3.125506
  C      -2.078090      1.353012      1.307372
  H      -0.963719      1.339171      1.362342
  H      -2.360586      2.374582      0.954102
  C      -2.498878      0.304314      0.226907
  H      -3.575187      0.488757     -0.015020
  H      -2.415163     -0.720158      0.657396
  C      -1.698286      0.417019     -1.101260
  H      -0.621170      0.160755     -0.958573
  H      -1.751856      1.484272     -1.432406
  C      -2.277608     -0.477513     -2.245163
  H      -1.805129     -0.198632     -3.211332
  H      -3.383134     -0.325632     -2.303239
  C      -2.064132     -1.975866     -1.991862
  H      -2.553378     -2.375767     -1.080119
  C      -1.490503     -2.883645     -2.824282
  H      -1.444474     -3.939451     -2.483542
  C      -0.856503     -2.623113     -4.184125
  H       0.154890     -3.098267     -4.212656
  H      -0.713624     -1.534323     -4.365291
  C      -1.723675     -3.224409     -5.343195
  H      -2.782425     -2.908810     -5.186407
  H      -1.703491     -4.338054     -5.260542
  C      -1.255722     -2.789920     -6.763915
  H      -0.310308     -3.325836     -7.012304
  H      -1.067989     -1.689570     -6.741378
  C      -2.324732     -3.075774     -7.857377
  H      -3.298281     -2.668953     -7.481059
  H      -2.514250     -4.172576     -7.965004
  C      -2.028989     -2.442791     -9.237292
  H      -2.005961     -1.328180     -9.145971
  H      -2.868905     -2.668529     -9.939632
  C      -0.699574     -2.915876     -9.900284
  H      -0.612510     -4.026065     -9.779410
  H       0.165259     -2.483959     -9.340936
  C      -0.602683     -2.546086    -11.398261
  H      -0.776324     -1.446510    -11.512162
  H      -1.419723     -3.058154    -11.961774
  C       0.767760     -2.901001    -12.031165
  H       0.790134     -2.709754    -13.127653
  H       1.005849     -3.982322    -11.878542
  H       1.596857     -2.335310    -11.544859
  C       2.951529      1.134772      3.491129
  H       3.739302      0.421815      3.827653
  H       3.449395      2.124638      3.347698
  C       2.364296      0.667311      2.127309
  H       1.404607      1.194526      1.924115
  H       2.093227     -0.413964      2.223283
  C       3.328070      0.853783      0.926338
  H       4.174942      0.127289      1.004882
  H       3.792291      1.868898      0.989508
  C       2.628709      0.699741     -0.453035
  H       2.020028     -0.238633     -0.481307
  H       1.848949      1.497513     -0.539567
  C       3.560642      0.777645     -1.689514
  H       4.398395      0.044110     -1.612970
  H       2.958884      0.496937     -2.586682
  C       4.175999      2.200967     -1.942250
  H       4.902932      2.112727     -2.784515
  H       4.794796      2.493891     -1.060811
  C       3.135065      3.277813     -2.214882
  H       2.731836      3.810118     -1.329333
  C       2.539820      3.562119     -3.401028
  H       1.703196      4.291907     -3.382610
  C       2.887988      2.991287     -4.773257
  H       1.937783      2.813449     -5.332733
  H       3.369421      1.991294     -4.656907
  C       3.817787      3.935321     -5.590476
  H       4.785470      4.054348     -5.049892
  H       3.342119      4.944082     -5.643858
  C       4.104506      3.437333     -7.047942
  H       4.873582      2.631852     -7.007992
  H       3.160585      3.012702     -7.467795
  C       4.589366      4.571593     -8.005928
  H       5.416303      5.160917     -7.533896
  H       5.056535      4.093802     -8.901885
  C       3.454455      5.513663     -8.476164
  H       2.764584      5.808752     -7.650484
  H       2.829698      4.956350     -9.218574
  C       3.963336      6.807707     -9.191965
  H       4.807510      7.248016     -8.606872
  H       4.366585      6.514361    -10.190585
  C       2.848060      7.874465     -9.412581
  H       2.243468      7.572490    -10.303008
  H       2.154465      7.890061     -8.538774
  C       3.411849      9.292491     -9.677995
  H       2.608460     10.010909     -9.962714
  H       3.921499      9.711773     -8.777075
  H       4.167958      9.283530    -10.498151
138
Coordinates from ORCA-job /wrk/rja7/qm_final_3_replicates/qm_final_1.1/qm/4/freq E -2722.546620973051
  N      -2.927534     -5.249937     12.942816
  C      -1.876732     -4.990394     11.816592
  H      -1.086375     -5.765660     11.953652
  H      -1.457884     -3.969192     11.996803
  C      -3.564660     -6.627948     12.781268
  H      -4.156730     -6.871721     13.688156
  H      -4.195223     -6.632603     11.869479
  H      -2.753852     -7.378997     12.644787
  C      -4.056749     -4.183879     12.927421
  H      -3.632408     -3.206254     13.235648
  H      -4.434675     -4.062631     11.894963
  H      -4.840891     -4.526824     13.636556
  C      -2.203733     -5.171898     14.283993
  H      -1.464389     -4.345303     14.237866
  H      -1.662814     -6.125112     14.472263
  H      -2.945604     -4.982926     15.088490
  C      -2.393414     -4.972969     10.343143
  H      -1.453039     -4.962514      9.731650
  H      -2.948132     -5.909169     10.078118
  P      -2.814796     -2.217733     10.259292
  O      -1.369440     -2.251306     10.813457
  O      -4.018820     -1.582560     10.931833
  O      -3.290498     -3.909335     10.086525
  O      -2.801035     -1.719409      8.641080
  C      -1.780944     -2.154621      7.740004
  H      -2.205012     -2.898314      7.013820
  H      -0.932235     -2.646568      8.278352
  C      -1.200902     -0.937459      6.970514
  H      -0.673787     -0.282036      7.700664
  O      -2.320993     -0.229089      6.360412
  C      -2.189805      1.121966      6.086976
  O      -1.249073      1.817077      6.438224
  C      -3.399575      1.621478      5.276912
  H      -3.893782      2.422152      5.875204
  H      -4.129373      0.791314      5.162181
  C      -0.211470     -1.418380      5.874295
  H      -0.691134     -2.192807      5.231516
  H       0.671724     -1.886668      6.368638
  O       0.189323     -0.349074      4.980666
  C       1.258731      0.450772      5.389231
  O       2.000074      0.150048      6.310998
  C       1.403336      1.693104      4.497812
  H       0.442864      1.871521      3.969669
  H       1.580151      2.550131      5.182900
  C      -2.971001      2.162125      3.878513
  H      -1.965729      2.639567      3.949369
  H      -3.682881      2.953597      3.546236
  C      -2.906727      1.025541      2.812234
  H      -3.937326      0.608918      2.672447
  H      -2.321431      0.170573      3.232829
  C      -2.329637      1.435640      1.439956
  H      -1.226705      1.593604      1.528025
  H      -2.756599      2.414485      1.108646
  C      -2.617495      0.366190      0.340617
  H      -3.714225      0.376498      0.120670
  H      -2.383098     -0.645520      0.747408
  C      -1.862532      0.600398     -0.996887
  H      -0.760582      0.488771     -0.859325
  H      -2.043209      1.653886     -1.326254
  C      -2.325645     -0.370891     -2.132430
  H      -1.926321     -0.014987     -3.107168
  H      -3.442694     -0.330896     -2.178990
  C      -1.917609     -1.829620     -1.907101
  H      -2.292790     -2.284542     -0.967552
  C      -1.254346     -2.645076     -2.765443
  H      -1.070453     -3.692261     -2.444303
  C      -0.744615     -2.300742     -4.157465
  H       0.317374     -2.636348     -4.258629
  H      -0.750821     -1.199544     -4.323435
  C      -1.595198     -2.985122     -5.276812
  H      -2.675112     -2.801835     -5.060197
  H      -1.445794     -4.091042     -5.217335
  C      -1.274205     -2.491984     -6.714076
  H      -0.272010     -2.875241     -7.018927
  H      -1.221282     -1.375354     -6.710801
  C      -2.341822     -2.933377     -7.753336
  H      -3.351801     -2.668616     -7.350949
  H      -2.349855     -4.048612     -7.844686
  C      -2.180905     -2.296908     -9.157208
  H      -2.307589     -1.188214     -9.078261
  H      -3.013269     -2.647510     -9.815932
  C      -0.825122     -2.607339     -9.856923
  H      -0.598536     -3.698324     -9.749294
  H       0.004230     -2.074035     -9.331632
  C      -0.809707     -2.200492    -11.350216
  H      -1.117587     -1.129203    -11.441335
  H      -1.581284     -2.790675    -11.902991
  C       0.576657     -2.392655    -12.018254
  H       0.546402     -2.167974    -13.108913
  H       0.937633     -3.443336    -11.903265
  H       1.347807     -1.739150    -11.546411
  C       2.567685      1.586021      3.453609
  H       3.435545      1.054413      3.911385
  H       2.916641      2.622136      3.228292
  C       2.170582      0.861003      2.134886
  H       1.162290      1.215833      1.810858
  H       2.051469     -0.232376      2.336071
  C       3.182063      1.061407      0.974225
  H       4.131573      0.512852      1.196471
  H       3.461620      2.142647      0.926840
  C       2.638815      0.605075     -0.412051
  H       2.242206     -0.437401     -0.335709
  H       1.741256      1.221170     -0.668638
  C       3.652948      0.713494     -1.582483
  H       4.583093      0.145179     -1.334844
  H       3.214482      0.233729     -2.489510
  C       4.070192      2.185167     -1.931492
  H       4.882018      2.156362     -2.696346
  H       4.539481      2.649419     -1.032020
  C       2.904489      3.052050     -2.395737
  H       2.338702      3.568166     -1.593351
  C       2.443197      3.194966     -3.662702
  H       1.535703      3.818462     -3.808354
  C       3.070075      2.647303     -4.939317
  H       2.257999      2.300655     -5.624339
  H       3.693925      1.748090     -4.721989
  C       3.919602      3.723756     -5.686002
  H       4.759420      4.041554     -5.023623
  H       3.289719      4.630535     -5.849009
  C       4.498694      3.225957     -7.054555
  H       5.358261      2.542654     -6.857633
  H       3.718165      2.627736     -7.585286
  C       4.985796      4.378635     -7.987947
  H       5.637275      5.086490     -7.414789
  H       5.647573      3.947463     -8.778366
  C       3.835572      5.169597     -8.669189
  H       3.018557      5.395265     -7.942554
  H       3.372322      4.521227     -9.454659
  C       4.309812      6.493599     -9.338053
  H       4.984045      7.045297     -8.637436
  H       4.927935      6.235244    -10.232318
  C       3.151036      7.424782     -9.798899
  H       2.712678      7.014549    -10.741882
  H       2.331166      7.412345     -9.040482
  C       3.601464      8.883369    -10.061183
  H       2.777831      9.498000    -10.493403
  H       3.934665      9.385343     -9.121796
  H       4.452114      8.917133    -10.782749
138
Coordinates from ORCA-job /wrk/rja7/qm_final_3_replicates/qm_final_1.1/qm/4/freq E -2722.555643088620
  N      -2.809769     -5.197809     13.063261
  C      -1.826009     -5.176987     11.848790
  H      -1.185711     -6.081577     11.967236
  H      -1.209666     -4.253843     11.953428
  C      -3.709763     -6.428124     13.012804
  H      -4.260283     -6.511589     13.973233
  H      -4.424496     -6.316213     12.173279
  H      -3.076497     -7.326424     12.852238
  C      -3.688978     -3.927028     13.115704
  H      -3.042576     -3.049447     13.314068
  H      -4.166124     -3.768647     12.130797
  H      -4.428511     -4.074274     13.931972
  C      -1.958666     -5.245910     14.333374
  H      -1.106775     -4.546615     14.214538
  H      -1.573729     -6.276219     14.488694
  H      -2.585099     -4.940261     15.197576
  C      -2.466189     -5.119722     10.434947
  H      -1.592889     -5.226310      9.737504
  H      -3.135701     -5.998295     10.246108
  P      -2.533727     -2.340212     10.359568
  O      -1.045778     -2.577561     10.685819
  O      -3.540827     -1.587986     11.205884
  O      -3.252902     -3.963350     10.221230
  O      -2.693300     -1.794680      8.764558
  C      -1.807838     -2.267906      7.742409
  H      -2.350526     -2.993619      7.080951
  H      -0.918473     -2.785521      8.179908
  C      -1.283030     -1.073182      6.908782
  H      -0.707470     -0.397262      7.579598
  O      -2.439761     -0.359197      6.369562
  C      -2.327131      1.004176      6.171543
  O      -1.365796      1.680356      6.509425
  C      -3.562661      1.551385      5.439738
  H      -4.021872      2.335188      6.085689
  H      -4.313219      0.739477      5.320835
  C      -0.391105     -1.572782      5.738628
  H      -0.942401     -2.319798      5.122891
  H       0.528739     -2.049491      6.148150
  O      -0.056330     -0.496441      4.818158
  C       1.042010      0.294613      5.142036
  O       1.834260      0.013297      6.026204
  C       1.116540      1.534998      4.242796
  H       0.132015      1.709571      3.758660
  H       1.314213      2.388044      4.929038
  C      -3.171300      2.143879      4.047597
  H      -2.202371      2.687113      4.152466
  H      -3.921440      2.911533      3.743165
  C      -3.032521      1.044740      2.960077
  H      -4.029154      0.558781      2.808462
  H      -2.361633      0.238373      3.343135
  C      -2.498149      1.536204      1.590218
  H      -1.420913      1.819773      1.692521
  H      -3.030374      2.470022      1.281090
  C      -2.671408      0.459941      0.481167
  H      -3.763807      0.329366      0.279170
  H      -2.315376     -0.521936      0.875606
  C      -1.957814      0.773281     -0.861572
  H      -0.851839      0.783911     -0.718943
  H      -2.239512      1.800722     -1.202762
  C      -2.309356     -0.250371     -1.990254
  H      -1.975054      0.154849     -2.970723
  H      -3.426081     -0.321247     -2.039685
  C      -1.734724     -1.644780     -1.767409
  H      -2.007454     -2.119747     -0.803265
  C      -0.981848     -2.375550     -2.626604
  H      -0.671282     -3.390670     -2.300695
  C      -0.566004     -1.998253     -4.039025
  H       0.525773     -2.198681     -4.178037
  H      -0.709150     -0.908155     -4.217961
  C      -1.367900     -2.797842     -5.113526
  H      -2.455772     -2.732170     -4.868639
  H      -1.101915     -3.880759     -5.035036
  C      -1.145099     -2.317577     -6.570266
  H      -0.097230     -2.545865     -6.879520
  H      -1.246231     -1.204219     -6.618688
  C      -2.135920     -2.963765     -7.576288
  H      -3.176825     -2.839867     -7.188766
  H      -1.955602     -4.067641     -7.611807
  C      -2.062549     -2.389763     -9.016373
  H      -2.354911     -1.310137     -8.995224
  H      -2.833258     -2.898026     -9.646545
  C      -0.675993     -2.533900     -9.700755
  H      -0.298534     -3.577497     -9.558707
  H       0.070133     -1.871787     -9.197398
  C      -0.700813     -2.179743    -11.208868
  H      -1.150551     -1.164662    -11.341204
  H      -1.386042     -2.884544    -11.741749
  C       0.701534     -2.215633    -11.867958
  H       0.645650     -2.023583    -12.964205
  H       1.192478     -3.207492    -11.724900
  H       1.377712     -1.448230    -11.422499
  C       2.245794      1.467209      3.165601
  H       3.152128      1.000543      3.621640
  H       2.537852      2.511855      2.904999
  C       1.869227      0.686929      1.875023
  H       0.847935      0.999836      1.541398
  H       1.790152     -0.405885      2.093341
  C       2.876655      0.913347      0.716138
  H       3.857542      0.438030      0.969179
  H       3.083121      2.008289      0.639520
  C       2.397680      0.374614     -0.662169
  H       2.113414     -0.700909     -0.560199
  H       1.456767      0.900391     -0.958203
  C       3.438788      0.544610     -1.804506
  H       4.393612      0.044159     -1.506508
  H       3.078223      0.020633     -2.720784
  C       3.768895      2.036506     -2.155471
  H       4.596991      2.063885     -2.901384
  H       4.179713      2.532856     -1.245136
  C       2.562882      2.826604     -2.653091
  H       1.928548      3.281676     -1.865525
  C       2.180379      2.995662     -3.942882
  H       1.256948      3.582729     -4.133937
  C       2.938330      2.544494     -5.184642
  H       2.212205      2.173932     -5.950026
  H       3.609450      1.684502     -4.955877
  C       3.768478      3.703769     -5.829651
  H       4.516060      4.063553     -5.082005
  H       3.093766      4.571510     -6.022067
  C       4.510433      3.281979     -7.137774
  H       5.358309      2.608634     -6.864972
  H       3.823914      2.670090     -7.773664
  C       5.084076      4.467673     -7.973786
  H       5.649820      5.166641     -7.305881
  H       5.840892      4.070542     -8.693141
  C       4.014960      5.276206     -8.763486
  H       3.136064      5.489273     -8.107489
  H       3.621073      4.639404     -9.593954
  C       4.563054      6.603739     -9.351978
  H       5.125693      7.158762     -8.560495
  H       5.316249      6.360706    -10.142095
  C       3.481435      7.529099     -9.974763
  H       3.137927      7.091130    -10.944235
  H       2.579070      7.551625     -9.315156
  C       3.979605      8.974183    -10.227663
  H       3.214469      9.585713    -10.759946
  H       4.221808      9.494480     -9.271260
  H       4.898842      8.976578    -10.860466
138
Coordinates from ORCA-job /wrk/rja7/qm_final_3_replicates/qm_final_1.1/qm/4/freq E -2722.558115734168
  N      -2.717565     -5.196162     13.219606
  C      -1.889627     -5.173706     11.886636
  H      -1.401028     -6.174158     11.858706
  H      -1.117337     -4.381711     11.992732
  C      -3.804289     -6.261160     13.152041
  H      -4.243442     -6.379415     14.164723
  H      -4.596303     -5.914670     12.459676
  H      -3.355814     -7.214705     12.808566
  C      -3.356242     -3.842555     13.577697
  H      -2.555616     -3.099345     13.748617
  H      -3.969432     -3.488670     12.731622
  H      -3.956034     -4.001642     14.499345
  C      -1.732558     -5.563515     14.334266
  H      -0.817196     -4.951493     14.214944
  H      -1.482297     -6.642948     14.273525
  H      -2.205045     -5.343988     15.314416
  C      -2.665305     -4.914112     10.568737
  H      -1.908456     -5.137208      9.768838
  H      -3.483568     -5.668014     10.432809
  P      -2.167701     -2.185448     10.404967
  O      -0.736794     -2.737070     10.452010
  O      -2.819240     -1.247376     11.397307
  O      -3.236135     -3.626504     10.423744
  O      -2.507241     -1.600173      8.856200
  C      -1.860445     -2.192890      7.719356
  H      -2.585255     -2.854069      7.176551
  H      -0.978241     -2.802936      8.032624
  C      -1.341112     -1.079660      6.786651
  H      -0.646810     -0.425900      7.356940
  O      -2.489466     -0.280523      6.343875
  C      -2.293495      1.072736      6.172597
  O      -1.251578      1.663397      6.427772
  C      -3.528898      1.738909      5.551667
  H      -3.859270      2.558707      6.230120
  H      -4.364432      1.006561      5.487816
  C      -0.635530     -1.672594      5.536954
  H      -1.326329     -2.344842      4.980024
  H       0.278273     -2.230188      5.841993
  O      -0.292725     -0.617909      4.586434
  C       0.909612      0.040424      4.797237
  O       1.760348     -0.346869      5.580757
  C       1.022182      1.289229      3.916329
  H       0.024337      1.584406      3.527868
  H       1.367697      2.092887      4.605550
  C      -3.177213      2.302795      4.135621
  H      -2.198823      2.833779      4.220229
  H      -3.912957      3.093176      3.852671
  C      -3.093756      1.190674      3.064739
  H      -4.101208      0.720709      2.946525
  H      -2.405524      0.389980      3.423037
  C      -2.586110      1.660329      1.671967
  H      -1.517052      1.978577      1.764526
  H      -3.144030      2.575853      1.352708
  C      -2.731913      0.554411      0.596814
  H      -3.819162      0.359620      0.419995
  H      -2.328499     -0.400852      1.013707
  C      -2.032079      0.849509     -0.754134
  H      -0.933152      0.915768     -0.590489
  H      -2.344073      1.851933     -1.140440
  C      -2.311735     -0.219725     -1.859577
  H      -2.008350      0.192078     -2.848002
  H      -3.423795     -0.346670     -1.927347
  C      -1.650304     -1.562505     -1.610908
  H      -1.864786     -2.022073     -0.625359
  C      -0.833331     -2.245334     -2.451463
  H      -0.455170     -3.230592     -2.106520
  C      -0.453548     -1.872636     -3.874877
  H       0.647961     -2.002281     -4.021753
  H      -0.662544     -0.796342     -4.073440
  C      -1.214707     -2.739685     -4.924209
  H      -2.306573     -2.715661     -4.687300
  H      -0.909559     -3.809208     -4.808161
  C      -0.997696     -2.308044     -6.394881
  H       0.074134     -2.457808     -6.672040
  H      -1.168910     -1.206731     -6.503474
  C      -1.901916     -3.079778     -7.393134
  H      -2.964621     -3.011062     -7.058020
  H      -1.629840     -4.164399     -7.351129
  C      -1.803514     -2.599379     -8.868935
  H      -2.158889     -1.540380     -8.931784
  H      -2.521707     -3.196342     -9.483183
  C      -0.390727     -2.710282     -9.495653
  H       0.029842     -3.726752     -9.292991
  H       0.306651     -1.990332     -9.001680
  C      -0.367145     -2.434487    -11.022180
  H      -0.849783     -1.446945    -11.226651
  H      -1.007218     -3.190257    -11.541992
  C       1.057886     -2.456225    -11.628488
  H       1.034028     -2.310531    -12.733291
  H       1.572460     -3.424724    -11.426603
  H       1.691261     -1.642731    -11.202072
  C       2.051013      1.157934      2.755827
  H       2.961359      0.646628      3.154362
  H       2.386304      2.181619      2.466648
  C       1.546575      0.406874      1.494887
  H       0.536988      0.800072      1.208950
  H       1.394371     -0.678715      1.707987
  C       2.520450      0.579572      0.298937
  H       3.485247      0.058879      0.522772
  H       2.774976      1.663276      0.218835
  C       1.984535      0.068807     -1.066270
  H       1.699275     -1.006248     -0.972097
  H       1.048027      0.616720     -1.328689
  C       3.009677      0.241377     -2.225656
  H       3.947745     -0.304020     -1.953332
  H       2.622793     -0.242739     -3.153082
  C       3.385336      1.730216     -2.533788
  H       4.189201      1.762913     -3.303948
  H       3.834940      2.174745     -1.615432
  C       2.195716      2.583137     -2.961096
  H       1.571457      2.984516     -2.137624
  C       1.845455      2.892953     -4.234210
  H       0.951795      3.535820     -4.383173
  C       2.632974      2.556481     -5.493308
  H       1.928966      2.279283     -6.317206
  H       3.289134      1.670443     -5.336442
  C       3.505845      3.757474     -5.995640
  H       4.219419      4.038530     -5.182615
  H       2.852523      4.652688     -6.130834
  C       4.306614      3.439055     -7.290322
  H       5.089907      2.683237     -7.037063
  H       3.640614      2.930749     -8.031680
  C       5.014871      4.654980     -7.959553
  H       5.574598      5.240943     -7.186229
  H       5.791741      4.277102     -8.667569
  C       4.062483      5.621129     -8.723448
  H       3.177724      5.847835     -8.078854
  H       3.649810      5.093371     -9.618365
  C       4.745475      6.938983     -9.159362
  H       5.274001      7.392357     -8.283276
  H       5.555243      6.705612     -9.896068
  C       3.788640      7.983694     -9.790552
  H       3.445759      7.617866    -10.789742
  H       2.860313      8.063546     -9.171404
  C       4.429919      9.384822     -9.953659
  H       3.745167     10.090834    -10.478037
  H       4.685366      9.829903     -8.963853
  H       5.367754      9.330180    -10.555953
138
Coordinates from ORCA-job /wrk/rja7/qm_final_3_replicates/qm_final_1.1/qm/4/freq E -2722.564237231128
  N      -2.958284     -5.085868     13.136992
  C      -2.088792     -5.244427     11.841907
  H      -1.735586     -6.299652     11.870425
  H      -1.223844     -4.554766     11.943508
  C      -4.190409     -5.976479     13.065264
  H      -4.686649     -5.974672     14.057790
  H      -4.888079     -5.558086     12.314486
  H      -3.882822     -7.005046     12.791164
  C      -3.400321     -3.633434     13.388827
  H      -2.502395     -3.004178     13.534338
  H      -3.935897     -3.254943     12.501363
  H      -4.037267     -3.636885     14.298113
  C      -2.087923     -5.532792     14.313964
  H      -1.095360     -5.049163     14.225820
  H      -1.978078     -6.636277     14.295965
  H      -2.573719     -5.220277     15.261370
  C      -2.790248     -4.946910     10.492762
  H      -2.024157     -5.237196      9.724222
  H      -3.658988     -5.637902     10.339721
  P      -2.080687     -2.273847     10.370537
  O      -0.700403     -2.940688     10.407562
  O      -2.651870     -1.316425     11.393687
  O      -3.255358     -3.623095     10.337285
  O      -2.376784     -1.627857      8.841669
  C      -1.763756     -2.223572      7.688294
  H      -2.523281     -2.827011      7.126171
  H      -0.919012     -2.893035      7.981966
  C      -1.188661     -1.116434      6.782699
  H      -0.476623     -0.497000      7.368987
  O      -2.306106     -0.271271      6.337532
  C      -2.076553      1.074249      6.163056
  O      -1.014226      1.637526      6.396600
  C      -3.309873      1.774101      5.570025
  H      -3.579075      2.616770      6.247585
  H      -4.172697      1.071709      5.550172
  C      -0.474408     -1.710432      5.540148
  H      -1.181228     -2.330621      4.944504
  H       0.397750     -2.321399      5.863528
  O      -0.035545     -0.654273      4.630532
  C       1.202349     -0.077167      4.880039
  O       2.038639     -0.562215      5.624871
  C       1.377913      1.214988      4.076878
  H       0.393193      1.582318      3.720378
  H       1.769888      1.960156      4.805832
  C      -3.005222      2.311538      4.133759
  H      -2.015814      2.827683      4.163237
  H      -3.743032      3.107377      3.871985
  C      -2.995375      1.190543      3.068680
  H      -4.018658      0.745767      3.000277
  H      -2.316113      0.371993      3.400101
  C      -2.543015      1.647431      1.654916
  H      -1.465097      1.943790      1.693391
  H      -3.098556      2.571618      1.357448
  C      -2.743122      0.541802      0.590616
  H      -3.837581      0.345194      0.469890
  H      -2.313217     -0.411352      0.985282
  C      -2.118699      0.852200     -0.791387
  H      -1.013915      0.951699     -0.679129
  H      -2.478351      1.844336     -1.158324
  C      -2.418047     -0.220902     -1.887412
  H      -2.162846      0.198182     -2.886569
  H      -3.526845     -0.384057     -1.913131
  C      -1.711842     -1.544524     -1.664800
  H      -1.885335     -2.015456     -0.676703
  C      -0.886447     -2.191514     -2.525704
  H      -0.468504     -3.165732     -2.196356
  C      -0.528484     -1.786021     -3.946261
  H       0.573468     -1.894211     -4.103291
  H      -0.756221     -0.710446     -4.127458
  C      -1.284696     -2.653883     -4.999240
  H      -2.379343     -2.614838     -4.778446
  H      -0.992574     -3.725302     -4.867945
  C      -1.032518     -2.241871     -6.470246
  H       0.047864     -2.388796     -6.714607
  H      -1.210975     -1.144159     -6.597556
  C      -1.906978     -3.036125     -7.477511
  H      -2.979451     -2.943424     -7.180922
  H      -1.654004     -4.122533     -7.390691
  C      -1.753486     -2.607247     -8.964139
  H      -2.072285     -1.540665     -9.074975
  H      -2.471765     -3.203684     -9.578581
  C      -0.330497     -2.787501     -9.550529
  H       0.042223     -3.815474     -9.314218
  H       0.380761     -2.085638     -9.050836
  C      -0.255157     -2.555793    -11.082724
  H      -0.682309     -1.551422    -11.324853
  H      -0.917038     -3.294155    -11.599783
  C       1.180992     -2.661503    -11.651686
  H       1.193647     -2.539785    -12.759479
  H       1.639224     -3.650543    -11.416113
  H       1.844635     -1.873309    -11.224018
  C       2.382462      1.096466      2.893186
  H       3.284000      0.539382      3.247417
  H       2.744702      2.120036      2.636622
  C       1.818637      0.414705      1.618681
  H       0.831534      0.871417      1.356469
  H       1.604521     -0.663221      1.818454
  C       2.781602      0.551414      0.408527
  H       3.731470      0.000069      0.621594
  H       3.072714      1.625156      0.318186
  C       2.203692      0.044069     -0.939420
  H       1.891150     -1.020826     -0.827817
  H       1.274639      0.609888     -1.182352
  C       3.193897      0.175567     -2.133841
  H       4.129569     -0.388800     -1.895754
  H       2.757135     -0.313773     -3.036464
  C       3.573803      1.651688     -2.493159
  H       4.334359      1.653964     -3.306266
  H       4.079168      2.110078     -1.611216
  C       2.369589      2.508840     -2.866335
  H       1.776243      2.898491     -2.015256
  C       1.959157      2.832835     -4.118982
  H       1.056626      3.471353     -4.215346
  C       2.672708      2.512610     -5.423835
  H       1.923216      2.223010     -6.201215
  H       3.355254      1.639214     -5.314001
  C       3.482276      3.735992     -5.965452
  H       4.239025      4.029234     -5.197567
  H       2.794836      4.612110     -6.050630
  C       4.200735      3.462144     -7.311642
  H       5.008720      2.711511     -7.130931
  H       3.495638      2.965613     -8.024156
  C       4.829677      4.713286     -7.987022
  H       5.438041      5.280731     -7.238768
  H       5.553699      4.376677     -8.768045
  C       3.799060      5.680100     -8.635732
  H       2.974682      5.885609     -7.909445
  H       3.312754      5.163442     -9.500029
  C       4.413750      7.018305     -9.111935
  H       4.985862      7.484617     -8.271021
  H       5.176203      6.813386     -9.905404
  C       3.377605      8.031843     -9.665208
  H       2.944177      7.635663    -10.616469
  H       2.516087      8.108220     -8.956450
  C       3.972822      9.438763     -9.923929
  H       3.222243     10.124366    -10.380644
  H       4.329075      9.907791     -8.977198
  H       4.842019      9.388153    -10.621696
138
Coordinates from ORCA-job /wrk/rja7/qm_final_3_replicates/qm_final_1.1/qm/4/freq E -2722.559243287169
  N      -2.899863     -4.786862     13.237583
  C      -2.120097     -5.189788     11.939565
  H      -1.855254     -6.263634     12.069247
  H      -1.197631     -4.569108     11.917734
  C      -4.226769     -5.527741     13.320993
  H      -4.679714     -5.346957     14.318192
  H      -4.902496     -5.143867     12.532641
  H      -4.051676     -6.613398     13.176805
  C      -3.169480     -3.268839     13.284039
  H      -2.201774     -2.730854     13.281182
  H      -3.717946     -2.968728     12.372536
  H      -3.742773     -3.059252     14.211326
  C      -2.030401     -5.167584     14.434081
  H      -1.002613     -4.792034     14.258241
  H      -2.015873     -6.271780     14.540052
  H      -2.448137     -4.705211     15.352239
  C      -2.870218     -4.973318     10.598937
  H      -2.153638     -5.362539      9.827151
  H      -3.781379     -5.622692     10.547199
  P      -2.034938     -2.357591     10.342547
  O      -0.693137     -3.102916     10.350245
  O      -2.500372     -1.348840     11.373025
  O      -3.274788     -3.640323     10.394670
  O      -2.363230     -1.723678      8.814337
  C      -1.859308     -2.354208      7.624532
  H      -2.688804     -2.901261      7.104448
  H      -1.050596     -3.086254      7.864484
  C      -1.267471     -1.281168      6.682424
  H      -0.483558     -0.712116      7.229452
  O      -2.353683     -0.372844      6.289370
  C      -2.070198      0.964038      6.140870
  O      -0.988182      1.483509      6.382628
  C      -3.288126      1.721864      5.587330
  H      -3.509879      2.561164      6.286661
  H      -4.174258      1.049569      5.571288
  C      -0.668566     -1.899087      5.392822
  H      -1.449345     -2.455153      4.826751
  H       0.165753     -2.586124      5.659327
  O      -0.200664     -0.848286      4.488156
  C       1.094876     -0.377964      4.673215
  O       1.924491     -0.950222      5.363277
  C       1.350904      0.918899      3.891966
  H       0.385887      1.375084      3.587221
  H       1.831717      1.608943      4.621612
  C      -2.996683      2.278815      4.157079
  H      -2.016893      2.813588      4.176311
  H      -3.760351      3.050518      3.897279
  C      -2.960487      1.164034      3.079720
  H      -3.970130      0.687416      3.016409
  H      -2.262853      0.358369      3.407895
  C      -2.531424      1.638525      1.666249
  H      -1.472395      1.998570      1.701367
  H      -3.141375      2.522045      1.352459
  C      -2.638263      0.508010      0.611660
  H      -3.713904      0.228765      0.483393
  H      -2.135982     -0.401394      1.022298
  C      -2.046422      0.858546     -0.775890
  H      -0.954623      1.071194     -0.675418
  H      -2.510210      1.801258     -1.154688
  C      -2.234705     -0.265196     -1.843097
  H      -2.030801      0.148969     -2.855848
  H      -3.313324     -0.568035     -1.850303
  C      -1.374567     -1.491488     -1.586857
  H      -1.480095     -1.947452     -0.582170
  C      -0.498453     -2.070985     -2.445138
  H       0.042555     -2.974955     -2.095469
  C      -0.233803     -1.679186     -3.889496
  H       0.867489     -1.677190     -4.082378
  H      -0.583498     -0.641832     -4.097301
  C      -0.930197     -2.666094     -4.876564
  H      -2.014026     -2.724866     -4.613047
  H      -0.525505     -3.695421     -4.711771
  C      -0.778094     -2.293748     -6.371224
  H       0.302838     -2.330233     -6.651132
  H      -1.096103     -1.232619     -6.527443
  C      -1.600437     -3.226027     -7.300096
  H      -2.659607     -3.233384     -6.944038
  H      -1.236959     -4.277543     -7.181982
  C      -1.584826     -2.846908     -8.804725
  H      -2.009030     -1.820184     -8.935958
  H      -2.280066     -3.532458     -9.348726
  C      -0.193159     -2.920889     -9.482638
  H       0.285159     -3.904129     -9.243545
  H       0.482625     -2.142882     -9.051449
  C      -0.248793     -2.741709    -11.020491
  H      -0.773903     -1.783865    -11.258951
  H      -0.879897     -3.550888    -11.464229
  C       1.146681     -2.747472    -11.691241
  H       1.072982     -2.662362    -12.799934
  H       1.699577     -3.689076    -11.462777
  H       1.773773     -1.898719    -11.329648
  C       2.286744      0.752310      2.654527
  H       3.162806      0.122603      2.942660
  H       2.704248      1.756548      2.402293
  C       1.601752      0.174801      1.386476
  H       0.651050      0.730844      1.192599
  H       1.296578     -0.885062      1.567537
  C       2.518338      0.256443      0.133213
  H       3.418777     -0.389223      0.289028
  H       2.908127      1.300385      0.057461
  C       1.831415     -0.138961     -1.201463
  H       1.423378     -1.174123     -1.120086
  H       0.941780      0.513490     -1.361083
  C       2.757276     -0.052949     -2.452934
  H       3.629198     -0.737676     -2.310987
  H       2.198944     -0.432599     -3.342395
  C       3.306393      1.379928     -2.782955
  H       3.993378      1.315065     -3.656715
  H       3.941795      1.718476     -1.930071
  C       2.219347      2.420406     -3.020213
  H       1.718210      2.804241     -2.109353
  C       1.799734      2.919566     -4.213379
  H       0.984122      3.671396     -4.189383
  C       2.379322      2.648604     -5.595717
  H       1.544599      2.550470     -6.332203
  H       2.930562      1.680297     -5.624835
  C       3.325234      3.796974     -6.076965
  H       4.175689      3.889459     -5.359064
  H       2.770168      4.763588     -6.010758
  C       3.874542      3.595666     -7.514257
  H       4.548964      2.704826     -7.513662
  H       3.031571      3.332029     -8.200784
  C       4.639391      4.817869     -8.102329
  H       5.424312      5.161061     -7.382455
  H       5.196168      4.491126     -9.013902
  C       3.725744      6.018744     -8.465308
  H       3.058485      6.262855     -7.603747
  H       3.043016      5.713845     -9.297670
  C       4.497005      7.295513     -8.886029
  H       5.236552      7.561406     -8.089977
  H       5.105614      7.078742     -9.799488
  C       3.576310      8.512642     -9.168777
  H       2.940996      8.291606    -10.061978
  H       2.864190      8.642549     -8.317568
  C       4.355152      9.828957     -9.413031
  H       3.670747     10.670574     -9.668179
  H       4.937626     10.130071     -8.510629
  H       5.081023      9.721329    -10.253325
138
Coordinates from ORCA-job /wrk/rja7/qm_final_3_replicates/qm_final_1.1/qm/4/freq E -2722.566543363450
  N      -2.912024     -5.061606     13.111411
  C      -2.020698     -5.285670     11.842366
  H      -1.641066     -6.329649     11.928957
  H      -1.175822     -4.565495     11.913257
  C      -4.147936     -5.949132     13.062448
  H      -4.674164     -5.892931     14.038722
  H      -4.817448     -5.589561     12.257128
  H      -3.841359     -6.996357     12.859323
  C      -3.361692     -3.591753     13.241044
  H      -2.466606     -2.945307     13.321520
  H      -3.902826     -3.293976     12.324670
  H      -3.995688     -3.515525     14.150091
  C      -2.070194     -5.425562     14.331256
  H      -1.089870     -4.914758     14.247901
  H      -1.920746     -6.525020     14.359226
  H      -2.593423     -5.090198     15.250853
  C      -2.710360     -5.077821     10.466435
  H      -1.909511     -5.356033      9.730273
  H      -3.543874     -5.812445     10.324978
  P      -2.097646     -2.402171     10.323374
  O      -0.701186     -3.038961     10.368545
  O      -2.679820     -1.463090     11.361694
  O      -3.227952     -3.781783     10.282130
  O      -2.412662     -1.747596      8.803509
  C      -1.804678     -2.305515      7.628368
  H      -2.561175     -2.907272      7.059270
  H      -0.949948     -2.974642      7.891562
  C      -1.262519     -1.166809      6.738111
  H      -0.556206     -0.544578      7.332181
  O      -2.394059     -0.335198      6.304920
  C      -2.179899      1.017912      6.185317
  O      -1.136788      1.586824      6.479663
  C      -3.400577      1.728638      5.578167
  H      -3.668335      2.570184      6.258657
  H      -4.267137      1.032144      5.538633
  C      -0.543434     -1.706059      5.477405
  H      -1.232772     -2.335317      4.870752
  H       0.344764     -2.304491      5.781894
  O      -0.154769     -0.602467      4.603567
  C       1.046240      0.038446      4.883475
  O       1.873327     -0.395735      5.670455
  C       1.185429      1.347533      4.095091
  H       0.200506      1.645948      3.676712
  H       1.477683      2.117904      4.843923
  C      -3.070560      2.275954      4.153340
  H      -2.101387      2.828595      4.196558
  H      -3.843354      3.026850      3.861418
  C      -2.994724      1.157304      3.080220
  H      -3.999887      0.673628      2.997826
  H      -2.301121      0.352972      3.422258
  C      -2.541033      1.635727      1.675988
  H      -1.476678      1.979605      1.723812
  H      -3.138726      2.528120      1.363826
  C      -2.675290      0.521646      0.604362
  H      -3.758530      0.268835      0.483840
  H      -2.190070     -0.406451      0.992247
  C      -2.092778      0.882960     -0.785550
  H      -0.992062      1.053763     -0.700541
  H      -2.528275      1.852264     -1.131050
  C      -2.362756     -0.197675     -1.882427
  H      -2.141893      0.230081     -2.885598
  H      -3.459170     -0.427687     -1.882390
  C      -1.597658     -1.495684     -1.671420
  H      -1.733715     -1.972580     -0.680136
  C      -0.779151     -2.121357     -2.554846
  H      -0.310279     -3.074800     -2.233563
  C      -0.484454     -1.711667     -3.989268
  H       0.612976     -1.799062     -4.181486
  H      -0.742932     -0.642160     -4.164328
  C      -1.252430     -2.603136     -5.013022
  H      -2.341390     -2.571991     -4.766937
  H      -0.942607     -3.668659     -4.874904
  C      -1.036397     -2.198672     -6.492216
  H       0.045107     -2.312947     -6.747369
  H      -1.268133     -1.111562     -6.618725
  C      -1.903156     -3.032642     -7.472253
  H      -2.969652     -2.965309     -7.144333
  H      -1.629847     -4.113667     -7.379746
  C      -1.812552     -2.607576     -8.961529
  H      -2.146535     -1.545220     -9.067505
  H      -2.544709     -3.214254     -9.549285
  C      -0.409532     -2.770264     -9.601714
  H      -0.021627     -3.798879     -9.390551
  H       0.313037     -2.069129     -9.117581
  C      -0.399604     -2.525187    -11.131391
  H      -0.833634     -1.516666    -11.343490
  H      -1.081723     -3.258843    -11.627703
  C       1.012271     -2.623140    -11.759909
  H       0.983737     -2.485617    -12.865390
  H       1.474748     -3.618073    -11.557301
  H       1.697506     -1.849078    -11.340836
  C       2.263583      1.290597      2.971081
  H       3.191936      0.821412      3.376476
  H       2.542758      2.338837      2.706004
  C       1.813948      0.546229      1.686355
  H       0.816225      0.931588      1.358413
  H       1.655092     -0.535802      1.918288
  C       2.833702      0.692128      0.525429
  H       3.806474      0.226462      0.824269
  H       3.052789      1.778798      0.385854
  C       2.361550      0.068270     -0.812888
  H       2.126499     -1.010135     -0.655194
  H       1.392991      0.532371     -1.114006
  C       3.372267      0.201188     -1.988330
  H       4.332921     -0.299769     -1.714027
  H       2.969959     -0.354560     -2.868420
  C       3.685771      1.670379     -2.433921
  H       4.440440      1.645094     -3.252381
  H       4.183226      2.202396     -1.587310
  C       2.452365      2.462950     -2.844475
  H       1.823550      2.833323     -2.010169
  C       2.036449      2.751929     -4.103338
  H       1.106035      3.349597     -4.205149
  C       2.736670      2.419357     -5.413238
  H       1.975413      2.100825     -6.167044
  H       3.431549      1.555706     -5.294862
  C       3.526538      3.637519     -5.989147
  H       4.308880      3.940352     -5.251917
  H       2.832310      4.508065     -6.067876
  C       4.187471      3.358050     -7.365599
  H       4.971274      2.573501     -7.229792
  H       3.430793      2.910984     -8.058013
  C       4.828020      4.604278     -8.043540
  H       5.522154      5.109842     -7.325058
  H       5.472728      4.264807     -8.890353
  C       3.798391      5.639449     -8.568761
  H       3.064465      5.889589     -7.765621
  H       3.199536      5.169751     -9.389033
  C       4.435771      6.950127     -9.097160
  H       5.089916      7.390603     -8.303643
  H       5.117377      6.713521     -9.951966
  C       3.394872      8.005504     -9.555972
  H       2.831765      7.605299    -10.435512
  H       2.634493      8.148464     -8.749763
  C       4.026183      9.367852     -9.934658
  H       3.261090     10.086084    -10.309730
  H       4.530268      9.840369     -9.058621
  H       4.796090      9.250100    -10.733319
138
Coordinates from ORCA-job /wrk/rja7/qm_final_3_replicates/qm_final_1.1/qm/4/freq E -2722.565397164609
  N      -3.104769     -5.119542     13.104780
  C      -2.104453     -5.206599     11.897658
  H      -1.748329     -6.261470     11.921175
  H      -1.258657     -4.521863     12.115378
  C      -4.318583     -6.000719     12.851105
  H      -4.919066     -6.054522     13.783269
  H      -4.935532     -5.538896     12.056279
  H      -3.981085     -7.013961     12.554875
  C      -3.578828     -3.689207     13.400648
  H      -2.702130     -3.055953     13.627538
  H      -4.067244     -3.274064     12.503778
  H      -4.269798     -3.744153     14.268883
  C      -2.356105     -5.636908     14.332630
  H      -1.388991     -5.102274     14.408248
  H      -2.184121     -6.727756     14.229435
  H      -2.965996     -5.436998     15.238027
  C      -2.670536     -4.873892     10.492940
  H      -1.819434     -5.125314      9.804268
  H      -3.494610     -5.587423     10.233792
  P      -1.934178     -2.220741     10.349768
  O      -0.567094     -2.911411     10.371694
  O      -2.471576     -1.252209     11.382583
  O      -3.134825     -3.555107     10.296971
  O      -2.243409     -1.563394      8.832496
  C      -1.658578     -2.170298      7.670292
  H      -2.439116     -2.761573      7.123940
  H      -0.821197     -2.854177      7.950864
  C      -1.090223     -1.073026      6.757303
  H      -0.373875     -0.446881      7.330150
  O      -2.217983     -0.229974      6.322016
  C      -2.010594      1.121811      6.177958
  O      -0.958477      1.700740      6.421294
  C      -3.258935      1.818637      5.614184
  H      -3.491461      2.677890      6.284206
  H      -4.131310      1.127568      5.633757
  C      -0.387481     -1.673035      5.509838
  H      -1.108083     -2.265624      4.903655
  H       0.471407     -2.306012      5.825205
  O       0.074043     -0.613855      4.614568
  C       1.329706     -0.078934      4.859962
  O       2.175871     -0.621498      5.552173
  C       1.515050      1.245393      4.114172
  H       0.532367      1.650799      3.794301
  H       1.936423      1.949885      4.866938
  C      -2.997231      2.329513      4.161559
  H      -2.032569      2.890945      4.162575
  H      -3.777769      3.082665      3.895708
  C      -2.970911      1.189059      3.117387
  H      -3.982997      0.716437      3.072976
  H      -2.265000      0.393649      3.444254
  C      -2.557828      1.638475      1.689758
  H      -1.496720      1.991922      1.707781
  H      -3.167642      2.524449      1.382025
  C      -2.713099      0.507438      0.646170
  H      -3.792784      0.225760      0.567394
  H      -2.196708     -0.406192      1.029820
  C      -2.169687      0.859489     -0.758607
  H      -1.075326      1.070670     -0.683767
  H      -2.639657      1.808650     -1.113986
  C      -2.408172     -0.241771     -1.841754
  H      -2.224705      0.191963     -2.850072
  H      -3.499557     -0.499209     -1.830101
  C      -1.591122     -1.504608     -1.643116
  H      -1.686963     -1.980565     -0.647076
  C      -0.753296     -2.090725     -2.535453
  H      -0.247831     -3.027636     -2.221088
  C      -0.483215     -1.665136     -3.970362
  H       0.614865     -1.719047     -4.175901
  H      -0.769546     -0.600899     -4.134411
  C      -1.238607     -2.564500     -4.995948
  H      -2.329367     -2.548825     -4.753264
  H      -0.919048     -3.627207     -4.857060
  C      -1.023888     -2.166473     -6.477018
  H       0.061749     -2.255343     -6.727058
  H      -1.266318     -1.083064     -6.621118
  C      -1.861464     -3.027648     -7.459642
  H      -2.937536     -2.969503     -7.166183
  H      -1.565272     -4.099400     -7.335446
  C      -1.723650     -2.644561     -8.960102
  H      -2.054886     -1.585658     -9.103755
  H      -2.439842     -3.268513     -9.549171
  C      -0.302788     -2.827504     -9.551072
  H       0.072097     -3.852605     -9.306294
  H       0.409943     -2.120027     -9.061418
  C      -0.233267     -2.613885    -11.086811
  H      -0.648633     -1.606754    -11.338283
  H      -0.907515     -3.349456    -11.591644
  C       1.198603     -2.745889    -11.661391
  H       1.209369     -2.625127    -12.769335
  H       1.638703     -3.743257    -11.426770
  H       1.878747     -1.970182    -11.236889
  C       2.489692      1.151439      2.908283
  H       3.403887      0.595848      3.230259
  H       2.836123      2.181132      2.652509
  C       1.885890      0.476653      1.650642
  H       0.908544      0.961904      1.403132
  H       1.642814     -0.592187      1.867028
  C       2.826469      0.564835      0.420512
  H       3.778622      0.020313      0.640399
  H       3.118605      1.633431      0.281178
  C       2.217744     -0.004261     -0.886746
  H       1.930389     -1.068939     -0.719070
  H       1.269261      0.530966     -1.124649
  C       3.166761      0.079121     -2.115940
  H       4.104775     -0.487490     -1.893007
  H       2.691638     -0.437240     -2.983657
  C       3.542963      1.533578     -2.550269
  H       4.256174      1.489217     -3.404023
  H       4.101646      2.023267     -1.717271
  C       2.329580      2.387021     -2.893811
  H       1.736828      2.744950     -2.028204
  C       1.902826      2.734670     -4.133110
  H       0.992100      3.363463     -4.207063
  C       2.593170      2.440439     -5.453208
  H       1.833343      2.137684     -6.215566
  H       3.299242      1.583121     -5.365582
  C       3.356254      3.687809     -6.000182
  H       4.124409      3.992707     -5.247981
  H       2.645191      4.545986     -6.060826
  C       4.046863      3.444965     -7.363688
  H       4.835051      2.664738     -7.223898
  H       3.319386      2.994870     -8.084865
  C       4.697524      4.705251     -7.996362
  H       5.355947      5.204221     -7.242246
  H       5.376255      4.383145     -8.822783
  C       3.687355      5.744232     -8.558871
  H       2.930701      5.990633     -7.774578
  H       3.110083      5.271709     -9.392002
  C       4.349011      7.047486     -9.065270
  H       4.957910      7.501136     -8.243210
  H       5.084400      6.800876     -9.872375
  C       3.343725      8.096281     -9.605918
  H       2.812102      7.673805    -10.494113
  H       2.547336      8.274420     -8.840903
  C       4.006722      9.440630     -9.995796
  H       3.265752     10.156169    -10.421045
  H       4.481472      9.928872     -9.112688
  H       4.802606      9.290755    -10.763197
138
Coordinates from ORCA-job /wrk/rja7/qm_final_3_replicates/qm_final_1.1/qm/4/freq E -2722.569456474138
  N      -3.004322     -5.151363     13.088150
  C      -2.027482     -5.280212     11.868834
  H      -1.637257     -6.322178     11.924308
  H      -1.199993     -4.559145     12.040033
  C      -4.219144     -6.048099     12.898171
  H      -4.807963     -6.058593     13.839467
  H      -4.844016     -5.638651     12.081065
  H      -3.883014     -7.075889     12.650618
  C      -3.481497     -3.703725     13.298743
  H      -2.602481     -3.048646     13.448451
  H      -4.000751     -3.356273     12.388264
  H      -4.144595     -3.697743     14.190181
  C      -2.235993     -5.595301     14.329655
  H      -1.281603     -5.033423     14.373051
  H      -2.032957     -6.684352     14.267136
  H      -2.843477     -5.374852     15.232087
  C      -2.631834     -5.015707     10.465047
  H      -1.781908     -5.255777      9.771770
  H      -3.439789     -5.759270     10.241985
  P      -1.986313     -2.353998     10.328782
  O      -0.603860     -3.017229     10.337045
  O      -2.531369     -1.414674     11.386844
  O      -3.147276     -3.718428     10.275644
  O      -2.323351     -1.677475      8.825061
  C      -1.738544     -2.243462      7.641363
  H      -2.509292     -2.843709      7.090286
  H      -0.882776     -2.914518      7.895935
  C      -1.206220     -1.112839      6.742075
  H      -0.503141     -0.479747      7.326245
  O      -2.350063     -0.289372      6.312264
  C      -2.165683      1.069921      6.214981
  O      -1.130582      1.657518      6.503527
  C      -3.407196      1.767574      5.634285
  H      -3.653209      2.619694      6.309017
  H      -4.276534      1.072867      5.629145
  C      -0.493113     -1.662494      5.481028
  H      -1.188469     -2.284775      4.874608
  H       0.395516     -2.261902      5.780522
  O      -0.094657     -0.562303      4.606410
  C       1.117078      0.055229      4.884582
  O       1.957342     -0.414921      5.635647
  C       1.262879      1.374824      4.118309
  H       0.278568      1.698384      3.718231
  H       1.576431      2.125811      4.878568
  C      -3.117790      2.300045      4.194370
  H      -2.167210      2.884635      4.221674
  H      -3.916137      3.027714      3.910875
  C      -3.032608      1.176164      3.130021
  H      -4.027135      0.669314      3.062337
  H      -2.310370      0.394528      3.459988
  C      -2.606216      1.661985      1.718408
  H      -1.558852      2.051504      1.764216
  H      -3.240784      2.528377      1.404938
  C      -2.692055      0.540666      0.651565
  H      -3.756096      0.207417      0.559668
  H      -2.130173     -0.350212      1.023236
  C      -2.162089      0.942742     -0.748117
  H      -1.079382      1.196444     -0.673468
  H      -2.672110      1.877499     -1.087532
  C      -2.361114     -0.151418     -1.845100
  H      -2.182547      0.295023     -2.848598
  H      -3.440914     -0.452164     -1.839598
  C      -1.503891     -1.391601     -1.650105
  H      -1.583814     -1.874451     -0.655770
  C      -0.662270     -1.957346     -2.551823
  H      -0.124703     -2.878564     -2.244334
  C      -0.429778     -1.525620     -3.991386
  H       0.664210     -1.563049     -4.219118
  H      -0.738313     -0.466281     -4.146922
  C      -1.192173     -2.437826     -4.999950
  H      -2.277581     -2.431985     -4.735162
  H      -0.857711     -3.496312     -4.864289
  C      -1.014545     -2.035187     -6.484592
  H       0.068012     -2.098013     -6.754125
  H      -1.294748     -0.959959     -6.617504
  C      -1.854850     -2.915101     -7.447231
  H      -2.922851     -2.879513     -7.120192
  H      -1.540094     -3.982812     -7.333992
  C      -1.777640     -2.519830     -8.946564
  H      -2.126684     -1.464375     -9.071934
  H      -2.506234     -3.148192     -9.515527
  C      -0.376821     -2.678232     -9.591415
  H       0.016065     -3.704220     -9.378463
  H       0.345766     -1.972512     -9.113947
  C      -0.370821     -2.438597    -11.123219
  H      -0.799208     -1.428484    -11.338818
  H      -1.060893     -3.169042    -11.613469
  C       1.037788     -2.551758    -11.756587
  H       1.006299     -2.407864    -12.861252
  H       1.488723     -3.553021    -11.560571
  H       1.733279     -1.786222    -11.338681
  C       2.324296      1.320371      2.982832
  H       3.264149      0.869294      3.382915
  H       2.585870      2.368035      2.698503
  C       1.861437      0.547951      1.721327
  H       0.870020      0.943810      1.388931
  H       1.685833     -0.526178      1.975951
  C       2.871123      0.654735      0.549954
  H       3.852390      0.216924      0.861994
  H       3.073355      1.737197      0.361716
  C       2.395944     -0.033501     -0.754413
  H       2.199154     -1.112610     -0.549937
  H       1.411584      0.391462     -1.061724
  C       3.391516      0.085006     -1.942060
  H       4.366082     -0.382448     -1.656880
  H       3.000400     -0.508644     -2.802743
  C       3.661711      1.547957     -2.428616
  H       4.410335      1.521761     -3.252390
  H       4.146952      2.119493     -1.600487
  C       2.401140      2.286718     -2.853805
  H       1.735017      2.606684     -2.027567
  C       2.002497      2.574109     -4.117642
  H       1.042424      3.121342     -4.236440
  C       2.762315      2.301068     -5.408271
  H       2.051878      1.912136     -6.178970
  H       3.528969      1.504647     -5.266149
  C       3.455790      3.580480     -5.980120
  H       4.179503      3.966440     -5.221465
  H       2.689269      4.382911     -6.097526
  C       4.194812      3.335848     -7.322857
  H       5.011405      2.593875     -7.144843
  H       3.497971      2.842418     -8.046037
  C       4.805236      4.606156     -7.985679
  H       5.445816      5.150327     -7.245335
  H       5.497763      4.288824     -8.802743
  C       3.755280      5.588406     -8.571249
  H       3.003827      5.850557     -7.788152
  H       3.180516      5.064740     -9.375762
  C       4.365001      6.889709     -9.147861
  H       4.953968      7.410748     -8.351841
  H       5.105643      6.632016     -9.946082
  C       3.310495      7.865411     -9.731238
  H       2.769022      7.360907    -10.569533
  H       2.533551      8.074585     -8.955012
  C       3.917036      9.196112    -10.239999
  H       3.139747      9.859386    -10.684603
  H       4.409497      9.760388     -9.413218
  H       4.690431      9.014367    -11.023234
138
Coordinates from ORCA-job /wrk/rja7/qm_final_3_replicates/qm_final_1.1/qm/4/freq E -2722.569938339147
  N      -2.967401     -4.957670     13.151382
  C      -2.019491     -5.217431     11.930079
  H      -1.661958     -6.265848     12.049654
  H      -1.166439     -4.515141     12.039603
  C      -4.230213     -5.800560     13.044292
  H      -4.802975     -5.709498     13.990714
  H      -4.842183     -5.424654     12.202245
  H      -3.952176     -6.860876     12.871345
  C      -3.370084     -3.473247     13.252683
  H      -2.458618     -2.847876     13.313864
  H      -3.904889     -3.180540     12.331851
  H      -4.000262     -3.359140     14.160747
  C      -2.201787     -5.344445     14.411329
  H      -1.230080     -4.811030     14.408363
  H      -2.030515     -6.440790     14.414542
  H      -2.792262     -5.048548     15.303315
  C      -2.637059     -5.023079     10.519509
  H      -1.801363     -5.321265      9.832643
  H      -3.468770     -5.754067     10.348444
  P      -1.934148     -2.385714     10.299014
  O      -0.566835     -3.081559     10.308271
  O      -2.443098     -1.418139     11.351516
  O      -3.126561     -3.724011     10.283816
  O      -2.277074     -1.723315      8.790215
  C      -1.725073     -2.309270      7.599549
  H      -2.518301     -2.894261      7.064227
  H      -0.881946     -3.000555      7.842337
  C      -1.183513     -1.193885      6.684559
  H      -0.457399     -0.574270      7.254936
  O      -2.316354     -0.349438      6.270086
  C      -2.110501      1.006652      6.174878
  O      -1.061698      1.577831      6.445218
  C      -3.351578      1.720757      5.615549
  H      -3.565107      2.582615      6.288741
  H      -4.232588      1.041208      5.634325
  C      -0.505183     -1.757336      5.410389
  H      -1.221225     -2.374365      4.822901
  H       0.380089     -2.369759      5.693492
  O      -0.116193     -0.665593      4.519591
  C       1.102924     -0.048384      4.767627
  O       1.954003     -0.513030      5.510245
  C       1.231982      1.277707      4.006865
  H       0.242115      1.592091      3.611561
  H       1.539351      2.028676      4.769627
  C      -3.086237      2.243438      4.168767
  H      -2.132132      2.822722      4.170658
  H      -3.889853      2.969647      3.896326
  C      -3.023250      1.116179      3.105425
  H      -4.020454      0.612418      3.052376
  H      -2.302210      0.330648      3.429323
  C      -2.614576      1.602363      1.690621
  H      -1.571678      2.004638      1.727546
  H      -3.260934      2.459992      1.376976
  C      -2.684180      0.477943      0.625558
  H      -3.741324      0.122139      0.539427
  H      -2.098107     -0.398700      0.992740
  C      -2.180683      0.897343     -0.779415
  H      -1.098834      1.174950     -0.722975
  H      -2.719041      1.821499     -1.102072
  C      -2.374986     -0.198729     -1.875121
  H      -2.191818      0.243032     -2.879801
  H      -3.453046     -0.504828     -1.869291
  C      -1.519110     -1.440616     -1.671195
  H      -1.604302     -1.918588     -0.674926
  C      -0.679023     -2.017938     -2.567124
  H      -0.147055     -2.939421     -2.251030
  C      -0.432889     -1.594098     -4.007011
  H       0.659874     -1.661121     -4.231845
  H      -0.713540     -0.527614     -4.165980
  C      -1.217084     -2.488690     -5.014613
  H      -2.304864     -2.432810     -4.765843
  H      -0.928344     -3.557785     -4.859045
  C      -1.000744     -2.113727     -6.501666
  H       0.082851     -2.220368     -6.752130
  H      -1.243306     -1.031696     -6.651402
  C      -1.861520     -2.972706     -7.464771
  H      -2.933279     -2.876279     -7.162436
  H      -1.605418     -4.052550     -7.322342
  C      -1.730419     -2.614090     -8.968651
  H      -2.010805     -1.542195     -9.123200
  H      -2.482605     -3.208860     -9.542957
  C      -0.327191     -2.870055     -9.577576
  H      -0.008515     -3.917026     -9.343645
  H       0.427925     -2.207806     -9.088413
  C      -0.269933     -2.650604    -11.110840
  H      -0.618666     -1.614802    -11.347025
  H      -0.998948     -3.336149    -11.609206
  C       1.141263     -2.871906    -11.709523
  H       1.147192     -2.735813    -12.815513
  H       1.511990     -3.902176    -11.495669
  H       1.881759     -2.157931    -11.277932
  C       2.287285      1.235853      2.863007
  H       3.238844      0.803587      3.255671
  H       2.524062      2.288288      2.573724
  C       1.823936      0.460544      1.602322
  H       0.826989      0.850421      1.279286
  H       1.657369     -0.615406      1.855668
  C       2.820024      0.574574      0.418870
  H       3.806499      0.138302      0.715529
  H       3.015658      1.658784      0.232161
  C       2.320978     -0.102039     -0.883516
  H       2.131631     -1.184055     -0.686769
  H       1.325938      0.318793     -1.159911
  C       3.286861      0.023345     -2.096052
  H       4.261691     -0.462595     -1.845310
  H       2.861054     -0.552605     -2.952202
  C       3.575725      1.484914     -2.579878
  H       4.287610      1.443620     -3.434929
  H       4.114188      2.032964     -1.768747
  C       2.326416      2.271117     -2.946944
  H       1.693919      2.584532     -2.092310
  C       1.901649      2.617573     -4.188789
  H       0.964978      3.209456     -4.258005
  C       2.595062      2.352087     -5.516068
  H       1.832825      2.036129     -6.270700
  H       3.315928      1.505667     -5.433523
  C       3.342032      3.610572     -6.058492
  H       4.131626      3.904694     -5.325024
  H       2.626336      4.466298     -6.091611
  C       3.978667      3.400396     -7.457765
  H       4.721064      2.568072     -7.389834
  H       3.193870      3.046032     -8.172176
  C       4.680190      4.657661     -8.047072
  H       5.443198      5.035620     -7.320197
  H       5.256054      4.359794     -8.956797
  C       3.713964      5.814927     -8.412299
  H       3.089480      6.080744     -7.525971
  H       2.995542      5.459977     -9.193688
  C       4.429403      7.091517     -8.921275
  H       5.161556      7.438123     -8.149108
  H       5.040062      6.844204     -9.825556
  C       3.457304      8.251531     -9.259580
  H       2.752324      7.916112    -10.060264
  H       2.819878      8.466148     -8.366787
  C       4.174744      9.545761     -9.714581
  H       3.448156     10.349355     -9.975487
  H       4.842964      9.943529     -8.914517
  H       4.809953      9.361863    -10.613200
138
Coordinates from ORCA-job /wrk/rja7/qm_final_3_replicates/qm_final_1.1/qm/4/freq E -2722.571344213984
  N      -3.043493     -5.040494     13.115364
  C      -2.011792     -5.252562     11.954060
  H      -1.623910     -6.288292     12.088991
  H      -1.192917     -4.522454     12.122704
  C      -4.271343     -5.916887     12.913106
  H      -4.907959     -5.854659     13.820244
  H      -4.835939     -5.544866     12.037075
  H      -3.951989     -6.966586     12.746214
  C      -3.495891     -3.571036     13.215942
  H      -2.608989     -2.917357     13.322225
  H      -3.998240     -3.284564     12.275621
  H      -4.169369     -3.488737     14.096041
  C      -2.348429     -5.427031     14.415086
  H      -1.408141     -4.845608     14.494658
  H      -2.120716     -6.512912     14.400733
  H      -3.013924     -5.188125     15.270643
  C      -2.548504     -5.070576     10.509127
  H      -1.659685     -5.325874      9.873892
  H      -3.334665     -5.836244     10.283089
  P      -1.938678     -2.407662     10.311931
  O      -0.546816     -3.050182     10.357942
  O      -2.515348     -1.467226     11.354491
  O      -3.079740     -3.792350     10.245394
  O      -2.266752     -1.748229      8.799609
  C      -1.650677     -2.298993      7.623959
  H      -2.396390     -2.923649      7.066002
  H      -0.778282     -2.944589      7.888600
  C      -1.148583     -1.151541      6.728269
  H      -0.475918     -0.492436      7.319061
  O      -2.317775     -0.372193      6.286840
  C      -2.194625      0.994932      6.205126
  O      -1.188126      1.629017      6.496019
  C      -3.469822      1.632109      5.630493
  H      -3.736959      2.486401      6.293925
  H      -4.310936      0.903707      5.648067
  C      -0.408701     -1.669715      5.470062
  H      -1.070953     -2.333075      4.870154
  H       0.510371     -2.220972      5.770242
  O      -0.080352     -0.556530      4.581963
  C       1.082269      0.153651      4.848405
  O       1.954465     -0.238235      5.608196
  C       1.131193      1.465674      4.055777
  H       0.133120      1.692536      3.623214
  H       1.356587      2.257477      4.805761
  C      -3.223608      2.161383      4.182602
  H      -2.317783      2.813362      4.194034
  H      -4.077504      2.821577      3.895137
  C      -3.055339      1.038235      3.126945
  H      -4.005994      0.452261      3.065098
  H      -2.273951      0.317877      3.460570
  C      -2.677203      1.556054      1.715133
  H      -1.681203      2.062997      1.763822
  H      -3.402928      2.342454      1.388541
  C      -2.614502      0.427349      0.655219
  H      -3.618370     -0.060818      0.581303
  H      -1.916661     -0.365474      1.017295
  C      -2.188910      0.905036     -0.757244
  H      -1.151965      1.322597     -0.717931
  H      -2.848339      1.750788     -1.069002
  C      -2.256523     -0.208012     -1.850334
  H      -2.167012      0.255437     -2.858088
  H      -3.280368     -0.662690     -1.815476
  C      -1.224964     -1.314178     -1.681058
  H      -1.192141     -1.787285     -0.679504
  C      -0.361425     -1.779849     -2.617978
  H       0.312794     -2.612197     -2.327086
  C      -0.267269     -1.348940     -4.073354
  H       0.806894     -1.277322     -4.373592
  H      -0.694271     -0.329903     -4.217728
  C      -0.997634     -2.351285     -5.017864
  H      -2.060303     -2.439524     -4.683926
  H      -0.557217     -3.370589     -4.885950
  C      -0.957645     -1.963796     -6.516626
  H       0.105895     -1.906116     -6.853728
  H      -1.374158     -0.933015     -6.643816
  C      -1.752766     -2.953243     -7.408414
  H      -2.795364     -3.025417     -7.012161
  H      -1.318984     -3.978690     -7.298070
  C      -1.815941     -2.585291     -8.914439
  H      -2.268478     -1.568851     -9.030830
  H      -2.519999     -3.288592     -9.423309
  C      -0.452888     -2.626126     -9.652837
  H       0.038264     -3.614635     -9.468280
  H       0.237679     -1.860345     -9.223084
  C      -0.572922     -2.393282    -11.180396
  H      -1.090358     -1.419086    -11.363426
  H      -1.238037     -3.176075    -11.621729
  C       0.792156     -2.400530    -11.911963
  H       0.673186     -2.252538    -13.010025
  H       1.326550     -3.367930    -11.759138
  H       1.459696     -1.590931    -11.533297
  C       2.218726      1.470513      2.943464
  H       3.192917      1.142045      3.378858
  H       2.369653      2.525778      2.610212
  C       1.854615      0.598479      1.714250
  H       0.844166      0.900485      1.341927
  H       1.753619     -0.471647      2.020962
  C       2.874009      0.717736      0.552095
  H       3.882225      0.380083      0.899292
  H       2.990489      1.800288      0.300490
  C       2.462511     -0.077191     -0.713568
  H       2.357857     -1.156756     -0.450310
  H       1.443550      0.240902     -1.035110
  C       3.444373      0.048718     -1.911794
  H       4.446187     -0.347137     -1.613211
  H       3.083586     -0.606959     -2.739941
  C       3.635458      1.495983     -2.477105
  H       4.364403      1.456094     -3.317726
  H       4.117185      2.129930     -1.693155
  C       2.339821      2.163722     -2.910863
  H       1.656704      2.455855     -2.088152
  C       1.930105      2.426932     -4.177602
  H       0.951758      2.937051     -4.300700
  C       2.682796      2.154002     -5.469717
  H       1.972273      1.741647     -6.228368
  H       3.463104      1.371456     -5.323082
  C       3.347786      3.438019     -6.054752
  H       4.088329      3.828536     -5.314910
  H       2.571190      4.233144     -6.155251
  C       4.047088      3.204165     -7.419060
  H       4.821155      2.408441     -7.291349
  H       3.306436      2.787800     -8.147091
  C       4.717863      4.466106     -8.031623
  H       5.455076      4.889557     -7.303211
  H       5.320737      4.157827     -8.920296
  C       3.728335      5.582661     -8.457062
  H       3.099632      5.885009     -7.585511
  H       3.016201      5.173043     -9.217021
  C       4.421081      6.842520     -9.035040
  H       5.142016      7.246251     -8.280214
  H       5.042120      6.556199     -9.920618
  C       3.430324      7.963988     -9.441744
  H       2.719207      7.565215    -10.207216
  H       2.801484      8.233386     -8.557473
  C       4.124877      9.232832     -9.993392
  H       3.384642     10.010308    -10.292370
  H       4.802521      9.688982     -9.233457
  H       4.745939      8.997083    -10.889816
138
Coordinates from ORCA-job /wrk/rja7/qm_final_3_replicates/qm_final_1.1/qm/4/freq E -2722.571631398695
  N      -3.003448     -5.210410     13.087240
  C      -1.982550     -5.366206     11.907426
  H      -1.600345     -6.409018     11.993516
  H      -1.157483     -4.650555     12.102773
  C      -4.236202     -6.069587     12.845717
  H      -4.866603     -6.050057     13.758859
  H      -4.803626     -5.646762     11.994986
  H      -3.922846     -7.110450     12.622866
  C      -3.448637     -3.749801     13.280716
  H      -2.558795     -3.104377     13.403700
  H      -3.969028     -3.410395     12.369178
  H      -4.104332     -3.718436     14.177254
  C      -2.299722     -5.673292     14.357336
  H      -1.366532     -5.086963     14.473905
  H      -2.059569     -6.753005     14.272011
  H      -2.966020     -5.499079     15.227752
  C      -2.531387     -5.122565     10.475981
  H      -1.646676     -5.348924      9.824077
  H      -3.315212     -5.883453     10.227146
  P      -1.915037     -2.458067     10.314089
  O      -0.527862     -3.108695     10.295144
  O      -2.449641     -1.537843     11.395919
  O      -3.067092     -3.836986     10.247139
  O      -2.286829     -1.758847      8.831283
  C      -1.699796     -2.294119      7.634631
  H      -2.456089     -2.915929      7.088156
  H      -0.818753     -2.938192      7.873653
  C      -1.219856     -1.135118      6.744451
  H      -0.549135     -0.474272      7.334643
  O      -2.399466     -0.360063      6.317368
  C      -2.280162      1.008334      6.252737
  O      -1.270037      1.635926      6.546610
  C      -3.551236      1.661693      5.684345
  H      -3.808793      2.513667      6.354451
  H      -4.401513      0.943993      5.694649
  C      -0.483311     -1.635837      5.477846
  H      -1.135993     -2.312930      4.882951
  H       0.453222     -2.164428      5.764727
  O      -0.187745     -0.512152      4.594371
  C       0.951654      0.228754      4.872169
  O       1.827583     -0.138288      5.639315
  C       0.970524      1.535745      4.073303
  H      -0.023856      1.724052      3.616145
  H       1.149625      2.340331      4.822254
  C      -3.292142      2.204394      4.241436
  H      -2.384340      2.852527      4.272878
  H      -4.139844      2.872807      3.954613
  C      -3.120610      1.095941      3.170853
  H      -4.075290      0.519106      3.089025
  H      -2.347756      0.365767      3.499477
  C      -2.710859      1.634595      1.774438
  H      -1.718471      2.145587      1.857399
  H      -3.431767      2.422846      1.441621
  C      -2.617879      0.523129      0.698413
  H      -3.610670      0.014967      0.610338
  H      -1.906579     -0.261347      1.053420
  C      -2.176968      1.030557     -0.700097
  H      -1.158772      1.471441     -0.626685
  H      -2.847973      1.863909     -1.018449
  C      -2.187715     -0.059857     -1.816080
  H      -2.091409      0.430071     -2.810996
  H      -3.200155     -0.541444     -1.815913
  C      -1.126616     -1.136232     -1.651455
  H      -1.085213     -1.618310     -0.654501
  C      -0.250484     -1.573987     -2.590238
  H       0.439894     -2.394101     -2.303086
  C      -0.168121     -1.137241     -4.044804
  H       0.902724     -1.074469     -4.359228
  H      -0.586678     -0.113419     -4.180420
  C      -0.925793     -2.125402     -4.983571
  H      -1.987800     -2.189921     -4.641936
  H      -0.509135     -3.154723     -4.852883
  C      -0.891447     -1.741787     -6.483929
  H       0.168922     -1.713275     -6.833836
  H      -1.280331     -0.699836     -6.609416
  C      -1.725655     -2.708573     -7.365845
  H      -2.766816     -2.745552     -6.961857
  H      -1.323850     -3.746804     -7.254410
  C      -1.789369     -2.345125     -8.874121
  H      -2.198692     -1.310342     -8.989576
  H      -2.529715     -3.019275     -9.370660
  C      -0.439083     -2.449914     -9.629242
  H       0.005919     -3.461055     -9.450712
  H       0.292133     -1.717999     -9.207984
  C      -0.566508     -2.209830    -11.155756
  H      -1.036060     -1.210420    -11.331977
  H      -1.276514     -2.957090    -11.588856
  C       0.786118     -2.284409    -11.906128
  H       0.659474     -2.121985    -13.001322
  H       1.272474     -3.279071    -11.767993
  H       1.499530     -1.512392    -11.532564
  C       2.078803      1.568706      2.986043
  H       3.057712      1.304861      3.453667
  H       2.183070      2.619269      2.622205
  C       1.788076      0.637915      1.782334
  H       0.774680      0.878074      1.372340
  H       1.729706     -0.424619      2.123615
  C       2.832078      0.769773      0.645915
  H       3.847760      0.513235      1.038145
  H       2.890411      1.845245      0.348564
  C       2.512169     -0.104048     -0.592302
  H       2.476388     -1.177477     -0.284970
  H       1.485540      0.128354     -0.958603
  C       3.523603      0.045998     -1.759807
  H       4.538209     -0.270811     -1.413461
  H       3.238621     -0.657695     -2.578651
  C       3.636418      1.488384     -2.354958
  H       4.404108      1.479817     -3.161402
  H       4.033597      2.176331     -1.569139
  C       2.317155      2.045965     -2.864744
  H       1.565191      2.282178     -2.085164
  C       1.962155      2.260777     -4.155158
  H       0.947054      2.676727     -4.341777
  C       2.833544      2.051314     -5.387674
  H       2.230212      1.532239     -6.173193
  H       3.687865      1.373605     -5.156823
  C       3.390529      3.380436     -5.994649
  H       4.020226      3.894052     -5.227517
  H       2.538719      4.071866     -6.198194
  C       4.225170      3.151563     -7.285028
  H       5.063747      2.453155     -7.043987
  H       3.591029      2.612323     -8.032766
  C       4.816505      4.427264     -7.956400
  H       5.455462      4.988435     -7.226306
  H       5.510593      4.106051     -8.771205
  C       3.761501      5.392935     -8.559810
  H       3.057945      5.736597     -7.763884
  H       3.133473      4.829661     -9.294435
  C       4.375520      6.629597     -9.263231
  H       5.011558      7.193615     -8.535678
  H       5.072600      6.290814    -10.070325
  C       3.319702      7.590463     -9.869113
  H       2.683967      7.026261    -10.595436
  H       2.624837      7.927007     -9.060034
  C       3.936474      8.824913    -10.571190
  H       3.151480      9.486980    -11.003897
  H       4.539044      9.438477     -9.860455
  H       4.615290      8.520564    -11.402639
138
Coordinates from ORCA-job /wrk/rja7/qm_final_3_replicates/qm_final_1.1/qm/4/freq E -2722.572925767144
  N      -3.051892     -5.100280     13.115012
  C      -2.024850     -5.322549     11.950929
  H      -1.676066     -6.374099     12.067719
  H      -1.179486     -4.627976     12.136376
  C      -4.315710     -5.914417     12.877249
  H      -4.957632     -5.845431     13.780060
  H      -4.853179     -5.491891     12.007075
  H      -4.042627     -6.972808     12.686063
  C      -3.439341     -3.617742     13.267151
  H      -2.524545     -3.003964     13.368812
  H      -3.948727     -3.284241     12.346721
  H      -4.090701     -3.534604     14.163504
  C      -2.383010     -5.561973     14.403769
  H      -1.436626     -4.998687     14.528394
  H      -2.169915     -6.648797     14.338155
  H      -3.059446     -5.357367     15.259590
  C      -2.552894     -5.100061     10.508786
  H      -1.668796     -5.367679      9.872022
  H      -3.357263     -5.842709     10.270704
  P      -1.849373     -2.462489     10.302809
  O      -0.484015     -3.157912     10.286369
  O      -2.349637     -1.517890     11.380713
  O      -3.046969     -3.804412     10.251059
  O      -2.209105     -1.762382      8.817095
  C      -1.643070     -2.309374      7.614099
  H      -2.416222     -2.917544      7.075903
  H      -0.771862     -2.969775      7.843637
  C      -1.154637     -1.158001      6.716991
  H      -0.472639     -0.502974      7.301364
  O      -2.331578     -0.374700      6.297701
  C      -2.214131      0.993795      6.243089
  O      -1.208135      1.623698      6.545595
  C      -3.492702      1.645063      5.690380
  H      -3.743641      2.494181      6.366678
  H      -4.340541      0.924594      5.708258
  C      -0.435154     -1.666923      5.442944
  H      -1.105766     -2.325578      4.847176
  H       0.490433     -2.218926      5.721191
  O      -0.117208     -0.543133      4.565483
  C       1.055837      0.151209      4.826738
  O       1.933033     -0.261200      5.569134
  C       1.112329      1.468583      4.044801
  H       0.117721      1.702570      3.609423
  H       1.336672      2.254067      4.801866
  C      -3.256910      2.194678      4.246315
  H      -2.348895      2.843144      4.264313
  H      -4.110186      2.863734      3.978032
  C      -3.105926      1.091756      3.166370
  H      -4.066093      0.523444      3.090215
  H      -2.335770      0.352528      3.482513
  C      -2.711595      1.636430      1.767892
  H      -1.718239      2.146004      1.840974
  H      -3.435151      2.427166      1.446823
  C      -2.631737      0.530031      0.685172
  H      -3.624957      0.021115      0.606851
  H      -1.914643     -0.254429      1.028305
  C      -2.214405      1.045611     -0.717788
  H      -1.194201      1.495296     -0.660137
  H      -2.897344      1.875985     -1.020032
  C      -2.237995     -0.043057     -1.836704
  H      -2.142489      0.447289     -2.831569
  H      -3.253439     -0.518053     -1.832081
  C      -1.186185     -1.129745     -1.677476
  H      -1.143155     -1.609325     -0.679343
  C      -0.312209     -1.572630     -2.616154
  H       0.376014     -2.393321     -2.325912
  C      -0.219219     -1.135177     -4.070106
  H       0.853719     -1.086954     -4.378135
  H      -0.621537     -0.105126     -4.207982
  C      -0.981850     -2.114275     -5.014375
  H      -2.054181     -2.142795     -4.701500
  H      -0.598136     -3.152658     -4.857129
  C      -0.891781     -1.757547     -6.519209
  H       0.180274     -1.753953     -6.832765
  H      -1.257468     -0.711479     -6.676069
  C      -1.712226     -2.727224     -7.410834
  H      -2.769438     -2.730167     -7.048850
  H      -1.339340     -3.770936     -7.257473
  C      -1.706267     -2.403288     -8.929436
  H      -2.077333     -1.359872     -9.087978
  H      -2.447948     -3.067720     -9.436935
  C      -0.332122     -2.571060     -9.628613
  H       0.069629     -3.592835     -9.411711
  H       0.407890     -1.855872     -9.194116
  C      -0.392066     -2.361995    -11.163940
  H      -0.815938     -1.350086    -11.379992
  H      -1.113060     -3.092094    -11.607976
  C       0.984388     -2.504690    -11.859025
  H       0.906915     -2.358811    -12.961125
  H       1.424405     -3.514978    -11.684029
  H       1.713739     -1.754665    -11.471592
  C       2.200373      1.476455      2.935185
  H       3.181174      1.181959      3.379416
  H       2.325167      2.526553      2.576250
  C       1.857268      0.568187      1.727830
  H       0.843894      0.844864      1.342730
  H       1.771809     -0.495576      2.059569
  C       2.878711      0.680207      0.568329
  H       3.897923      0.402316      0.936464
  H       2.951096      1.754550      0.270107
  C       2.508076     -0.184472     -0.662274
  H       2.463324     -1.257589     -0.355551
  H       1.474029      0.064857     -0.994022
  C       3.482407     -0.053183     -1.864688
  H       4.500436     -0.397097     -1.556425
  H       3.149823     -0.747099     -2.673567
  C       3.613142      1.386296     -2.464960
  H       4.341539      1.355100     -3.306193
  H       4.069509      2.057974     -1.697153
  C       2.291772      1.993337     -2.909548
  H       1.583246      2.238699     -2.092990
  C       1.888801      2.254638     -4.178354
  H       0.886726      2.716663     -4.309089
  C       2.682970      2.039886     -5.458510
  H       2.015838      1.574347     -6.226171
  H       3.514219      1.316189     -5.294089
  C       3.267152      3.362880     -6.046862
  H       3.962227      3.815641     -5.297872
  H       2.439186      4.099664     -6.176090
  C       4.013776      3.152588     -7.390869
  H       4.812983      2.386782     -7.236908
  H       3.306760      2.703244     -8.132873
  C       4.656047      4.427782     -8.008735
  H       5.384553      4.876468     -7.285689
  H       5.265635      4.123352     -8.894484
  C       3.644827      5.517869     -8.452691
  H       3.045158      5.861285     -7.575777
  H       2.908935      5.066825     -9.164827
  C       4.309818      6.747845     -9.120460
  H       5.050321      7.197918     -8.412378
  H       4.906615      6.414421    -10.006244
  C       3.300682      7.839413     -9.561253
  H       2.550306      7.388152    -10.256895
  H       2.717896      8.178956     -8.669347
  C       3.967631      9.060645    -10.239923
  H       3.214664      9.822650    -10.546848
  H       4.691983      9.561428     -9.554937
  H       4.532097      8.758461    -11.153611
138
Coordinates from ORCA-job /wrk/rja7/qm_final_3_replicates/qm_final_1.1/qm/4/freq E -2722.573027917546
  N      -3.192890     -5.128093     13.045881
  C      -2.128475     -5.383291     11.923573
  H      -1.808763     -6.442279     12.055747
  H      -1.273723     -4.708438     12.139116
  C      -4.469600     -5.907680     12.763210
  H      -5.144517     -5.811862     13.639083
  H      -4.959198     -5.479368     11.867717
  H      -4.219328     -6.975283     12.592160
  C      -3.543533     -3.632997     13.176565
  H      -2.615114     -3.043882     13.300190
  H      -4.015392     -3.292300     12.238694
  H      -4.219078     -3.526231     14.052190
  C      -2.590940     -5.604150     14.361947
  H      -1.637329     -5.063997     14.529455
  H      -2.400520     -6.695808     14.305265
  H      -3.299547     -5.383533     15.187239
  C      -2.597975     -5.150376     10.464090
  H      -1.696173     -5.430827      9.858515
  H      -3.407410     -5.875677     10.192656
  P      -1.852920     -2.518002     10.319529
  O      -0.492833     -3.224623     10.337067
  O      -2.381755     -1.588055     11.397134
  O      -3.062205     -3.845257     10.202666
  O      -2.165639     -1.794339      8.835163
  C      -1.563326     -2.317169      7.639176
  H      -2.316594     -2.925591      7.073763
  H      -0.691271     -2.972474      7.880084
  C      -1.071377     -1.147592      6.767400
  H      -0.414481     -0.486011      7.372894
  O      -2.251535     -0.380709      6.333622
  C      -2.145972      0.988788      6.279166
  O      -1.147640      1.628352      6.585799
  C      -3.422817      1.622694      5.707083
  H      -3.695909      2.465760      6.382317
  H      -4.259868      0.889554      5.711263
  C      -0.312138     -1.633392      5.507289
  H      -0.956999     -2.301242      4.893454
  H       0.615935     -2.170378      5.805907
  O      -0.003656     -0.506705      4.630090
  C       1.148848      0.222150      4.889247
  O       2.032188     -0.150967      5.645062
  C       1.154892      1.537561      4.101412
  H       0.152191      1.727995      3.661853
  H       1.345595      2.337965      4.852286
  C      -3.179104      2.182109      4.269558
  H      -2.273518      2.833684      4.294707
  H      -4.033880      2.849508      4.002092
  C      -3.018036      1.086670      3.184341
  H      -3.975404      0.514536      3.101496
  H      -2.245749      0.347812      3.498652
  C      -2.634375      1.645698      1.789908
  H      -1.648690      2.170305      1.861343
  H      -3.371904      2.427183      1.477999
  C      -2.547871      0.549246      0.697913
  H      -3.534045      0.026152      0.624460
  H      -1.816504     -0.227901      1.027352
  C      -2.166317      1.089142     -0.705087
  H      -1.152406      1.568249     -0.666907
  H      -2.880069      1.904244     -0.979232
  C      -2.187250      0.012676     -1.836674
  H      -2.131415      0.517943     -2.827302
  H      -3.188753     -0.490282     -1.811825
  C      -1.103026     -1.047059     -1.717821
  H      -1.015288     -1.528814     -0.723540
  C      -0.245374     -1.463009     -2.683550
  H       0.473364     -2.264251     -2.414280
  C      -0.201361     -1.020740     -4.138315
  H       0.861241     -0.955829     -4.475842
  H      -0.621935      0.003584     -4.264076
  C      -0.973767     -2.010293     -5.063496
  H      -2.040010     -2.046694     -4.731325
  H      -0.577020     -3.044206     -4.908863
  C      -0.910631     -1.660883     -6.571443
  H       0.156255     -1.655180     -6.902564
  H      -1.283315     -0.617401     -6.729059
  C      -1.740785     -2.639039     -7.444208
  H      -2.795838     -2.634479     -7.075941
  H      -1.368149     -3.681326     -7.280610
  C      -1.739224     -2.336535     -8.967146
  H      -2.100212     -1.291762     -9.139507
  H      -2.489257     -3.000872     -9.462246
  C      -0.369108     -2.529539     -9.668395
  H       0.021353     -3.552547     -9.437572
  H       0.380921     -1.816981     -9.246761
  C      -0.431316     -2.343182    -11.206436
  H      -0.840532     -1.328615    -11.437518
  H      -1.164711     -3.069379    -11.636180
  C       0.940546     -2.519462    -11.903200
  H       0.861888     -2.389122    -13.007131
  H       1.363442     -3.534256    -11.713836
  H       1.684027     -1.776438    -11.529282
  C       2.246260      1.577158      2.994504
  H       3.236285      1.325355      3.444264
  H       2.329998      2.627972      2.625978
  C       1.951730      0.637388      1.797281
  H       0.929798      0.861110      1.399273
  H       1.910413     -0.423466      2.146251
  C       2.979057      0.772797      0.644623
  H       4.004753      0.539907      1.026244
  H       3.011170      1.844445      0.330841
  C       2.659059     -0.130176     -0.573665
  H       2.650733     -1.197040     -0.241639
  H       1.621245      0.070051     -0.925359
  C       3.646393      0.007986     -1.766250
  H       4.669065     -0.302529     -1.438676
  H       3.344333     -0.710414     -2.565728
  C       3.743337      1.436484     -2.399405
  H       4.469366      1.404125     -3.242637
  H       4.188303      2.134607     -1.648733
  C       2.407809      2.001653     -2.857436
  H       1.698332      2.261241     -2.046157
  C       1.993333      2.209062     -4.133257
  H       0.988791      2.652875     -4.279935
  C       2.768906      1.945837     -5.410609
  H       2.102473      1.432156     -6.148014
  H       3.617618      1.246437     -5.229968
  C       3.300276      3.260642     -6.052600
  H       3.987597      3.762729     -5.328310
  H       2.443762      3.961701     -6.196780
  C       4.037239      3.038830     -7.395906
  H       4.871691      2.313329     -7.234671
  H       3.345315      2.540156     -8.120421
  C       4.603639      4.333270     -8.034973
  H       5.319283      4.817786     -7.325492
  H       5.210716      4.053473     -8.930618
  C       3.532240      5.370201     -8.464328
  H       2.938321      5.691968     -7.575148
  H       2.801913      4.880517     -9.156450
  C       4.125890      6.626784     -9.149913
  H       4.860334      7.112153     -8.459276
  H       4.717076      6.317659    -10.048119
  C       3.058794      7.670309     -9.570398
  H       2.318629      7.185804    -10.254214
  H       2.476808      7.980951     -8.667628
  C       3.656908      8.923293    -10.255522
  H       2.864610      9.651844    -10.544084
  H       4.370687      9.452822     -9.581188
  H       4.216613      8.650847    -11.181420
138
Coordinates from ORCA-job /wrk/rja7/qm_final_3_replicates/qm_final_1.1/qm/4/freq E -2722.573538953871
  N      -3.162825     -5.141157     13.080544
  C      -2.098208     -5.385596     11.955299
  H      -1.774629     -6.443827     12.082677
  H      -1.246124     -4.708975     12.175544
  C      -4.434686     -5.929102     12.799568
  H      -5.109245     -5.835344     13.675733
  H      -4.927892     -5.506842     11.903093
  H      -4.178146     -6.995612     12.631246
  C      -3.523430     -3.649311     13.215648
  H      -2.598373     -3.052466     13.325642
  H      -4.010274     -3.314037     12.283635
  H      -4.188878     -3.547824     14.099461
  C      -2.556859     -5.616441     14.394862
  H      -1.611696     -5.063747     14.569768
  H      -2.350064     -6.704631     14.331528
  H      -3.270936     -5.412292     15.219609
  C      -2.566185     -5.147758     10.495296
  H      -1.662249     -5.424419      9.891090
  H      -3.373829     -5.873944     10.221005
  P      -1.814111     -2.518522     10.340045
  O      -0.458251     -3.232463     10.350021
  O      -2.331982     -1.586000     11.420737
  O      -3.029332     -3.841925     10.231027
  O      -2.130011     -1.790110      8.857900
  C      -1.543876     -2.320070      7.656428
  H      -2.305183     -2.929489      7.102981
  H      -0.670953     -2.976634      7.890730
  C      -1.058950     -1.155190      6.773089
  H      -0.393366     -0.493998      7.369278
  O      -2.241107     -0.385674      6.346357
  C      -2.131004      0.983375      6.284329
  O      -1.127372      1.619439      6.581183
  C      -3.413956      1.624885      5.732286
  H      -3.676478      2.463045      6.417844
  H      -4.253208      0.894338      5.740335
  C      -0.316424     -1.645211      5.505053
  H      -0.966752     -2.318535      4.902945
  H       0.618129     -2.177394      5.791998
  O      -0.021715     -0.516270      4.626539
  C       1.137181      0.206120      4.876283
  O       2.026763     -0.177371      5.619192
  C       1.151940      1.518508      4.083462
  H       0.148176      1.716903      3.650265
  H       1.355900      2.318938      4.830849
  C      -3.185174      2.196987      4.296060
  H      -2.275365      2.842714      4.317140
  H      -4.038824      2.872363      4.045580
  C      -3.045708      1.112238      3.196582
  H      -4.007997      0.547339      3.121416
  H      -2.273754      0.365585      3.492799
  C      -2.673331      1.681965      1.802356
  H      -1.687965      2.206870      1.870963
  H      -3.412785      2.465771      1.500995
  C      -2.593052      0.592663      0.701562
  H      -3.578311      0.066932      0.634790
  H      -1.855466     -0.183137      1.020310
  C      -2.217683      1.138389     -0.701784
  H      -1.210885      1.624670     -0.660876
  H      -2.936428      1.947832     -0.977405
  C      -2.229792      0.064528     -1.835960
  H      -2.174030      0.573501     -2.824890
  H      -3.228512     -0.444316     -1.815871
  C      -1.139254     -0.988062     -1.716712
  H      -1.050210     -1.470380     -0.722776
  C      -0.273651     -1.394607     -2.679339
  H       0.451686     -2.188750     -2.406724
  C      -0.221453     -0.947317     -4.132201
  H       0.843323     -0.878565     -4.461242
  H      -0.642944      0.076673     -4.258604
  C      -0.983064     -1.935895     -5.067591
  H      -2.055770     -1.964676     -4.756269
  H      -0.595252     -2.971426     -4.901641
  C      -0.886644     -1.592322     -6.575357
  H       0.187280     -1.589633     -6.882974
  H      -1.253846     -0.548799     -6.745216
  C      -1.698513     -2.572170     -7.463441
  H      -2.763035     -2.559016     -7.124171
  H      -1.336246     -3.615250     -7.282586
  C      -1.653629     -2.280997     -8.988331
  H      -1.999567     -1.234060     -9.177599
  H      -2.396895     -2.941547     -9.498347
  C      -0.267803     -2.492409     -9.652577
  H       0.105413     -3.518173     -9.406216
  H       0.478619     -1.785632     -9.215168
  C      -0.287274     -2.315392    -11.193151
  H      -0.676047     -1.296868    -11.441320
  H      -1.019567     -3.034251    -11.636876
  C       1.099135     -2.516337    -11.853392
  H       1.050794     -2.391083    -12.959635
  H       1.501123     -3.536362    -11.647738
  H       1.844260     -1.782707    -11.464466
  C       2.233489      1.546655      2.966649
  H       3.227755      1.300046      3.409756
  H       2.312471      2.593395      2.585885
  C       1.927074      0.598031      1.779864
  H       0.899641      0.814940      1.393802
  H       1.894740     -0.460698      2.136013
  C       2.936616      0.733392      0.612025
  H       3.970648      0.519386      0.981945
  H       2.949837      1.801159      0.284327
  C       2.608134     -0.185874     -0.590979
  H       2.622426     -1.249238     -0.247887
  H       1.561406     -0.003428     -0.925538
  C       3.570247     -0.044862     -1.803174
  H       4.603941     -0.334980     -1.491962
  H       3.264457     -0.776195     -2.589385
  C       3.633742      1.379502     -2.449946
  H       4.353997      1.352186     -3.298409
  H       4.071420      2.092849     -1.709369
  C       2.285560      1.919067     -2.902141
  H       1.575017      2.165243     -2.087720
  C       1.865327      2.129744     -4.175369
  H       0.853030      2.563512     -4.314049
  C       2.651742      1.898136     -5.455945
  H       1.992708      1.392311     -6.205418
  H       3.503459      1.201290     -5.279050
  C       3.188683      3.222947     -6.078910
  H       3.858899      3.722233     -5.336915
  H       2.332778      3.922212     -6.234543
  C       3.955870      3.011287     -7.409811
  H       4.777734      2.274684     -7.234630
  H       3.274680      2.529505     -8.155692
  C       4.560396      4.301985     -8.027927
  H       5.261121      4.776598     -7.296168
  H       5.191012      4.015925     -8.905320
  C       3.517529      5.354691     -8.488661
  H       2.901862      5.685484     -7.617755
  H       2.801758      4.877030     -9.203828
  C       4.152432      6.603135     -9.151975
  H       4.870007      7.076150     -8.435697
  H       4.769060      6.285752    -10.030017
  C       3.116336      7.663093     -9.607574
  H       2.396253      7.192353    -10.321620
  H       2.504644      7.978290     -8.726180
  C       3.758419      8.910720    -10.262322
  H       2.988590      9.653374    -10.574762
  H       4.454880      9.424538     -9.558469
  H       4.347735      8.635198    -11.168663
138
Coordinates from ORCA-job /wrk/rja7/qm_final_3_replicates/qm_final_1.1/qm/4/freq E -2722.573777537699
  N      -3.242486     -5.141531     13.043612
  C      -2.164183     -5.375840     11.930069
  H      -1.854357     -6.439918     12.041719
  H      -1.307919     -4.714060     12.177901
  C      -4.511139     -5.927202     12.742018
  H      -5.198094     -5.833643     13.608344
  H      -4.991494     -5.505597     11.838096
  H      -4.253255     -6.994029     12.576985
  C      -3.603933     -3.650518     13.185816
  H      -2.679768     -3.051994     13.294202
  H      -4.093177     -3.313807     12.255582
  H      -4.268737     -3.553463     14.070610
  C      -2.655268     -5.628460     14.361825
  H      -1.717555     -5.071400     14.562394
  H      -2.438510     -6.714061     14.288516
  H      -3.385705     -5.440988     15.176161
  C      -2.606673     -5.102549     10.468283
  H      -1.698727     -5.384913      9.872701
  H      -3.424435     -5.807428     10.169402
  P      -1.787306     -2.494353     10.353906
  O      -0.452705     -3.247195     10.344584
  O      -2.275198     -1.569747     11.455582
  O      -3.037821     -3.782445     10.219402
  O      -2.086104     -1.727620      8.887393
  C      -1.528058     -2.265513      7.676582
  H      -2.309981     -2.855629      7.130660
  H      -0.668778     -2.943673      7.899906
  C      -1.025475     -1.111701      6.789063
  H      -0.340375     -0.465136      7.379038
  O      -2.194851     -0.317428      6.370163
  C      -2.058278      1.048534      6.288722
  O      -1.038264      1.668661      6.562359
  C      -3.334372      1.706528      5.739092
  H      -3.576365      2.558155      6.415792
  H      -4.186149      0.991134      5.764218
  C      -0.302161     -1.623985      5.518373
  H      -0.970128     -2.286563      4.923570
  H       0.621516     -2.175334      5.804662
  O       0.024925     -0.508567      4.635194
  C       1.216579      0.159510      4.882566
  O       2.090393     -0.272832      5.617009
  C       1.285058      1.486732      4.117482
  H       0.289581      1.739711      3.694095
  H       1.529614      2.263212      4.877743
  C      -3.108475      2.253218      4.292768
  H      -2.185224      2.879734      4.295517
  H      -3.950116      2.942540      4.039691
  C      -3.001754      1.148640      3.208929
  H      -3.975024      0.600235      3.154753
  H      -2.239695      0.392869      3.508605
  C      -2.635333      1.688779      1.801299
  H      -1.642824      2.201912      1.851599
  H      -3.367106      2.477505      1.494071
  C      -2.578498      0.580811      0.716955
  H      -3.569470      0.063847      0.669665
  H      -1.844282     -0.196511      1.039915
  C      -2.208968      1.102666     -0.696843
  H      -1.200684      1.580900     -0.668316
  H      -2.922853      1.914193     -0.978804
  C      -2.235200      0.016417     -1.819289
  H      -2.193993      0.517175     -2.813287
  H      -3.232521     -0.494215     -1.781813
  C      -1.138624     -1.030378     -1.703510
  H      -1.034867     -1.501027     -0.705337
  C      -0.279684     -1.441456     -2.670279
  H       0.455899     -2.224933     -2.394064
  C      -0.238589     -1.009284     -4.127832
  H       0.824781     -0.927888     -4.457198
  H      -0.673621      0.007616     -4.263984
  C      -0.980806     -2.015480     -5.059966
  H      -2.053735     -2.064737     -4.752061
  H      -0.572524     -3.042828     -4.892192
  C      -0.883634     -1.666535     -6.566784
  H       0.192275     -1.626975     -6.864904
  H      -1.283672     -0.635151     -6.736681
  C      -1.651120     -2.668650     -7.469128
  H      -2.715961     -2.705344     -7.132727
  H      -1.245737     -3.697964     -7.301641
  C      -1.616091     -2.351559     -8.989564
  H      -2.012162     -1.319551     -9.162130
  H      -2.325353     -3.037856     -9.513748
  C      -0.219031     -2.480120     -9.652325
  H       0.203676     -3.491812     -9.428562
  H       0.490010     -1.748014     -9.194828
  C      -0.240590     -2.266400    -11.188564
  H      -0.677329     -1.262067    -11.413731
  H      -0.935729     -3.008584    -11.653176
  C       1.156416     -2.384532    -11.846410
  H       1.106485     -2.233474    -12.949339
  H       1.605126     -3.389473    -11.664415
  H       1.864696     -1.627010    -11.435105
  C       2.361143      1.480981      2.995379
  H       3.346192      1.184808      3.428503
  H       2.484123      2.527666      2.626299
  C       2.004539      0.562498      1.799294
  H       0.977006      0.816568      1.437294
  H       1.948265     -0.500682      2.138888
  C       2.997435      0.683028      0.615799
  H       4.031977      0.440588      0.966089
  H       3.031734      1.752294      0.294635
  C       2.622082     -0.218597     -0.586648
  H       2.629135     -1.285714     -0.253744
  H       1.569593     -0.013861     -0.889134
  C       3.551001     -0.083982     -1.824932
  H       4.587578     -0.395538     -1.545761
  H       3.207424     -0.803314     -2.607046
  C       3.627693      1.343539     -2.463396
  H       4.318591      1.303581     -3.335755
  H       4.108115      2.039450     -1.732702
  C       2.282536      1.926458     -2.867410
  H       1.602418      2.180142     -2.029762
  C       1.832492      2.162245     -4.125140
  H       0.823681      2.615763     -4.230800
  C       2.586018      1.935621     -5.428420
  H       1.902041      1.442955     -6.164066
  H       3.434087      1.228039     -5.276290
  C       3.126259      3.256667     -6.059790
  H       3.815337      3.747491     -5.329649
  H       2.275613      3.965862     -6.197622
  C       3.865732      3.036885     -7.407247
  H       4.680498      2.288986     -7.247424
  H       3.162928      2.566463     -8.140160
  C       4.479197      4.318294     -8.039905
  H       5.194985      4.787825     -7.318932
  H       5.093860      4.022037     -8.925212
  C       3.440586      5.380096     -8.490128
  H       2.843816      5.724134     -7.611317
  H       2.707526      4.904419     -9.188659
  C       4.077099      6.616614     -9.174171
  H       4.810640      7.088785     -8.473893
  H       4.675328      6.285510    -10.059857
  C       3.043140      7.681703     -9.622923
  H       2.308227      7.209912    -10.320698
  H       2.448334      8.010788     -8.735089
  C       3.685951      8.916896    -10.300470
  H       2.918466      9.665219    -10.604971
  H       4.400892      9.428525     -9.613686
  H       4.255315      8.627048    -11.214995
138
Coordinates from ORCA-job /wrk/rja7/qm_final_3_replicates/qm_final_1.1/qm/4/freq E -2722.574091567170
  N      -3.292570     -5.156004     13.018511
  C      -2.208095     -5.403425     11.914203
  H      -1.916435     -6.472869     12.024056
  H      -1.343106     -4.757799     12.174627
  C      -4.560715     -5.943286     12.718663
  H      -5.254268     -5.835205     13.578003
  H      -5.033882     -5.535982     11.804427
  H      -4.303815     -7.013208     12.572126
  C      -3.651537     -3.662380     13.143288
  H      -2.726595     -3.062560     13.240624
  H      -4.142222     -3.338090     12.209342
  H      -4.315394     -3.553366     14.027415
  C      -2.713886     -5.630725     14.344782
  H      -1.778759     -5.070289     14.548196
  H      -2.494297     -6.716495     14.282296
  H      -3.450565     -5.437976     15.152269
  C      -2.631150     -5.113753     10.449948
  H      -1.724495     -5.413419      9.861105
  H      -3.462945     -5.797210     10.139840
  P      -1.749442     -2.525116     10.361015
  O      -0.432382     -3.308239     10.342262
  O      -2.217325     -1.604884     11.475196
  O      -3.028681     -3.782162     10.206436
  O      -2.031372     -1.732477      8.904918
  C      -1.483413     -2.265163      7.687396
  H      -2.270164     -2.850009      7.142559
  H      -0.624716     -2.947118      7.901263
  C      -0.984567     -1.107488      6.803355
  H      -0.300672     -0.460506      7.394587
  O      -2.155588     -0.315344      6.387356
  C      -2.017858      1.050358      6.302672
  O      -0.999367      1.671175      6.580298
  C      -3.295783      1.707552      5.757605
  H      -3.541252      2.554487      6.439059
  H      -4.144879      0.988865      5.779583
  C      -0.260454     -1.615350      5.531338
  H      -0.925520     -2.281964      4.937734
  H       0.666438     -2.161481      5.816814
  O       0.055546     -0.497522      4.647139
  C       1.238829      0.186752      4.891493
  O       2.123123     -0.234925      5.619797
  C       1.293254      1.506562      4.112220
  H       0.295334      1.744198      3.685527
  H       1.529062      2.293497      4.864134
  C      -3.072438      2.260942      4.313943
  H      -2.150542      2.889544      4.317449
  H      -3.915810      2.949415      4.064464
  C      -2.963553      1.159800      3.226716
  H      -3.933384      0.604898      3.176469
  H      -2.194795      0.408395      3.520940
  C      -2.610727      1.705852      1.818199
  H      -1.621652      2.226769      1.861733
  H      -3.351285      2.489496      1.519084
  C      -2.556500      0.601635      0.729945
  H      -3.545147      0.079893      0.688249
  H      -1.816235     -0.173389      1.044754
  C      -2.203061      1.130772     -0.684907
  H      -1.196648      1.615348     -0.665174
  H      -2.925611      1.938808     -0.956475
  C      -2.232694      0.047261     -1.810129
  H      -2.195988      0.550376     -2.803137
  H      -3.229605     -0.463838     -1.769891
  C      -1.136406     -1.000482     -1.699212
  H      -1.030984     -1.472886     -0.701978
  C      -0.283072     -1.415318     -2.669185
  H       0.449446     -2.202633     -2.395303
  C      -0.243980     -0.985290     -4.127043
  H       0.819690     -0.910237     -4.457225
  H      -0.673359      0.033939     -4.263795
  C      -0.990751     -1.987484     -5.059850
  H      -2.065707     -2.027321     -4.757785
  H      -0.591760     -3.017846     -4.888457
  C      -0.880745     -1.640702     -6.566250
  H       0.197444     -1.614192     -6.857171
  H      -1.267087     -0.604589     -6.738876
  C      -1.653673     -2.632754     -7.475001
  H      -2.722096     -2.654624     -7.148750
  H      -1.264430     -3.667607     -7.303482
  C      -1.598969     -2.316112     -8.994981
  H      -1.974764     -1.277193     -9.171449
  H      -2.315278     -2.989688     -9.526104
  C      -0.197944     -2.470295     -9.643890
  H       0.203274     -3.490003     -9.416861
  H       0.520040     -1.752051     -9.178447
  C      -0.199276     -2.254185    -11.179876
  H      -0.613333     -1.240959    -11.408047
  H      -0.904175     -2.981727    -11.652937
  C       1.202177     -2.399560    -11.822626
  H       1.167433     -2.245499    -12.925721
  H       1.628109     -3.413877    -11.637639
  H       1.921146     -1.657502    -11.401842
  C       2.371347      1.500821      2.991910
  H       3.358227      1.216857      3.429139
  H       2.485731      2.545581      2.614474
  C       2.025773      0.568919      1.802732
  H       0.993779      0.805024      1.440647
  H       1.986457     -0.492807      2.149502
  C       3.015901      0.694813      0.617110
  H       4.053027      0.462873      0.966674
  H       3.039486      1.763316      0.292173
  C       2.647706     -0.214762     -0.582107
  H       2.667229     -1.280555     -0.245844
  H       1.592294     -0.021536     -0.882824
  C       3.572609     -0.074176     -1.822582
  H       4.611897     -0.378440     -1.545406
  H       3.232102     -0.795795     -2.603848
  C       3.638614      1.353185     -2.461507
  H       4.324488      1.316764     -3.337937
  H       4.120312      2.051534     -1.733729
  C       2.288763      1.929025     -2.859734
  H       1.611989      2.184320     -2.019821
  C       1.829920      2.152478     -4.116705
  H       0.819245      2.599855     -4.221642
  C       2.572090      1.911958     -5.422802
  H       1.881824      1.416037     -6.150171
  H       3.419181      1.203015     -5.271933
  C       3.108686      3.228565     -6.063920
  H       3.800862      3.723375     -5.339477
  H       2.256568      3.936152     -6.201264
  C       3.841802      3.004291     -7.413260
  H       4.660169      2.260151     -7.254408
  H       3.138184      2.528964     -8.142058
  C       4.445342      4.288042     -8.049091
  H       5.155199      4.764380     -7.327125
  H       5.063723      3.995045     -8.932728
  C       3.398113      5.339712     -8.503805
  H       2.794146      5.677783     -7.627584
  H       2.672901      4.856137     -9.205015
  C       4.024499      6.582701     -9.185819
  H       4.749416      7.063278     -8.482346
  H       4.630195      6.257427    -10.068588
  C       2.980893      7.635737     -9.641068
  H       2.257306      7.155210    -10.344734
  H       2.375392      7.956835     -8.757579
  C       3.613484      8.878962    -10.313717
  H       2.839273      9.618078    -10.623617
  H       4.317167      9.398722     -9.621411
  H       4.192979      8.596192    -11.224082
138
Coordinates from ORCA-job /wrk/rja7/qm_final_3_replicates/qm_final_1.1/qm/4/freq E -2722.574440812978
  N      -3.363201     -5.150758     13.000945
  C      -2.284929     -5.437938     11.900335
  H      -2.029407     -6.516270     12.014461
  H      -1.398747     -4.823425     12.165095
  C      -4.638220     -5.936337     12.727830
  H      -5.331570     -5.792441     13.582096
  H      -5.108876     -5.559535     11.799482
  H      -4.391081     -7.013276     12.619095
  C      -3.708616     -3.650262     13.088044
  H      -2.778298     -3.052060     13.148986
  H      -4.211874     -3.353209     12.151605
  H      -4.359834     -3.510130     13.977193
  C      -2.782675     -5.595769     14.336336
  H      -1.847108     -5.031301     14.525709
  H      -2.563482     -6.682809     14.297986
  H      -3.517409     -5.384326     15.140954
  C      -2.688441     -5.133100     10.433574
  H      -1.792905     -5.472823      9.850033
  H      -3.549888     -5.776793     10.118758
  P      -1.686989     -2.589328     10.371965
  O      -0.406906     -3.430783     10.332574
  O      -2.110442     -1.674151     11.508387
  O      -3.021056     -3.783658     10.192104
  O      -1.940132     -1.753719      8.934809
  C      -1.416914     -2.281394      7.704149
  H      -2.215068     -2.858016      7.166990
  H      -0.559282     -2.970426      7.898891
  C      -0.928104     -1.120001      6.820286
  H      -0.242228     -0.471924      7.408361
  O      -2.104247     -0.331251      6.413911
  C      -1.968977      1.034344      6.322390
  O      -0.949887      1.658134      6.591037
  C      -3.251273      1.685412      5.780272
  H      -3.501393      2.529297      6.463805
  H      -4.095789      0.961255      5.803389
  C      -0.209670     -1.625153      5.543335
  H      -0.874805     -2.297639      4.956598
  H       0.722128     -2.164752      5.824423
  O       0.088952     -0.507534      4.652358
  C       1.259861      0.202370      4.885712
  O       2.153909     -0.189767      5.619072
  C       1.281059      1.517393      4.096755
  H       0.278521      1.724372      3.664506
  H       1.492055      2.315940      4.843592
  C      -3.035017      2.243021      4.337506
  H      -2.117184      2.877763      4.338900
  H      -3.883434      2.926771      4.092207
  C      -2.920107      1.145585      3.246979
  H      -3.882351      0.577053      3.202953
  H      -2.138830      0.404406      3.533726
  C      -2.587519      1.701235      1.837714
  H      -1.607436      2.239444      1.874404
  H      -3.344580      2.472425      1.547500
  C      -2.522272      0.602738      0.744595
  H      -3.500913      0.062160      0.708624
  H      -1.764864     -0.159547      1.049675
  C      -2.193166      1.145249     -0.670900
  H      -1.197322      1.653441     -0.658272
  H      -2.936930      1.936898     -0.933833
  C      -2.204940      0.063653     -1.798192
  H      -2.184079      0.568751     -2.790678
  H      -3.190407     -0.468816     -1.754173
  C      -1.087561     -0.962093     -1.692655
  H      -0.967532     -1.431897     -0.695865
  C      -0.237288     -1.367324     -2.669018
  H       0.507645     -2.144902     -2.400201
  C      -0.219472     -0.944392     -4.128694
  H       0.840622     -0.857416     -4.468806
  H      -0.664222      0.068265     -4.266348
  C      -0.960158     -1.960673     -5.050949
  H      -2.032254     -2.013471     -4.740766
  H      -0.546898     -2.985179     -4.878565
  C      -0.865595     -1.617573     -6.558988
  H       0.210090     -1.583660     -6.857905
  H      -1.261351     -0.584955     -6.730995
  C      -1.638279     -2.616956     -7.459805
  H      -2.704999     -2.642737     -7.128006
  H      -1.244014     -3.649549     -7.286256
  C      -1.591929     -2.305649     -8.980958
  H      -1.965867     -1.266556     -9.160316
  H      -2.312724     -2.979840     -9.505313
  C      -0.195158     -2.468460     -9.636515
  H       0.202374     -3.489028     -9.407002
  H       0.528454     -1.751454     -9.177877
  C      -0.202795     -2.258898    -11.173134
  H      -0.611423     -1.243965    -11.403490
  H      -0.914162     -2.984126    -11.640105
  C       1.195266     -2.415684    -11.820547
  H       1.157765     -2.264960    -12.924007
  H       1.614674     -3.432369    -11.633490
  H       1.920505     -1.677273    -11.404210
  C       2.363722      1.533330      2.980649
  H       3.355848      1.278351      3.423799
  H       2.451846      2.578440      2.596771
  C       2.046216      0.584034      1.796927
  H       1.008504      0.787719      1.432320
  H       2.038033     -0.476164      2.150824
  C       3.032556      0.727911      0.609676
  H       4.074769      0.520387      0.959137
  H       3.031799      1.795347      0.280175
  C       2.681261     -0.194647     -0.585723
  H       2.725845     -1.258089     -0.245481
  H       1.620545     -0.025110     -0.882982
  C       3.597559     -0.040200     -1.830679
  H       4.643569     -0.325082     -1.558141
  H       3.265919     -0.769152     -2.608740
  C       3.635355      1.385816     -2.473160
  H       4.318020      1.359628     -3.352245
  H       4.108113      2.094702     -1.749388
  C       2.274172      1.936055     -2.869304
  H       1.595243      2.186054     -2.029475
  C       1.807207      2.141949     -4.126959
  H       0.791218      2.575312     -4.232660
  C       2.542817      1.892993     -5.434376
  H       1.849033      1.396436     -6.157622
  H       3.388065      1.181981     -5.283928
  C       3.081474      3.206403     -6.078569
  H       3.775643      3.700567     -5.355783
  H       2.230324      3.915369     -6.216210
  C       3.811476      2.979441     -7.428406
  H       4.628528      2.233551     -7.271191
  H       3.106069      2.506242     -8.156586
  C       4.414260      4.264084     -8.062727
  H       5.122227      4.740100     -7.338923
  H       5.034348      3.973267     -8.945621
  C       3.365454      5.314261     -8.517541
  H       2.756146      5.646176     -7.642646
  H       2.645427      4.830884     -9.224295
  C       3.989337      6.563231     -9.191041
  H       4.708002      7.044099     -8.481375
  H       4.600783      6.245199    -10.072477
  C       2.942108      7.612538     -9.646988
  H       2.226505      7.130703    -10.358079
  H       2.328835      7.925042     -8.765872
  C       3.571210      8.862691    -10.310082
  H       2.794605      9.598646    -10.621406
  H       4.267534      9.383211     -9.610899
  H       4.158344      8.587380    -11.217839
138
Coordinates from ORCA-job /wrk/rja7/qm_final_3_replicates/qm_final_1.1/qm/4/freq E -2722.574786065672
  N      -3.448033     -5.150069     12.970469
  C      -2.364944     -5.455154     11.879488
  H      -2.139193     -6.540614     11.989438
  H      -1.464895     -4.868517     12.160471
  C      -4.717162     -5.946834     12.704681
  H      -5.420646     -5.784825     13.547493
  H      -5.181298     -5.597082     11.762690
  H      -4.465442     -7.025393     12.625448
  C      -3.800014     -3.649439     13.033650
  H      -2.872841     -3.042180     13.075062
  H      -4.309390     -3.375006     12.093226
  H      -4.450643     -3.497553     13.921248
  C      -2.870926     -5.572311     14.314734
  H      -1.942857     -4.995424     14.502748
  H      -2.640214     -6.657420     14.291513
  H      -3.612204     -5.358535     15.112746
  C      -2.740012     -5.125420     10.410769
  H      -1.853669     -5.499703      9.834611
  H      -3.626303     -5.727091     10.081691
  P      -1.615637     -2.635673     10.388682
  O      -0.377452     -3.535433     10.320868
  O      -1.991763     -1.734494     11.553080
  O      -3.003849     -3.759840     10.176271
  O      -1.836135     -1.750199      8.976577
  C      -1.345122     -2.274281      7.730942
  H      -2.158629     -2.839950      7.205124
  H      -0.491560     -2.974120      7.904037
  C      -0.864320     -1.112450      6.844153
  H      -0.171096     -0.465211      7.424835
  O      -2.043662     -0.322756      6.449728
  C      -1.903964      1.041527      6.347506
  O      -0.880652      1.662600      6.606147
  C      -3.185757      1.694143      5.805378
  H      -3.433898      2.539160      6.488317
  H      -4.031439      0.971371      5.832104
  C      -0.157522     -1.621373      5.561425
  H      -0.829344     -2.292555      4.981043
  H       0.774122     -2.163556      5.837755
  O       0.137439     -0.506826      4.665495
  C       1.310121      0.204003      4.887198
  O       2.209830     -0.183248      5.616344
  C       1.324276      1.515275      4.092031
  H       0.319427      1.717555      3.663186
  H       1.535829      2.317722      4.834444
  C      -2.972816      2.249097      4.361014
  H      -2.052982      2.881068      4.357719
  H      -3.819509      2.936109      4.118911
  C      -2.867072      1.151199      3.269743
  H      -3.828945      0.581401      3.235297
  H      -2.082096      0.411099      3.548494
  C      -2.550398      1.708276      1.857358
  H      -1.570636      2.248066      1.883104
  H      -3.312638      2.478399      1.577961
  C      -2.498611      0.612829      0.760547
  H      -3.476978      0.071086      0.735810
  H      -1.737173     -0.150293      1.053251
  C      -2.189884      1.160060     -0.657844
  H      -1.195353      1.671666     -0.656719
  H      -2.940140      1.949821     -0.909498
  C      -2.209952      0.081251     -1.787968
  H      -2.193134      0.588177     -2.779609
  H      -3.196542     -0.448948     -1.740495
  C      -1.096605     -0.949096     -1.688271
  H      -0.976775     -1.422433     -0.693212
  C      -0.251958     -1.358637     -2.667829
  H       0.486691     -2.143350     -2.402109
  C      -0.231935     -0.934765     -4.126849
  H       0.829793     -0.853525     -4.464544
  H      -0.671579      0.080145     -4.264650
  C      -0.974349     -1.946406     -5.052949
  H      -2.048851     -1.991988     -4.749929
  H      -0.569853     -2.973896     -4.877690
  C      -0.865960     -1.604743     -6.560455
  H       0.212390     -1.582910     -6.850539
  H      -1.248484     -0.567708     -6.735768
  C      -1.642257     -2.595466     -7.467941
  H      -2.713034     -2.605563     -7.148446
  H      -1.264903     -3.633124     -7.287206
  C      -1.573130     -2.289635     -8.989544
  H      -1.924447     -1.244139     -9.177025
  H      -2.301058     -2.951798     -9.519465
  C      -0.173090     -2.484543     -9.629073
  H       0.199379     -3.512683     -9.391618
  H       0.560665     -1.781663     -9.164655
  C      -0.157771     -2.280458    -11.166541
  H      -0.540017     -1.257166    -11.405063
  H      -0.879704     -2.990899    -11.640031
  C       1.244518     -2.471545    -11.795320
  H       1.225106     -2.323292    -12.899583
  H       1.637485     -3.497157    -11.599812
  H       1.980867     -1.748768    -11.371187
  C       2.403092      1.531123      2.972212
  H       3.396340      1.277272      3.413261
  H       2.489429      2.576041      2.587247
  C       2.084083      0.579538      1.790525
  H       1.043622      0.776550      1.430019
  H       2.085024     -0.480592      2.144852
  C       3.065322      0.728444      0.599391
  H       4.108988      0.522034      0.945105
  H       3.061044      1.796708      0.272664
  C       2.713026     -0.192914     -0.597272
  H       2.765221     -1.257128     -0.260838
  H       1.650110     -0.026933     -0.888807
  C       3.622203     -0.028581     -1.845912
  H       4.670888     -0.310759     -1.580749
  H       3.289157     -0.754269     -2.626392
  C       3.648873      1.400996     -2.479910
  H       4.324336      1.384039     -3.364648
  H       4.124137      2.108230     -1.755994
  C       2.281429      1.944055     -2.864302
  H       1.607048      2.193050     -2.020525
  C       1.803516      2.141896     -4.119339
  H       0.785673      2.570506     -4.220110
  C       2.528967      1.888763     -5.431193
  H       1.829269      1.394241     -6.149738
  H       3.373264      1.175533     -5.286703
  C       3.065391      3.202166     -6.077007
  H       3.764831      3.694245     -5.358052
  H       2.213545      3.911826     -6.207079
  C       3.786034      2.978779     -7.431628
  H       4.607251      2.236094     -7.281066
  H       3.077800      2.503362     -8.155454
  C       4.375607      4.268199     -8.068800
  H       5.080960      4.751209     -7.347023
  H       4.995626      3.982680     -8.953319
  C       3.314550      5.306772     -8.522369
  H       2.699906      5.629077     -7.647627
  H       2.601706      4.814529     -9.230306
  C       3.921242      6.564389     -9.195130
  H       4.632879      7.055271     -8.485252
  H       4.536994      6.255358    -10.076753
  C       2.858748      7.597908     -9.652082
  H       2.152292      7.104815    -10.364769
  H       2.238906      7.900523     -8.772192
  C       3.469682      8.857034    -10.315212
  H       2.682521      9.580744    -10.628601
  H       4.156913      9.388528     -9.615260
  H       4.062719      8.589675    -11.221483
138
Coordinates from ORCA-job /wrk/rja7/qm_final_3_replicates/qm_final_1.1/qm/4/freq E -2722.575297481727
  N      -3.547530     -5.131846     12.932802
  C      -2.475515     -5.479530     11.843184
  H      -2.302191     -6.574854     11.950704
  H      -1.547928     -4.940858     12.129146
  C      -4.818800     -5.932426     12.695242
  H      -5.527437     -5.733628     13.526045
  H      -5.277809     -5.620422     11.737828
  H      -4.572891     -7.014628     12.660970
  C      -3.894291     -3.628635     12.959838
  H      -2.964809     -3.017884     12.962318
  H      -4.418410     -3.383410     12.018664
  H      -4.534663     -3.451714     13.850144
  C      -2.962373     -5.520068     14.284032
  H      -2.038673     -4.931444     14.454695
  H      -2.723968     -6.603711     14.284178
  H      -3.701668     -5.293907     15.080519
  C      -2.825774     -5.121092     10.374900
  H      -1.966520     -5.553445      9.798307
  H      -3.752335     -5.655459     10.040852
  P      -1.517440     -2.728797     10.394356
  O      -0.348821     -3.709630     10.262076
  O      -1.808962     -1.865174     11.611493
  O      -2.984495     -3.738219     10.146439
  O      -1.694012     -1.760390      9.032030
  C      -1.262662     -2.270900      7.758001
  H      -2.102804     -2.816593      7.253439
  H      -0.417089     -2.989477      7.889229
  C      -0.795805     -1.105096      6.869708
  H      -0.091805     -0.460461      7.440147
  O      -1.979788     -0.313437      6.492350
  C      -1.838548      1.049451      6.375829
  O      -0.814340      1.671574      6.628216
  C      -3.123824      1.700545      5.838281
  H      -3.368608      2.547619      6.520024
  H      -3.969391      0.977813      5.873396
  C      -0.108052     -1.613717      5.575628
  H      -0.789778     -2.281210      5.002927
  H       0.825032     -2.159428      5.840174
  O       0.181950     -0.498643      4.679216
  C       1.358817      0.205864      4.895894
  O       2.267222     -0.195837      5.605925
  C       1.381497      1.513431      4.095154
  H       0.378360      1.721364      3.665631
  H       1.597234      2.315752      4.836616
  C      -2.920907      2.250899      4.390509
  H      -2.003304      2.885964      4.380144
  H      -3.770763      2.935317      4.151923
  C      -2.819133      1.152360      3.299279
  H      -3.776658      0.574862      3.275066
  H      -2.025353      0.418960      3.569428
  C      -2.519941      1.711744      1.883443
  H      -1.544819      2.260174      1.900690
  H      -3.292135      2.474771      1.611975
  C      -2.468729      0.617586      0.785175
  H      -3.440223      0.062959      0.773490
  H      -1.694552     -0.136543      1.066728
  C      -2.185085      1.166784     -0.638549
  H      -1.196342      1.689403     -0.650628
  H      -2.946532      1.948069     -0.881810
  C      -2.208095      0.086892     -1.768380
  H      -2.201247      0.592529     -2.760697
  H      -3.191869     -0.448142     -1.713217
  C      -1.091393     -0.940475     -1.676386
  H      -0.963496     -1.413188     -0.682301
  C      -0.251795     -1.348395     -2.661410
  H       0.490507     -2.130908     -2.399507
  C      -0.238265     -0.925193     -4.120747
  H       0.822776     -0.828743     -4.457153
  H      -0.693902      0.082307     -4.259702
  C      -0.961786     -1.949748     -5.047730
  H      -2.035473     -2.015760     -4.745064
  H      -0.539120     -2.969942     -4.872491
  C      -0.859466     -1.606648     -6.555666
  H       0.218766     -1.562375     -6.843961
  H      -1.262821     -0.577758     -6.732398
  C      -1.612849     -2.614700     -7.463598
  H      -2.683473     -2.648162     -7.145040
  H      -1.213105     -3.643628     -7.281190
  C      -1.549308     -2.309938     -8.986026
  H      -1.922463     -1.272432     -9.175034
  H      -2.263081     -2.988219     -9.514934
  C      -0.145624     -2.476654     -9.625750
  H       0.247049     -3.497268     -9.388673
  H       0.573927     -1.759385     -9.160950
  C      -0.133029     -2.271387    -11.163680
  H      -0.535371     -1.255660    -11.401485
  H      -0.839906     -2.995608    -11.638938
  C       1.274065     -2.433107    -11.790153
  H       1.254392     -2.282843    -12.894140
  H       1.687211     -3.450979    -11.595843
  H       1.994309     -1.696306    -11.362572
  C       2.461693      1.524130      2.976853
  H       3.452532      1.265201      3.420132
  H       2.554414      2.568796      2.592875
  C       2.138767      0.575933      1.793763
  H       1.098237      0.775354      1.434759
  H       2.140500     -0.485219      2.144834
  C       3.117219      0.728643      0.600784
  H       4.161443      0.520714      0.943817
  H       3.112641      1.797993      0.278058
  C       2.760563     -0.188315     -0.598179
  H       2.820557     -1.254177     -0.268551
  H       1.694873     -0.024577     -0.879851
  C       3.656835     -0.011069     -1.854140
  H       4.710653     -0.286325     -1.601998
  H       3.321501     -0.736089     -2.634217
  C       3.662886      1.421613     -2.482066
  H       4.329526      1.415886     -3.373612
  H       4.137224      2.131552     -1.760502
  C       2.285244      1.949465     -2.851707
  H       1.616603      2.196352     -2.002894
  C       1.791365      2.134189     -4.102344
  H       0.767305      2.550645     -4.194000
  C       2.507801      1.883439     -5.420217
  H       1.803887      1.386571     -6.132550
  H       3.356312      1.173704     -5.282420
  C       3.035527      3.198522     -6.071871
  H       3.741480      3.691950     -5.360444
  H       2.181145      3.906743     -6.192641
  C       3.741642      2.975585     -7.434039
  H       4.565716      2.234613     -7.290863
  H       3.026212      2.497581     -8.149058
  C       4.322037      4.264391     -8.082252
  H       5.029536      4.755502     -7.367612
  H       4.938492      3.976302     -8.968418
  C       3.252761      5.294134     -8.536420
  H       2.637787      5.614682     -7.661352
  H       2.542016      4.793759     -9.240923
  C       3.847233      6.553058     -9.216598
  H       4.557975      7.052450     -8.511604
  H       4.461875      6.245628    -10.099516
  C       2.774488      7.575946     -9.673353
  H       2.068970      7.073298    -10.380499
  H       2.156091      7.877580     -8.792167
  C       3.372092      8.835945    -10.346618
  H       2.577745      9.551309    -10.660930
  H       4.058417      9.377271     -9.653326
  H       3.963291      8.567410    -11.253713
138
Coordinates from ORCA-job /wrk/rja7/qm_final_3_replicates/qm_final_1.1/qm/4/freq E -2722.575772941354
  N      -3.668648     -5.072405     12.901901
  C      -2.605165     -5.505652     11.834556
  H      -2.507913     -6.607940     11.963354
  H      -1.645279     -5.029577     12.123936
  C      -4.947309     -5.871617     12.708270
  H      -5.670002     -5.598934     13.505777
  H      -5.384151     -5.631111     11.720200
  H      -4.718313     -6.956621     12.763882
  C      -3.997029     -3.566126     12.842588
  H      -3.056432     -2.966307     12.794991
  H      -4.528111     -3.371080     11.892580
  H      -4.631154     -3.332111     13.723887
  C      -3.087582     -5.385416     14.274767
  H      -2.168280     -4.782478     14.416973
  H      -2.843862     -6.466300     14.333846
  H      -3.832015     -5.121594     15.054875
  C      -2.908192     -5.144436     10.355245
  H      -2.087124     -5.663047      9.793616
  H      -3.877462     -5.594514     10.019516
  P      -1.386491     -2.888850     10.384312
  O      -0.303965     -3.952125     10.183737
  O      -1.588836     -2.080745     11.658584
  O      -2.933974     -3.756243     10.099655
  O      -1.493195     -1.830413      9.083438
  C      -1.146530     -2.323759      7.775503
  H      -2.024273     -2.839742      7.305383
  H      -0.316980     -3.069128      7.849116
  C      -0.696763     -1.153958      6.884052
  H       0.033214     -0.521686      7.435109
  O      -1.881873     -0.345660      6.546896
  C      -1.724720      1.014476      6.414972
  O      -0.685770      1.623737      6.636004
  C      -3.015217      1.680696      5.908161
  H      -3.235994      2.527465      6.598558
  H      -3.867155      0.966455      5.960329
  C      -0.056926     -1.664359      5.565721
  H      -0.767044     -2.316461      5.010057
  H       0.873911     -2.227609      5.799845
  O       0.228666     -0.550985      4.666430
  C       1.426581      0.124454      4.856061
  O       2.336076     -0.297026      5.552701
  C       1.454406      1.445970      4.078675
  H       0.448941      1.673138      3.664629
  H       1.686090      2.231885      4.833445
  C      -2.840561      2.236912      4.459286
  H      -1.918551      2.864846      4.432339
  H      -3.690249      2.929090      4.243133
  C      -2.769906      1.145763      3.358676
  H      -3.730438      0.572891      3.349492
  H      -1.974183      0.406403      3.606510
  C      -2.494459      1.714030      1.940925
  H      -1.521400      2.265968      1.947305
  H      -3.273336      2.475396      1.684361
  C      -2.453386      0.623510      0.838541
  H      -3.424012      0.066869      0.835752
  H      -1.675316     -0.129925      1.110056
  C      -2.182894      1.171972     -0.588758
  H      -1.192810      1.692123     -0.613370
  H      -2.944172      1.954948     -0.824690
  C      -2.222763      0.090091     -1.716222
  H      -2.206906      0.593047     -2.709751
  H      -3.215352     -0.428632     -1.659534
  C      -1.125467     -0.958212     -1.621353
  H      -1.009915     -1.433610     -0.627201
  C      -0.288807     -1.381051     -2.602553
  H       0.438652     -2.176022     -2.336721
  C      -0.253926     -0.954472     -4.060466
  H       0.811806     -0.861194     -4.380841
  H      -0.704963      0.054139     -4.204130
  C      -0.964704     -1.975978     -5.000027
  H      -2.043817     -2.039325     -4.716179
  H      -0.548105     -2.997572     -4.818039
  C      -0.834334     -1.632724     -6.505753
  H       0.249229     -1.593469     -6.775021
  H      -1.229298     -0.601867     -6.689592
  C      -1.575676     -2.637064     -7.426860
  H      -2.652024     -2.666136     -7.127935
  H      -1.183392     -3.667634     -7.237550
  C      -1.482350     -2.332092     -8.947602
  H      -1.846387     -1.292414     -9.141947
  H      -2.189674     -3.005941     -9.490593
  C      -0.067264     -2.503804     -9.560499
  H       0.314869     -3.527735     -9.320738
  H       0.647314     -1.792845     -9.078493
  C      -0.023077     -2.290578    -11.096840
  H      -0.414427     -1.271101    -11.336885
  H      -0.724776     -3.007775    -11.589891
  C       1.395587     -2.457793    -11.695601
  H       1.399889     -2.300562    -12.798762
  H       1.798025     -3.479449    -11.499208
  H       2.111415     -1.728366    -11.248370
  C       2.521824      1.467411      2.948371
  H       3.514308      1.190054      3.376334
  H       2.620765      2.518236      2.583747
  C       2.176638      0.545618      1.750837
  H       1.132120      0.757432      1.410949
  H       2.179005     -0.522563      2.079435
  C       3.138200      0.718523      0.546393
  H       4.185782      0.495508      0.869139
  H       3.136821      1.794659      0.247693
  C       2.755946     -0.169262     -0.666709
  H       2.819349     -1.242599     -0.362462
  H       1.685475      0.004072     -0.923376
  C       3.628041      0.032775     -1.936218
  H       4.686446     -0.248407     -1.711141
  H       3.276302     -0.677825     -2.722386
  C       3.623415      1.476493     -2.540839
  H       4.271837      1.483527     -3.445954
  H       4.113148      2.174710     -1.818655
  C       2.239841      2.012394     -2.876685
  H       1.591522      2.264995     -2.014035
  C       1.718414      2.196840     -4.115761
  H       0.693392      2.616444     -4.184782
  C       2.408089      1.945506     -5.448476
  H       1.684379      1.464398     -6.151597
  H       3.248636      1.222401     -5.329955
  C       2.945439      3.256099     -6.102785
  H       3.666583      3.736912     -5.398096
  H       2.100039      3.977113     -6.210700
  C       3.633390      3.025595     -7.473343
  H       4.446868      2.271327     -7.339002
  H       2.903284      2.560997     -8.182508
  C       4.231333      4.304733     -8.124625
  H       4.936176      4.794111     -7.406690
  H       4.854282      4.004074     -9.002322
  C       3.177199      5.341055     -8.598486
  H       2.549555      5.667952     -7.734828
  H       2.475296      4.845396     -9.315155
  C       3.794397      6.594115     -9.268979
  H       4.494300      7.089712     -8.550551
  H       4.425153      6.280105    -10.138067
  C       2.739600      7.624319     -9.750477
  H       2.048581      7.127563    -10.475814
  H       2.101684      7.928908     -8.884290
  C       3.361934      8.881346    -10.406473
  H       2.580336      9.601835    -10.740492
  H       4.033589      9.417955     -9.695417
  H       3.974422      8.609524    -11.298302
138
Coordinates from ORCA-job /wrk/rja7/qm_final_3_replicates/qm_final_1.1/qm/4/freq E -2722.576117239232
  N      -3.851572     -5.030263     12.809583
  C      -2.644440     -5.473849     11.912083
  H      -2.509859     -6.556242     12.137296
  H      -1.749135     -4.924886     12.268929
  C      -5.019900     -5.974839     12.580981
  H      -5.866956     -5.680497     13.236213
  H      -5.333892     -5.906108     11.521645
  H      -4.709678     -7.015140     12.813614
  C      -4.308089     -3.582656     12.537918
  H      -3.418884     -2.899644     12.522637
  H      -4.744009     -3.540542     11.521475
  H      -5.060668     -3.327307     13.313599
  C      -3.398293     -5.119435     14.261898
  H      -2.573857     -4.394316     14.416162
  H      -3.044374     -6.149379     14.475332
  H      -4.251295     -4.866966     14.926197
  C      -2.784422     -5.237167     10.381212
  H      -1.895509     -5.773742      9.954596
  H      -3.700594     -5.736951      9.975848
  P      -1.335546     -2.947130     10.441207
  O      -0.191194     -3.956632     10.336712
  O      -1.685444     -2.176647     11.710041
  O      -2.810045     -3.873846     10.009572
  O      -1.360586     -1.866260      9.154491
  C      -0.967711     -2.352937      7.853972
  H      -1.810439     -2.914820      7.373667
  H      -0.108006     -3.061530      7.947368
  C      -0.557556     -1.167773      6.962295
  H       0.145679     -0.507674      7.514920
  O      -1.770830     -0.404864      6.615329
  C      -1.665758      0.960679      6.477819
  O      -0.651995      1.610197      6.700523
  C      -2.978657      1.577952      5.964846
  H      -3.227865      2.419312      6.652231
  H      -3.804327      0.833730      6.019212
  C       0.098966     -1.660165      5.644453
  H      -0.589228     -2.340505      5.094803
  H       1.050156     -2.189666      5.876433
  O       0.344844     -0.544214      4.737391
  C       1.535381      0.147629      4.909348
  O       2.451833     -0.258102      5.605516
  C       1.541144      1.466681      4.126760
  H       0.531095      1.676352      3.714778
  H       1.759896      2.257313      4.881342
  C      -2.827863      2.143199      4.516419
  H      -1.928312      2.802555      4.490685
  H      -3.703956      2.803667      4.306003
  C      -2.721992      1.067751      3.403123
  H      -3.663044      0.463684      3.382129
  H      -1.904083      0.349852      3.642179
  C      -2.459646      1.667552      1.994233
  H      -1.505891      2.250591      2.016138
  H      -3.262397      2.405610      1.743747
  C      -2.373069      0.595525      0.875814
  H      -3.326087      0.009038      0.856153
  H      -1.573967     -0.136631      1.142832
  C      -2.108418      1.169598     -0.544534
  H      -1.124723      1.703071     -0.565998
  H      -2.879805      1.945478     -0.766031
  C      -2.147734      0.104940     -1.688043
  H      -2.122820      0.622561     -2.673611
  H      -3.144035     -0.407986     -1.641450
  C      -1.059677     -0.955927     -1.612729
  H      -0.943616     -1.448026     -0.626915
  C      -0.233568     -1.370813     -2.606677
  H       0.491331     -2.173984     -2.359645
  C      -0.209099     -0.918970     -4.058347
  H       0.852450     -0.807523     -4.384028
  H      -0.674804      0.085014     -4.182676
  C      -0.914852     -1.937008     -5.005602
  H      -1.989158     -2.020127     -4.708568
  H      -0.480989     -2.954567     -4.841528
  C      -0.814488     -1.574907     -6.509797
  H       0.263280     -1.516392     -6.798955
  H      -1.229377     -0.548815     -6.675359
  C      -1.559394     -2.582678     -7.424087
  H      -2.627717     -2.632411     -7.100292
  H      -1.145515     -3.608069     -7.253236
  C      -1.510526     -2.262928     -8.943792
  H      -1.900045     -1.228730     -9.116929
  H      -2.218541     -2.945186     -9.475058
  C      -0.108812     -2.396354     -9.596349
  H       0.302174     -3.414261     -9.379469
  H       0.603370     -1.675405     -9.125746
  C      -0.113931     -2.164835    -11.130910
  H      -0.536093     -1.152312    -11.347253
  H      -0.812654     -2.892843    -11.611897
  C       1.290282     -2.290729    -11.772867
  H       1.258890     -2.120678    -12.873655
  H       1.723082     -3.304351    -11.601096
  H       2.001381     -1.549617    -11.337319
  C       2.601709      1.506620      2.990397
  H       3.601641      1.249089      3.413220
  H       2.677040      2.558509      2.623966
  C       2.264510      0.579566      1.794959
  H       1.215843      0.778505      1.460573
  H       2.280966     -0.488162      2.124051
  C       3.213672      0.767060      0.582630
  H       4.267643      0.562218      0.896804
  H       3.191971      1.842771      0.283202
  C       2.834020     -0.126771     -0.626145
  H       2.916234     -1.199144     -0.321744
  H       1.758242      0.027036     -0.872173
  C       3.689617      0.086670     -1.905133
  H       4.756196     -0.170788     -1.690876
  H       3.345182     -0.637423     -2.682395
  C       3.647656      1.526443     -2.522061
  H       4.286737      1.537147     -3.434139
  H       4.128984      2.241728     -1.811866
  C       2.249035      2.031341     -2.845910
  H       1.614048      2.300679     -1.978420
  C       1.699385      2.173631     -4.077717
  H       0.664892      2.574859     -4.134011
  C       2.370815      1.908316     -5.418421
  H       1.638365      1.412068     -6.101927
  H       3.218508      1.192615     -5.302190
  C       2.891062      3.210209     -6.105700
  H       3.628276      3.702085     -5.425712
  H       2.043748      3.930061     -6.205455
  C       3.546306      2.955604     -7.489299
  H       4.357909      2.198105     -7.361772
  H       2.796055      2.485364     -8.173655
  C       4.142749      4.217424     -8.175069
  H       4.863504      4.714837     -7.478936
  H       4.749975      3.893663     -9.056136
  C       3.092207      5.255480     -8.650831
  H       2.480080      5.603540     -7.784310
  H       2.375209      4.758001     -9.351225
  C       3.716781      6.490426     -9.348006
  H       4.434398      6.985611     -8.646712
  H       4.331047      6.155328    -10.220926
  C       2.671543      7.531443     -9.826495
  H       1.958319      7.037716    -10.532049
  H       2.055477      7.859770     -8.953120
  C       3.303478      8.768430    -10.510227
  H       2.528235      9.496945    -10.841866
  H       3.995793      9.304979     -9.819155
  H       3.896014      8.473620    -11.408270
138
Coordinates from ORCA-job /wrk/rja7/qm_final_3_replicates/qm_final_1.1/qm/4/freq E -2722.577125300960
  N      -3.808878     -4.968164     12.787853
  C      -2.651127     -5.468961     11.858391
  H      -2.535791     -6.548093     12.106143
  H      -1.731179     -4.934767     12.170612
  C      -4.992931     -5.913510     12.672396
  H      -5.808314     -5.567298     13.341588
  H      -5.349631     -5.907347     11.624024
  H      -4.681384     -6.939486     12.959330
  C      -4.268896     -3.532851     12.465199
  H      -3.370272     -2.868949     12.389581
  H      -4.754170     -3.530449     11.471339
  H      -4.981541     -3.234083     13.262678
  C      -3.275607     -4.975699     14.215950
  H      -2.449188     -4.239309     14.279528
  H      -2.904178     -5.991191     14.465638
  H      -4.091974     -4.689431     14.911628
  C      -2.837731     -5.269453     10.327451
  H      -1.985013     -5.849745      9.884434
  H      -3.784532     -5.746123      9.966491
  P      -1.343595     -3.019736     10.355727
  O      -0.210497     -4.038759     10.242129
  O      -1.681472     -2.261033     11.636411
  O      -2.831218     -3.917204      9.918369
  O      -1.360090     -1.924627      9.083977
  C      -0.985133     -2.404122      7.776343
  H      -1.836132     -2.957951      7.302407
  H      -0.125565     -3.115142      7.852858
  C      -0.580133     -1.210295      6.897814
  H       0.130439     -0.560752      7.453344
  O      -1.794829     -0.436699      6.580673
  C      -1.684906      0.930542      6.473357
  O      -0.659684      1.568340      6.678158
  C      -2.998268      1.563487      5.983929
  H      -3.235817      2.394618      6.687604
  H      -3.828233      0.823648      6.030964
  C       0.059705     -1.684524      5.566068
  H      -0.641055     -2.345822      5.008772
  H       1.007082     -2.228521      5.777424
  O       0.311812     -0.552325      4.681185
  C       1.511830      0.121993      4.858411
  O       2.431987     -0.309731      5.534139
  C       1.532832      1.445360      4.085245
  H       0.525857      1.669117      3.672535
  H       1.758620      2.228425      4.845562
  C      -2.852226      2.150315      4.545006
  H      -1.947187      2.802410      4.523962
  H      -3.723876      2.820152      4.346449
  C      -2.759727      1.084471      3.422814
  H      -3.708026      0.492138      3.396975
  H      -1.949864      0.355048      3.655087
  C      -2.488313      1.689142      2.018486
  H      -1.529241      2.263141      2.045973
  H      -3.282732      2.435673      1.767122
  C      -2.406597      0.617145      0.901158
  H      -3.369729      0.048169      0.868645
  H      -1.623939     -0.129061      1.178633
  C      -2.108462      1.186242     -0.512817
  H      -1.112842      1.694808     -0.517549
  H      -2.858146      1.980645     -0.744595
  C      -2.160637      0.124781     -1.658193
  H      -2.097129      0.643098     -2.641740
  H      -3.175565     -0.351740     -1.633225
  C      -1.111704     -0.973030     -1.564905
  H      -1.031730     -1.471623     -0.578685
  C      -0.280406     -1.411554     -2.544195
  H       0.412510     -2.239520     -2.287120
  C      -0.215801     -0.956148     -3.993706
  H       0.853771     -0.859374     -4.296816
  H      -0.662660      0.055410     -4.124594
  C      -0.918057     -1.961536     -4.957272
  H      -1.997493     -2.034320     -4.677059
  H      -0.497526     -2.984458     -4.791996
  C      -0.792238     -1.592821     -6.457906
  H       0.289629     -1.538400     -6.731748
  H      -1.198720     -0.563505     -6.624727
  C      -1.529066     -2.593132     -7.387086
  H      -2.601238     -2.641405     -7.076671
  H      -1.119309     -3.620346     -7.217204
  C      -1.462515     -2.264722     -8.904423
  H      -1.852181     -1.229999     -9.075298
  H      -2.163249     -2.944866     -9.447659
  C      -0.053745     -2.390067     -9.542672
  H       0.359714     -3.407224     -9.326727
  H       0.650617     -1.668497     -9.061558
  C      -0.044866     -2.152875    -11.076301
  H      -0.471160     -1.142218    -11.293122
  H      -0.735122     -2.883244    -11.566005
  C       1.365067     -2.268836    -11.706904
  H       1.341445     -2.096063    -12.807473
  H       1.802478     -3.280311    -11.534340
  H       2.068455     -1.524437    -11.264385
  C       2.597275      1.478632      2.953550
  H       3.593266      1.209379      3.378846
  H       2.684898      2.530856      2.590835
  C       2.254107      0.557924      1.755396
  H       1.207496      0.766795      1.420681
  H       2.259304     -0.510944      2.081349
  C       3.205268      0.742303      0.544814
  H       4.257562      0.526609      0.857151
  H       3.193031      1.819907      0.250862
  C       2.818563     -0.141450     -0.667851
  H       2.890016     -1.216136     -0.369426
  H       1.744682      0.022614     -0.915778
  C       3.679913      0.072587     -1.941511
  H       4.744029     -0.192540     -1.724710
  H       3.334801     -0.643463     -2.725818
  C       3.648607      1.517576     -2.543944
  H       4.284640      1.531034     -3.458062
  H       4.137862      2.220876     -1.827136
  C       2.252954      2.038550     -2.853865
  H       1.631986      2.318470     -1.979357
  C       1.691294      2.181793     -4.079654
  H       0.660914      2.594631     -4.127098
  C       2.349545      1.906606     -5.424478
  H       1.606545      1.419285     -6.103034
  H       3.189414      1.181032     -5.314311
  C       2.880959      3.202435     -6.113864
  H       3.632053      3.681397     -5.439862
  H       2.043049      3.935004     -6.201359
  C       3.518701      2.945800     -7.504714
  H       4.324737      2.180282     -7.389594
  H       2.757285      2.484411     -8.182469
  C       4.119687      4.205400     -8.188949
  H       4.850327      4.690794     -7.494571
  H       4.716024      3.883232     -9.077905
  C       3.074963      5.258407     -8.643576
  H       2.471625      5.598499     -7.767490
  H       2.348757      4.777558     -9.345700
  C       3.706083      6.498644     -9.325932
  H       4.434379      6.974863     -8.622605
  H       4.310614      6.171865    -10.208872
  C       2.668448      7.558678     -9.778086
  H       1.944019      7.086110    -10.486371
  H       2.062740      7.877538     -8.893959
  C       3.308763      8.801669    -10.443368
  H       2.538786      9.544196    -10.755605
  H       4.011411      9.318125     -9.747505
  H       3.891763      8.518332    -11.351390
138
Coordinates from ORCA-job /wrk/rja7/qm_final_3_replicates/qm_final_1.1/qm/4/freq E -2722.577969299291
  N      -3.797302     -4.832349     12.829727
  C      -2.703670     -5.436628     11.886223
  H      -2.600236     -6.498102     12.204119
  H      -1.761297     -4.903852     12.123308
  C      -4.955802     -5.807320     12.960636
  H      -5.726584     -5.370884     13.628657
  H      -5.389911     -5.978152     11.955335
  H      -4.588721     -6.765707     13.383778
  C      -4.330036     -3.466608     12.346905
  H      -3.455165     -2.806294     12.137439
  H      -4.890443     -3.612227     11.405103
  H      -4.993478     -3.077130     13.148115
  C      -3.137196     -4.618025     14.187462
  H      -2.347868     -3.848712     14.062580
  H      -2.692956     -5.573784     14.535365
  H      -3.900262     -4.267335     14.913350
  C      -2.951053     -5.337848     10.356127
  H      -2.163794     -6.008719      9.921153
  H      -3.946610     -5.767431     10.072168
  P      -1.322409     -3.204407     10.231120
  O      -0.243606     -4.273224     10.076324
  O      -1.571177     -2.436294     11.529405
  O      -2.867977     -4.020326      9.852472
  O      -1.337163     -2.102435      8.967791
  C      -1.008167     -2.579350      7.647693
  H      -1.885050     -3.106726      7.191842
  H      -0.159855     -3.306405      7.694906
  C      -0.593283     -1.381399      6.781105
  H       0.137783     -0.756487      7.338973
  O      -1.792882     -0.571473      6.502517
  C      -1.644526      0.795161      6.441687
  O      -0.602459      1.398585      6.666671
  C      -2.951239      1.480848      6.014727
  H      -3.158923      2.280404      6.763342
  H      -3.795937      0.756989      6.038430
  C       0.016927     -1.839218      5.431499
  H      -0.704325     -2.477592      4.873247
  H       0.959170     -2.401092      5.613296
  O       0.261865     -0.689310      4.565722
  C       1.454104      0.003195      4.737227
  O       2.392149     -0.413289      5.399458
  C       1.431877      1.337762      3.984062
  H       0.418959      1.532189      3.569520
  H       1.628004      2.118279      4.754413
  C      -2.810188      2.130038      4.603456
  H      -1.892197      2.764302      4.599335
  H      -3.670378      2.823497      4.440741
  C      -2.742241      1.101144      3.446103
  H      -3.701576      0.527296      3.408290
  H      -1.943915      0.350874      3.651219
  C      -2.472272      1.737260      2.056590
  H      -1.506210      2.300782      2.088934
  H      -3.259366      2.498062      1.826138
  C      -2.410060      0.683266      0.922335
  H      -3.385736      0.137858      0.876217
  H      -1.644793     -0.083591      1.194568
  C      -2.092809      1.264905     -0.480001
  H      -1.085956      1.751732     -0.474263
  H      -2.825849      2.077603     -0.707978
  C      -2.158035      0.210388     -1.629480
  H      -2.062391      0.730435     -2.609811
  H      -3.187664     -0.233276     -1.623856
  C      -1.143330     -0.917030     -1.514844
  H      -1.097915     -1.414334     -0.525314
  C      -0.308874     -1.388184     -2.474984
  H       0.350267     -2.238074     -2.199660
  C      -0.206741     -0.952114     -3.926957
  H       0.870721     -0.870635     -4.208584
  H      -0.636302      0.063843     -4.080111
  C      -0.901051     -1.961328     -4.892110
  H      -1.985048     -2.024307     -4.628867
  H      -0.489287     -2.985289     -4.712521
  C      -0.749405     -1.604152     -6.392111
  H       0.336202     -1.550953     -6.649088
  H      -1.153313     -0.576055     -6.572589
  C      -1.470574     -2.611448     -7.326215
  H      -2.546925     -2.661093     -7.030713
  H      -1.060747     -3.636857     -7.145869
  C      -1.383581     -2.288578     -8.842881
  H      -1.773256     -1.255377     -9.024877
  H      -2.074976     -2.972501     -9.393186
  C       0.034578     -2.415230     -9.458194
  H       0.448801     -3.428954     -9.227126
  H       0.729239     -1.686848     -8.973369
  C       0.064140     -2.193045    -10.992552
  H      -0.363920     -1.186767    -11.225674
  H      -0.616298     -2.931831    -11.483855
  C       1.482276     -2.309095    -11.603233
  H       1.471277     -2.148111    -12.705840
  H       1.922021     -3.316885    -11.414441
  H       2.177212     -1.556888    -11.160528
  C       2.502815      1.417055      2.860738
  H       3.504901      1.176428      3.289546
  H       2.558193      2.475357      2.508468
  C       2.200172      0.493919      1.652623
  H       1.147656      0.666451      1.314585
  H       2.241230     -0.576922      1.970673
  C       3.152495      0.718762      0.449177
  H       4.209048      0.528261      0.763296
  H       3.111768      1.799840      0.169226
  C       2.799899     -0.160597     -0.777407
  H       2.894825     -1.236074     -0.489929
  H       1.724658     -0.021593     -1.036205
  C       3.671605      0.086606     -2.037163
  H       4.735294     -0.171942     -1.810741
  H       3.343456     -0.614107     -2.842210
  C       3.638672      1.543583     -2.605530
  H       4.272013      1.576913     -3.520539
  H       4.131410      2.228408     -1.872528
  C       2.243017      2.074553     -2.897429
  H       1.636500      2.354668     -2.012421
  C       1.667899      2.226045     -4.117205
  H       0.645484      2.653808     -4.155401
  C       2.300527      1.931532     -5.468078
  H       1.537408      1.470294     -6.142237
  H       3.117672      1.179793     -5.368957
  C       2.862405      3.215685     -6.150110
  H       3.632239      3.666624     -5.478084
  H       2.043832      3.971743     -6.222170
  C       3.480384      2.960658     -7.549014
  H       4.272639      2.178031     -7.454874
  H       2.704351      2.523417     -8.225347
  C       4.091719      4.223782     -8.214966
  H       4.838690      4.679060     -7.517934
  H       4.668373      3.916394     -9.121192
  C       3.055640      5.304952     -8.621314
  H       2.471742      5.626705     -7.725054
  H       2.310357      4.853500     -9.322479
  C       3.690921      6.556516     -9.280321
  H       4.436649      7.004861     -8.577336
  H       4.275827      6.246505    -10.182512
  C       2.658447      7.640192     -9.685998
  H       1.913882      7.193398    -10.389795
  H       2.074696      7.944825     -8.782369
  C       3.300931      8.891232    -10.334705
  H       2.534370      9.651237    -10.611167
  H       4.025117      9.380592     -9.641275
  H       3.860139      8.624317    -11.262578
138
Coordinates from ORCA-job /wrk/rja7/qm_final_3_replicates/qm_final_1.1/qm/4/freq E -2722.578728285636
  N      -3.635424     -4.806721     12.897902
  C      -2.547037     -5.423154     11.955745
  H      -2.403263     -6.465408     12.318050
  H      -1.617248     -4.853041     12.145679
  C      -4.704501     -5.847429     13.182576
  H      -5.477966     -5.404088     13.842734
  H      -5.163858     -6.152999     12.220890
  H      -4.242946     -6.726093     13.678908
  C      -4.305054     -3.535910     12.331264
  H      -3.495425     -2.818011     12.066476
  H      -4.879840     -3.801456     11.424979
  H      -4.981002     -3.149315     13.123557
  C      -2.921079     -4.412995     14.187718
  H      -2.208029     -3.601330     13.935733
  H      -2.379939     -5.294656     14.589142
  H      -3.668785     -4.055944     14.926185
  C      -2.834418     -5.404481     10.430986
  H      -2.036286     -6.067647     10.003620
  H      -3.820704     -5.882898     10.195224
  P      -1.333466     -3.190834     10.223309
  O      -0.181228     -4.180275     10.088486
  O      -1.628630     -2.418049     11.512294
  O      -2.818583     -4.108995      9.862826
  O      -1.429054     -2.117647      8.944273
  C      -1.077144     -2.601451      7.633336
  H      -1.932677     -3.165628      7.181907
  H      -0.203383     -3.296429      7.695220
  C      -0.693587     -1.401269      6.756596
  H       0.027603     -0.759096      7.307547
  O      -1.913078     -0.618687      6.484206
  C      -1.797814      0.750617      6.437956
  O      -0.771700      1.375506      6.677358
  C      -3.117317      1.412177      6.010960
  H      -3.345290      2.201282      6.764697
  H      -3.947554      0.671654      6.022679
  C      -0.077523     -1.851528      5.407850
  H      -0.789988     -2.497434      4.847210
  H       0.870519     -2.404035      5.590923
  O       0.165509     -0.700137      4.544939
  C       1.360988     -0.014832      4.719313
  O       2.296531     -0.440042      5.378996
  C       1.341611      1.327185      3.981143
  H       0.330101      1.526451      3.566838
  H       1.538201      2.102608      4.756652
  C      -2.975067      2.069791      4.603044
  H      -2.069337      2.721029      4.610709
  H      -3.846217      2.746270      4.429446
  C      -2.876147      1.039114      3.448634
  H      -3.830950      0.459072      3.395244
  H      -2.078643      0.294199      3.671536
  C      -2.577855      1.669488      2.063279
  H      -1.609831      2.228705      2.112936
  H      -3.357141      2.432514      1.814950
  C      -2.500554      0.612071      0.932463
  H      -3.484777      0.085678      0.858734
  H      -1.759039     -0.169456      1.226973
  C      -2.126829      1.192595     -0.455722
  H      -1.102359      1.635386     -0.415698
  H      -2.820455      2.036892     -0.691636
  C      -2.207383      0.165758     -1.629335
  H      -2.060538      0.703915     -2.593554
  H      -3.255084     -0.231701     -1.662008
  C      -1.244889     -1.005654     -1.517373
  H      -1.249120     -1.531873     -0.542090
  C      -0.403545     -1.484400     -2.468276
  H       0.209544     -2.370633     -2.201887
  C      -0.239677     -1.006685     -3.901492
  H       0.848250     -0.953963     -4.149823
  H      -0.628530      0.028568     -4.032187
  C      -0.943356     -1.955578     -4.919439
  H      -2.034036     -1.993961     -4.680399
  H      -0.567444     -2.998432     -4.773130
  C      -0.749618     -1.542706     -6.400452
  H       0.341607     -1.522373     -6.637552
  H      -1.110442     -0.492814     -6.542447
  C      -1.495764     -2.478764     -7.388026
  H      -2.577976     -2.495571     -7.110433
  H      -1.131882     -3.527159     -7.245992
  C      -1.371604     -2.095670     -8.888013
  H      -1.715819     -1.040700     -9.032038
  H      -2.081118     -2.727450     -9.476356
  C       0.048907     -2.256994     -9.489314
  H       0.418388     -3.294404     -9.290011
  H       0.764713     -1.575323     -8.968491
  C       0.109114     -1.982571    -11.014438
  H      -0.275045     -0.952356    -11.217559
  H      -0.592872     -2.676070    -11.540177
  C       1.529450     -2.133756    -11.611632
  H       1.539186     -1.936307    -12.708327
  H       1.927254     -3.163682    -11.451686
  H       2.247380     -1.424606    -11.135858
  C       2.414057      1.406125      2.860325
  H       3.413714      1.154866      3.287967
  H       2.478500      2.465920      2.514077
  C       2.106197      0.491377      1.647690
  H       1.055717      0.672628      1.307182
  H       2.137658     -0.580916      1.961658
  C       3.066912      0.713792      0.452314
  H       4.119564      0.509450      0.771255
  H       3.040192      1.797462      0.182032
  C       2.715993     -0.151469     -0.783403
  H       2.793843     -1.231363     -0.505448
  H       1.645736      0.001989     -1.052021
  C       3.605098      0.100547     -2.029453
  H       4.663686     -0.170551     -1.793571
  H       3.280384     -0.587425     -2.846961
  C       3.590760      1.565714     -2.579099
  H       4.234880      1.603329     -3.486288
  H       4.081298      2.236650     -1.832399
  C       2.202961      2.112059     -2.880633
  H       1.596314      2.405719     -2.000228
  C       1.639362      2.262954     -4.105371
  H       0.623158      2.704273     -4.156212
  C       2.288686      1.948727     -5.444574
  H       1.529763      1.496189     -6.129068
  H       3.090008      1.183348     -5.324586
  C       2.889189      3.217049     -6.124587
  H       3.648317      3.662699     -5.437073
  H       2.085724      3.985161     -6.227149
  C       3.545367      2.935980     -7.500692
  H       4.325962      2.146987     -7.370503
  H       2.784536      2.496335     -8.192638
  C       4.190692      4.181438     -8.170172
  H       4.914291      4.649812     -7.456566
  H       4.799612      3.847901     -9.045330
  C       3.179179      5.256468     -8.648092
  H       2.562392      5.610723     -7.787142
  H       2.458690      4.785756     -9.362515
  C       3.845856      6.480135     -9.327615
  H       4.565315      6.953876     -8.614171
  H       4.464154      6.132606    -10.193063
  C       2.834617      7.548605     -9.818134
  H       2.115213      7.073926    -10.529778
  H       2.218264      7.893953     -8.951523
  C       3.507295      8.767751    -10.496102
  H       2.755328      9.516802    -10.835415
  H       4.206074      9.285537     -9.797368
  H       4.101399      8.459138    -11.388530
138
Coordinates from ORCA-job /wrk/rja7/qm_final_3_replicates/qm_final_1.1/qm/4/freq E -2722.578905350363
  N      -3.730199     -4.851724     12.833755
  C      -2.700098     -5.582099     11.898487
  H      -2.706506     -6.643934     12.231037
  H      -1.710326     -5.149702     12.132732
  C      -4.887506     -5.788024     13.129923
  H      -5.618804     -5.264395     13.779233
  H      -5.368224     -6.072621     12.171990
  H      -4.506849     -6.693980     13.644265
  C      -4.297432     -3.534123     12.260991
  H      -3.435112     -2.870037     12.036647
  H      -4.878369     -3.757430     11.348044
  H      -4.960420     -3.106084     13.043165
  C      -2.981804     -4.505594     14.119834
  H      -2.202199     -3.763120     13.850824
  H      -2.517971     -5.427508     14.525798
  H      -3.695579     -4.080737     14.855791
  C      -2.940208     -5.491584     10.366887
  H      -2.174122     -6.187884      9.933037
  H      -3.947036     -5.908992     10.102792
  P      -1.363627     -3.296050     10.198500
  O      -0.217130     -4.289027     10.057591
  O      -1.657612     -2.535653     11.498766
  O      -2.855781     -4.184578      9.813527
  O      -1.449357     -2.203454      8.937936
  C      -1.046151     -2.648815      7.625924
  H      -1.886717     -3.198853      7.131649
  H      -0.175646     -3.345767      7.699812
  C      -0.633724     -1.426395      6.787269
  H       0.090550     -0.810694      7.363602
  O      -1.845013     -0.625957      6.528719
  C      -1.729033      0.743698      6.521572
  O      -0.700323      1.360038      6.770933
  C      -3.045067      1.415553      6.093556
  H      -3.274064      2.196945      6.854469
  H      -3.877297      0.677255      6.094301
  C      -0.009548     -1.839933      5.429258
  H      -0.715741     -2.476931      4.851159
  H       0.941697     -2.391628      5.603446
  O       0.231499     -0.670728      4.589119
  C       1.429847      0.007852      4.769317
  O       2.372937     -0.441102      5.400292
  C       1.411255      1.361045      4.049995
  H       0.396727      1.566400      3.648131
  H       1.618909      2.127238      4.831884
  C      -2.896780      2.083919      4.687747
  H      -1.993539      2.737997      4.703378
  H      -3.768525      2.759362      4.514651
  C      -2.791348      1.057805      3.528470
  H      -3.744072      0.474405      3.477392
  H      -1.992426      0.315849      3.751132
  C      -2.500822      1.689036      2.142010
  H      -1.536993      2.253452      2.187076
  H      -3.284660      2.448349      1.896759
  C      -2.423409      0.632109      1.008406
  H      -3.406199      0.102098      0.945114
  H      -1.676239     -0.145459      1.297419
  C      -2.066457      1.216397     -0.384164
  H      -1.040338      1.660805     -0.353536
  H      -2.763040      2.060046     -0.609544
  C      -2.160112      0.198168     -1.566172
  H      -2.033298      0.746983     -2.527357
  H      -3.203663     -0.210410     -1.585034
  C      -1.182508     -0.960899     -1.479213
  H      -1.163708     -1.493903     -0.508104
  C      -0.348103     -1.421854     -2.444814
  H       0.280582     -2.300399     -2.190298
  C      -0.203251     -0.931135     -3.874788
  H       0.881548     -0.857238     -4.132197
  H      -0.609701      0.098972     -3.995206
  C      -0.900089     -1.884068     -4.892961
  H      -1.989907     -1.933812     -4.651923
  H      -0.512610     -2.923197     -4.750612
  C      -0.710683     -1.466631     -6.373288
  H       0.380367     -1.438008     -6.610622
  H      -1.080484     -0.419621     -6.513060
  C      -1.452706     -2.406297     -7.360847
  H      -2.535731     -2.422986     -7.086419
  H      -1.088973     -3.453966     -7.214227
  C      -1.321461     -2.030650     -8.861824
  H      -1.659125     -0.975264     -9.014412
  H      -2.031192     -2.662854     -9.449683
  C       0.099852     -2.206737     -9.456526
  H       0.461708     -3.243492     -9.242170
  H       0.817326     -1.522677     -8.940835
  C       0.168014     -1.954291    -10.985300
  H      -0.206451     -0.923989    -11.204955
  H      -0.537106     -2.649695    -11.504072
  C       1.589221     -2.125466    -11.574754
  H       1.604759     -1.944156    -12.674177
  H       1.977483     -3.156157    -11.398394
  H       2.311360     -1.415898    -11.106192
  C       2.471583      1.452654      2.916116
  H       3.476399      1.197693      3.327804
  H       2.529585      2.516031      2.580061
  C       2.154332      0.552091      1.694664
  H       1.101960      0.732826      1.363718
  H       2.191647     -0.523065      1.997176
  C       3.101138      0.792597      0.492553
  H       4.159168      0.597429      0.799254
  H       3.060288      1.876976      0.229696
  C       2.745340     -0.071772     -0.742157
  H       2.834919     -1.151144     -0.464558
  H       1.671080      0.073503     -0.997759
  C       3.615276      0.187576     -2.002478
  H       4.681965     -0.063581     -1.780356
  H       3.290702     -0.514372     -2.807514
  C       3.561572      1.644908     -2.576633
  H       4.198021      1.680801     -3.489241
  H       4.042166      2.340392     -1.847089
  C       2.158089      2.151413     -2.879172
  H       1.554595      2.450445     -1.998857
  C       1.579031      2.264246     -4.102060
  H       0.551908      2.680496     -4.150780
  C       2.222293      1.937521     -5.443200
  H       1.465799      1.459315     -6.112748
  H       3.035579      1.186813     -5.312490
  C       2.799626      3.201700     -6.153664
  H       3.546707      3.680748     -5.475320
  H       1.981613      3.949203     -6.281400
  C       3.469496      2.898606     -7.518776
  H       4.255618      2.120541     -7.361849
  H       2.717511      2.437070     -8.206729
  C       4.109953      4.133424     -8.217478
  H       4.832672      4.624622     -7.518377
  H       4.720349      3.779858     -9.083585
  C       3.094614      5.189029     -8.730063
  H       2.485352      5.580093     -7.880454
  H       2.368458      4.689648     -9.419427
  C       3.755579      6.381601     -9.466158
  H       4.482337      6.883864     -8.780091
  H       4.363889      5.996345    -10.322492
  C       2.739618      7.428742     -9.992188
  H       2.011225      6.922990    -10.672993
  H       2.134094      7.815263     -9.135342
  C       3.406418      8.613642    -10.733274
  H       2.652157      9.349831    -11.094960
  H       4.116088      9.158900    -10.067486
  H       3.987860      8.264056    -11.618676
138
Coordinates from ORCA-job /wrk/rja7/qm_final_3_replicates/qm_final_1.1/qm/4/freq E -2722.579731520798
  N      -3.737881     -4.777570     12.834262
  C      -2.709234     -5.536375     11.917615
  H      -2.711904     -6.585985     12.286019
  H      -1.715774     -5.098295     12.126191
  C      -4.823201     -5.748127     13.263812
  H      -5.570867     -5.209967     13.882244
  H      -5.310871     -6.157548     12.355722
  H      -4.372257     -6.573698     13.852070
  C      -4.408914     -3.551981     12.176778
  H      -3.597535     -2.857705     11.855135
  H      -5.011402     -3.890005     11.313895
  H      -5.068963     -3.100816     12.948676
  C      -2.957658     -4.270865     14.047515
  H      -2.243401     -3.507773     13.674283
  H      -2.416239     -5.121862     14.509038
  H      -3.666037     -3.827919     14.778412
  C      -2.959102     -5.492750     10.386695
  H      -2.217356     -6.226226      9.971231
  H      -3.980229     -5.882816     10.138717
  P      -1.319890     -3.356575     10.201586
  O      -0.192375     -4.368445     10.047330
  O      -1.598868     -2.617558     11.519659
  O      -2.826596     -4.206991      9.797859
  O      -1.383230     -2.237678      8.962681
  C      -1.013608     -2.677944      7.637552
  H      -1.866453     -3.222677      7.158731
  H      -0.146577     -3.381368      7.688286
  C      -0.616555     -1.453334      6.796389
  H       0.118538     -0.839153      7.360569
  O      -1.830581     -0.651416      6.556289
  C      -1.711714      0.718319      6.537547
  O      -0.672484      1.331659      6.746478
  C      -3.027795      1.390530      6.107460
  H      -3.249803      2.178272      6.863639
  H      -3.862809      0.655339      6.118180
  C      -0.018094     -1.865418      5.426803
  H      -0.736189     -2.497906      4.858428
  H       0.934100     -2.420494      5.582977
  O       0.213165     -0.691794      4.590902
  C       1.417574     -0.022220      4.762307
  O       2.364101     -0.484744      5.377860
  C       1.409809      1.328170      4.037110
  H       0.396834      1.540851      3.634590
  H       1.623167      2.093338      4.818740
  C      -2.886236      2.053076      4.698271
  H      -1.979418      2.702546      4.707432
  H      -3.755659      2.733588      4.532034
  C      -2.796749      1.030136      3.535169
  H      -3.751958      0.450249      3.488900
  H      -1.998463      0.284435      3.748026
  C      -2.513283      1.668798      2.149891
  H      -1.550192      2.234166      2.195238
  H      -3.299128      2.428295      1.911518
  C      -2.436951      0.618422      1.009615
  H      -3.419881      0.088294      0.943852
  H      -1.689952     -0.161170      1.293084
  C      -2.079278      1.208781     -0.380768
  H      -1.051470      1.648902     -0.348797
  H      -2.771952      2.055999     -0.602801
  C      -2.177286      0.194648     -1.566473
  H      -2.049020      0.746125     -2.525687
  H      -3.222556     -0.209934     -1.584728
  C      -1.205106     -0.970346     -1.487709
  H      -1.187648     -1.509982     -0.520152
  C      -0.372420     -1.427335     -2.457262
  H       0.254983     -2.308753     -2.208802
  C      -0.226507     -0.926936     -3.884326
  H       0.858292     -0.834390     -4.133341
  H      -0.649657      0.096488     -4.002118
  C      -0.898088     -1.887082     -4.912983
  H      -1.988519     -1.959134     -4.680186
  H      -0.492086     -2.919495     -4.772363
  C      -0.707198     -1.460961     -6.391321
  H       0.384822     -1.407915     -6.620255
  H      -1.098289     -0.421812     -6.531842
  C      -1.420699     -2.415170     -7.385968
  H      -2.504340     -2.458814     -7.117378
  H      -1.032318     -3.454086     -7.239411
  C      -1.291904     -2.033882     -8.886129
  H      -1.660217     -0.988682     -9.037878
  H      -1.979483     -2.685660     -9.478980
  C       0.137491     -2.163520     -9.474474
  H       0.531042     -3.188991     -9.261694
  H       0.830714     -1.458767     -8.953419
  C       0.205254     -1.902466    -11.002394
  H      -0.202238     -0.884212    -11.219624
  H      -0.473570     -2.618448    -11.528073
  C       1.635200     -2.023538    -11.583825
  H       1.651799     -1.837414    -12.682411
  H       2.056871     -3.041210    -11.408758
  H       2.329778     -1.291768    -11.107744
  C       2.470753      1.414937      2.903633
  H       3.473528      1.153268      3.316460
  H       2.535521      2.478586      2.570118
  C       2.147938      0.520754      1.679034
  H       1.098502      0.712705      1.345203
  H       2.175474     -0.555936      1.977209
  C       3.098425      0.759154      0.479086
  H       4.154029      0.551724      0.786169
  H       3.068917      1.845674      0.222330
  C       2.732681     -0.092567     -0.761518
  H       2.808149     -1.174604     -0.491259
  H       1.660138      0.068965     -1.017071
  C       3.605348      0.164333     -2.019610
  H       4.669919     -0.097628     -1.800333
  H       3.273799     -0.531117     -2.827455
  C       3.563328      1.625399     -2.584949
  H       4.199694      1.661882     -3.497943
  H       4.048552      2.313400     -1.851616
  C       2.162711      2.143341     -2.882262
  H       1.566179      2.454147     -2.001187
  C       1.575565      2.247957     -4.100932
  H       0.547836      2.665837     -4.143729
  C       2.210825      1.914989     -5.445221
  H       1.446326      1.443323     -6.109939
  H       3.019377      1.157746     -5.318967
  C       2.794727      3.173921     -6.161237
  H       3.557397      3.641863     -5.492712
  H       1.984615      3.932578     -6.274294
  C       3.436877      2.867219     -7.539701
  H       4.215920      2.078876     -7.399267
  H       2.667096      2.418058     -8.216231
  C       4.081791      4.096160     -8.243776
  H       4.822690      4.572946     -7.554181
  H       4.672718      3.740596     -9.122868
  C       3.071264      5.169665     -8.727130
  H       2.475415      5.549329     -7.862666
  H       2.333304      4.692446     -9.419720
  C       3.739116      6.372161     -9.440365
  H       4.480049      6.846307     -8.749221
  H       4.333098      6.003182    -10.313740
  C       2.731616      7.447471     -9.924222
  H       1.993993      6.973964    -10.618257
  H       2.135327      7.810269     -9.050779
  C       3.407342      8.650970    -10.625982
  H       2.659216      9.407260    -10.957706
  H       4.125860      9.165131     -9.945023
  H       3.980686      8.326809    -11.526393
138
Coordinates from ORCA-job /wrk/rja7/qm_final_3_replicates/qm_final_1.1/qm/4/freq E -2722.579683781190
  N      -3.600424     -4.789508     12.876085
  C      -2.570410     -5.459180     11.893816
  H      -2.484192     -6.516206     12.229848
  H      -1.596473     -4.958234     12.059656
  C      -4.605619     -5.833832     13.335186
  H      -5.342339     -5.357025     14.014123
  H      -5.127555     -6.243033     12.445857
  H      -4.075186     -6.650004     13.869421
  C      -4.372106     -3.599535     12.266077
  H      -3.627091     -2.842455     11.937050
  H      -4.971282     -3.961481     11.410590
  H      -5.038315     -3.208432     13.065686
  C      -2.802022     -4.259398     14.068638
  H      -2.126240     -3.467792     13.680740
  H      -2.216871     -5.092986     14.509961
  H      -3.506050     -3.847836     14.822721
  C      -2.909528     -5.393181     10.387206
  H      -2.152354     -6.073295      9.913003
  H      -3.919766     -5.830758     10.178263
  P      -1.382529     -3.181379     10.215478
  O      -0.233271     -4.176994     10.101292
  O      -1.681435     -2.378674     11.489526
  O      -2.869722     -4.085178      9.854106
  O      -1.485781     -2.130375      8.920455
  C      -1.101537     -2.617954      7.620156
  H      -1.958596     -3.158524      7.142338
  H      -0.247754     -3.334046      7.704745
  C      -0.672640     -1.426411      6.754700
  H       0.068079     -0.810879      7.310878
  O      -1.865198     -0.606776      6.478562
  C      -1.712430      0.759359      6.433206
  O      -0.670541      1.355391      6.675880
  C      -3.026504      1.457161      6.043747
  H      -3.217759      2.245984      6.807599
  H      -3.874447      0.737342      6.071682
  C      -0.072234     -1.886502      5.405042
  H      -0.793662     -2.527502      4.850279
  H       0.873776     -2.445265      5.580040
  O       0.162863     -0.732501      4.545859
  C       1.359964     -0.048489      4.710473
  O       2.296569     -0.471626      5.369418
  C       1.328546      1.297931      3.980111
  H       0.313539      1.491231      3.571049
  H       1.525486      2.071475      4.757322
  C      -2.902711      2.114993      4.633812
  H      -1.981710      2.744820      4.623107
  H      -3.759821      2.815352      4.485180
  C      -2.859636      1.083556      3.476596
  H      -3.830402      0.528244      3.447497
  H      -2.075854      0.320299      3.684294
  C      -2.575586      1.703697      2.084460
  H      -1.596682      2.245014      2.116120
  H      -3.343417      2.481850      1.846624
  C      -2.537535      0.642282      0.953322
  H      -3.536696      0.142774      0.889022
  H      -1.815335     -0.159059      1.242766
  C      -2.156201      1.213750     -0.435850
  H      -1.119235      1.626868     -0.393838
  H      -2.824600      2.077401     -0.672641
  C      -2.257372      0.185949     -1.608914
  H      -2.119439      0.724514     -2.573906
  H      -3.306891     -0.207317     -1.627606
  C      -1.296028     -0.987847     -1.506375
  H      -1.298434     -1.519123     -0.533253
  C      -0.451047     -1.459046     -2.458444
  H       0.165990     -2.343336     -2.192778
  C      -0.279784     -0.971651     -3.887359
  H       0.809795     -0.883377     -4.115226
  H      -0.697424      0.052146     -4.019747
  C      -0.929766     -1.934504     -4.927553
  H      -2.023591     -2.012908     -4.714084
  H      -0.520561     -2.965025     -4.781775
  C      -0.716475     -1.502854     -6.401350
  H       0.378870     -1.435881     -6.608590
  H      -1.115768     -0.467406     -6.546733
  C      -1.396337     -2.461139     -7.415313
  H      -2.481674     -2.533269     -7.160034
  H      -0.985888     -3.492904     -7.276800
  C      -1.261654     -2.055931     -8.908923
  H      -1.665950     -1.022366     -9.050960
  H      -1.918540     -2.722899     -9.519547
  C       0.179886     -2.122328     -9.479074
  H       0.611687     -3.134403     -9.274971
  H       0.838097     -1.397808     -8.940063
  C       0.256908     -1.832786    -11.001217
  H      -0.191764     -0.829543    -11.207461
  H      -0.383479     -2.568037    -11.548410
  C       1.699377     -1.882177    -11.562399
  H       1.723221     -1.678953    -12.657844
  H       2.163482     -2.882893    -11.395486
  H       2.353746     -1.127227    -11.065822
  C       2.392037      1.391501      2.852537
  H       3.396789      1.142105      3.269701
  H       2.449414      2.454076      2.513826
  C       2.076576      0.482421      1.637594
  H       1.026523      0.669365      1.298732
  H       2.106082     -0.591342      1.947056
  C       3.031141      0.704583      0.438384
  H       4.084813      0.493441      0.749617
  H       3.009177      1.789523      0.170538
  C       2.661462     -0.155205     -0.796055
  H       2.715802     -1.235005     -0.514972
  H       1.594092      0.023196     -1.066133
  C       3.551442      0.077514     -2.043473
  H       4.607829     -0.204100     -1.810610
  H       3.216832     -0.611726     -2.855548
  C       3.546789      1.540453     -2.596479
  H       4.191568      1.573274     -3.503920
  H       4.040294      2.211359     -1.851890
  C       2.159564      2.090505     -2.896853
  H       1.564539      2.407477     -2.016482
  C       1.582936      2.208824     -4.116938
  H       0.564107      2.646371     -4.168143
  C       2.219625      1.855621     -5.452625
  H       1.452592      1.392856     -6.120461
  H       3.016609      1.087006     -5.320366
  C       2.823213      3.104918     -6.163192
  H       3.593244      3.556758     -5.492141
  H       2.025240      3.877832     -6.271181
  C       3.459624      2.797536     -7.543868
  H       4.233420      2.002203     -7.412371
  H       2.687477      2.358957     -8.224235
  C       4.113955      4.030676     -8.225222
  H       4.859879      4.481459     -7.523583
  H       4.698928      3.691148     -9.114660
  C       3.111542      5.127342     -8.673684
  H       2.513046      5.472643     -7.796127
  H       2.375264      4.683194     -9.389244
  C       3.792072      6.357847     -9.325805
  H       4.531190      6.792858     -8.607534
  H       4.389800      6.028676    -10.212597
  C       2.795441      7.463162     -9.762350
  H       2.068366      7.033407    -10.494840
  H       2.185780      7.775756     -8.878902
  C       3.484683      8.704732    -10.379945
  H       2.743439      9.481078    -10.679237
  H       4.191862      9.175609     -9.656798
  H       4.072165      8.432976    -11.288845
138
Coordinates from ORCA-job /wrk/rja7/qm_final_3_replicates/qm_final_1.1/qm/4/freq E -2722.580594761349
  N      -3.656518     -4.755598     12.882723
  C      -2.654951     -5.510300     11.927151
  H      -2.643237     -6.563124     12.286119
  H      -1.653867     -5.073112     12.104267
  C      -4.681909     -5.748485     13.404429
  H      -5.405021     -5.218092     14.057641
  H      -5.215552     -6.196524     12.541004
  H      -4.167354     -6.544225     13.982180
  C      -4.407733     -3.574730     12.229879
  H      -3.647209     -2.846728     11.874518
  H      -5.024185     -3.956740     11.395811
  H      -5.059816     -3.140037     13.018223
  C      -2.826469     -4.186164     14.035473
  H      -2.142399     -3.430779     13.593219
  H      -2.252565     -5.011556     14.505749
  H      -3.508346     -3.723631     14.780140
  C      -2.953706     -5.459792     10.407717
  H      -2.212612     -6.178395      9.965385
  H      -3.974704     -5.865653     10.186702
  P      -1.375037     -3.275272     10.219572
  O      -0.225227     -4.269902     10.115169
  O      -1.689639     -2.486639     11.500474
  O      -2.858052     -4.169059      9.831164
  O      -1.455140     -2.206685      8.937382
  C      -1.053263     -2.676435      7.633696
  H      -1.898004     -3.228119      7.147071
  H      -0.188223     -3.378936      7.718485
  C      -0.639788     -1.469977      6.776980
  H       0.093753     -0.850479      7.337911
  O      -1.845275     -0.664531      6.512304
  C      -1.716061      0.704604      6.489440
  O      -0.681675      1.313279      6.733060
  C      -3.034480      1.386940      6.085897
  H      -3.242865      2.170127      6.850911
  H      -3.873030      0.655875      6.102467
  C      -0.033847     -1.910027      5.420108
  H      -0.749245     -2.552125      4.858935
  H       0.916561     -2.463144      5.590906
  O       0.197365     -0.749637      4.566479
  C       1.397495     -0.069250      4.727167
  O       2.341706     -0.506267      5.365492
  C       1.368758      1.280847      4.002075
  H       0.352261      1.479716      3.600430
  H       1.573737      2.050248      4.781406
  C      -2.906549      2.055146      4.679575
  H      -1.993031      2.695589      4.679389
  H      -3.771146      2.745551      4.528673
  C      -2.843324      1.033781      3.513637
  H      -3.808206      0.469358      3.473876
  H      -2.054334      0.275888      3.720455
  C      -2.558834      1.669463      2.127900
  H      -1.583973      2.216800      2.166515
  H      -3.331871      2.443995      1.895739
  C      -2.512670      0.619959      0.985644
  H      -3.509978      0.117751      0.915984
  H      -1.787896     -0.181101      1.268758
  C      -2.134923      1.205599     -0.399950
  H      -1.095392      1.614920     -0.361277
  H      -2.800959      2.074384     -0.623340
  C      -2.249666      0.193269     -1.584612
  H      -2.102692      0.741179     -2.543105
  H      -3.304327     -0.185566     -1.608924
  C      -1.306634     -0.995259     -1.492552
  H      -1.323834     -1.540773     -0.527714
  C      -0.463606     -1.466473     -2.445648
  H       0.135623     -2.365440     -2.189377
  C      -0.269243     -0.956971     -3.862992
  H       0.824040     -0.881489     -4.077913
  H      -0.669397      0.075376     -3.981920
  C      -0.924293     -1.890704     -4.925301
  H      -2.021666     -1.953408     -4.725117
  H      -0.534875     -2.930685     -4.793283
  C      -0.686433     -1.436605     -6.388003
  H       0.412288     -1.390539     -6.582980
  H      -1.061456     -0.390004     -6.517112
  C      -1.379349     -2.359136     -7.425404
  H      -2.468759     -2.408546     -7.182166
  H      -0.996845     -3.403401     -7.302039
  C      -1.218367     -1.930135     -8.909010
  H      -1.589389     -0.882367     -9.036384
  H      -1.888677     -2.565786     -9.538046
  C       0.225546     -2.032145     -9.466197
  H       0.622957     -3.060316     -9.273613
  H       0.900646     -1.337057     -8.909546
  C       0.326115     -1.723758    -10.982693
  H      -0.087158     -0.703392    -11.178419
  H      -0.332777     -2.429835    -11.546035
  C       1.771074     -1.812640    -11.532105
  H       1.811743     -1.595079    -12.624297
  H       2.200344     -2.830330    -11.375559
  H       2.445406     -1.086838    -11.018992
  C       2.425962      1.376462      2.867122
  H       3.432108      1.122406      3.277505
  H       2.483019      2.440570      2.533289
  C       2.104464      0.477017      1.646223
  H       1.052438      0.664467      1.314590
  H       2.137396     -0.598975      1.946996
  C       3.053205      0.711496      0.443638
  H       4.108990      0.502723      0.749304
  H       3.025411      1.797953      0.184326
  C       2.684301     -0.141742     -0.795828
  H       2.749107     -1.223451     -0.522899
  H       1.614155      0.029300     -1.057098
  C       3.565127      0.106007     -2.049032
  H       4.624970     -0.169687     -1.824557
  H       3.229167     -0.581760     -2.861848
  C       3.547319      1.570622     -2.602323
  H       4.182978      1.605850     -3.515943
  H       4.044972      2.244037     -1.863267
  C       2.154815      2.113963     -2.892067
  H       1.569448      2.437792     -2.007901
  C       1.564163      2.222882     -4.107888
  H       0.545004      2.659705     -4.150294
  C       2.188344      1.868330     -5.450380
  H       1.414761      1.404749     -6.110051
  H       2.985421      1.099380     -5.322552
  C       2.787455      3.114660     -6.172009
  H       3.557078      3.574470     -5.505962
  H       1.987281      3.883957     -6.286415
  C       3.424844      2.795256     -7.549923
  H       4.197962      2.000949     -7.408931
  H       2.651849      2.350215     -8.225120
  C       4.078599      4.019285     -8.251507
  H       4.823083      4.486442     -7.559017
  H       4.665636      3.663051     -9.132961
  C       3.074559      5.102852     -8.727296
  H       2.478550      5.475268     -7.859566
  H       2.336003      4.635280     -9.425277
  C       3.749097      6.310859     -9.425890
  H       4.490511      6.774031     -8.727997
  H       4.343075      5.950623    -10.302999
  C       2.746749      7.395828     -9.899086
  H       2.012952      6.933749    -10.604577
  H       2.145538      7.745870     -9.023867
  C       3.427893      8.609224    -10.578506
  H       2.682631      9.371162    -10.903707
  H       4.142476      9.112185     -9.884900
  H       4.006252      8.297970    -11.480384
138
Coordinates from ORCA-job /wrk/rja7/qm_final_3_replicates/qm_final_1.1/qm/4/freq E -2722.580819849976
  N      -3.628403     -4.782846     12.882836
  C      -2.617034     -5.526182     11.925836
  H      -2.607936     -6.584049     12.269213
  H      -1.615518     -5.094273     12.113789
  C      -4.637955     -5.791254     13.405701
  H      -5.368494     -5.274039     14.061522
  H      -5.166754     -6.247138     12.543632
  H      -4.110695     -6.579543     13.981750
  C      -4.397036     -3.618172     12.222533
  H      -3.650936     -2.875304     11.868303
  H      -4.999556     -4.014830     11.384513
  H      -5.063130     -3.193647     13.004226
  C      -2.809066     -4.195850     14.035471
  H      -2.132311     -3.437408     13.587387
  H      -2.229794     -5.012370     14.514484
  H      -3.499941     -3.735499     14.773083
  C      -2.907318     -5.454704     10.405587
  H      -2.153252     -6.156046      9.956924
  H      -3.920677     -5.872981     10.173896
  P      -1.359787     -3.240265     10.236849
  O      -0.197655     -4.221524     10.135204
  O      -1.684859     -2.449836     11.513435
  O      -2.829064     -4.154601      9.849456
  O      -1.454887     -2.176459      8.951673
  C      -1.060612     -2.644016      7.645249
  H      -1.908961     -3.193071      7.161583
  H      -0.196942     -3.348974      7.723570
  C      -0.652179     -1.436080      6.787969
  H       0.088960     -0.819663      7.342029
  O      -1.859330     -0.628918      6.538817
  C      -1.731446      0.739973      6.516884
  O      -0.689083      1.348203      6.724974
  C      -3.048377      1.418258      6.102938
  H      -3.254022      2.212718      6.856746
  H      -3.888538      0.689320      6.130885
  C      -0.060476     -1.872308      5.422997
  H      -0.783171     -2.508181      4.864281
  H       0.888533     -2.430966      5.583699
  O       0.171714     -0.707907      4.574826
  C       1.376992     -0.036647      4.734621
  O       2.322597     -0.486813      5.361584
  C       1.362765      1.310034      4.002786
  H       0.347797      1.519324      3.602849
  H       1.579218      2.080072      4.778406
  C      -2.920578      2.067421      4.687983
  H      -2.009929      2.711847      4.679556
  H      -3.787835      2.752018      4.526314
  C      -2.852035      1.031411      3.535116
  H      -3.812985      0.460038      3.504659
  H      -2.057347      0.281335      3.749588
  C      -2.576275      1.654992      2.142576
  H      -1.604848      2.208402      2.172622
  H      -3.355196      2.422371      1.906568
  C      -2.527991      0.598591      1.006878
  H      -3.521092      0.087126      0.945914
  H      -1.794499     -0.194549      1.289034
  C      -2.165412      1.183764     -0.382938
  H      -1.128100      1.600219     -0.352587
  H      -2.838119      2.048849     -0.599848
  C      -2.285762      0.173790     -1.569855
  H      -2.150976      0.725602     -2.527900
  H      -3.338297     -0.211357     -1.585355
  C      -1.336130     -1.010348     -1.492843
  H      -1.349441     -1.568032     -0.535124
  C      -0.491688     -1.465160     -2.453019
  H       0.112563     -2.363930     -2.208341
  C      -0.298129     -0.934932     -3.863071
  H       0.795530     -0.850458     -4.072741
  H      -0.703687      0.096743     -3.968666
  C      -0.943340     -1.856685     -4.941868
  H      -2.042648     -1.922388     -4.753329
  H      -0.554537     -2.897863     -4.817758
  C      -0.690247     -1.386689     -6.397528
  H       0.410789     -1.334825     -6.577427
  H      -1.067326     -0.340144     -6.520848
  C      -1.367385     -2.301170     -7.452628
  H      -2.460562     -2.351712     -7.226742
  H      -0.987363     -3.346428     -7.330381
  C      -1.183231     -1.863701     -8.931394
  H      -1.549389     -0.814226     -9.058578
  H      -1.845792     -2.494217     -9.573608
  C       0.267851     -1.967727     -9.469682
  H       0.658482     -2.998371     -9.276855
  H       0.937857     -1.278213     -8.900257
  C       0.390349     -1.652794    -10.983710
  H      -0.014671     -0.629279    -11.180168
  H      -0.264526     -2.352720    -11.559237
  C       1.842199     -1.746883    -11.513747
  H       1.899372     -1.524836    -12.604305
  H       2.263621     -2.767551    -11.355741
  H       2.513127     -1.027019    -10.987946
  C       2.418292      1.388302      2.864657
  H       3.423090      1.129834      3.275443
  H       2.482607      2.449137      2.521869
  C       2.086822      0.482262      1.651548
  H       1.035831      0.675991      1.321219
  H       2.112080     -0.591648      1.960220
  C       3.034593      0.700079      0.444827
  H       4.089657      0.488639      0.750959
  H       3.011991      1.783882      0.175027
  C       2.658584     -0.162432     -0.786235
  H       2.720255     -1.242181     -0.504835
  H       1.588180      0.010827     -1.044552
  C       3.535928      0.072145     -2.045036
  H       4.595057     -0.208809     -1.823545
  H       3.191900     -0.618911     -2.851584
  C       3.525048      1.533211     -2.608801
  H       4.154919      1.558185     -3.526698
  H       4.032446      2.208087     -1.877899
  C       2.134719      2.084725     -2.893924
  H       1.555108      2.414878     -2.008416
  C       1.539774      2.195625     -4.107876
  H       0.523034      2.638304     -4.146322
  C       2.155091      1.835410     -5.452996
  H       1.374834      1.377269     -6.108554
  H       2.946889      1.060679     -5.328185
  C       2.760743      3.076742     -6.177790
  H       3.535964      3.531318     -5.514635
  H       1.965957      3.851646     -6.290782
  C       3.391867      2.750640     -7.556928
  H       4.154073      1.945680     -7.417170
  H       2.611892      2.317254     -8.231740
  C       4.062164      3.965836     -8.258751
  H       4.815902      4.421211     -7.568425
  H       4.641261      3.600885     -9.141860
  C       3.073678      5.064258     -8.732957
  H       2.487806      5.449318     -7.863998
  H       2.324629      4.606203     -9.426117
  C       3.763814      6.258649     -9.439421
  H       4.514276      6.714129     -8.746179
  H       4.349223      5.885668    -10.316926
  C       2.775617      7.355768     -9.914618
  H       2.030547      6.899564    -10.612088
  H       2.185372      7.721707     -9.038435
  C       3.471508      8.552720    -10.607979
  H       2.736534      9.324345    -10.933670
  H       4.199262      9.049027     -9.923365
  H       4.038428      8.225095    -11.511255
138
Coordinates from ORCA-job /wrk/rja7/qm_final_3_replicates/qm_final_1.1/qm/4/freq E -2722.581115853828
  N      -3.624271     -4.724596     12.910805
  C      -2.623812     -5.497576     11.961400
  H      -2.629056     -6.550268     12.319625
  H      -1.614179     -5.079837     12.139175
  C      -4.601015     -5.727033     13.503086
  H      -5.328222     -5.196221     14.152143
  H      -5.140204     -6.231035     12.674695
  H      -4.045289     -6.477754     14.101895
  C      -4.430697     -3.606195     12.218973
  H      -3.708614     -2.857324     11.830387
  H      -5.035151     -4.047372     11.404571
  H      -5.097039     -3.170185     12.993955
  C      -2.787481     -4.067292     14.013934
  H      -2.134676     -3.324467     13.507217
  H      -2.187080     -4.850963     14.521289
  H      -3.470273     -3.580099     14.741897
  C      -2.912917     -5.447827     10.439410
  H      -2.160907     -6.160441     10.004328
  H      -3.927144     -5.866240     10.212788
  P      -1.368833     -3.233511     10.255961
  O      -0.200714     -4.210626     10.186208
  O      -1.719051     -2.427419     11.516362
  O      -2.825939     -4.159679      9.860027
  O      -1.448006     -2.184473      8.957061
  C      -1.049692     -2.669343      7.657990
  H      -1.898211     -3.221069      7.177623
  H      -0.189150     -3.376860      7.748460
  C      -0.634509     -1.472596      6.787970
  H       0.115418     -0.857770      7.331701
  O      -1.834474     -0.655251      6.536961
  C      -1.692487      0.712473      6.509333
  O      -0.644093      1.310739      6.716161
  C      -3.007291      1.405456      6.113362
  H      -3.191428      2.204394      6.868096
  H      -3.855612      0.686728      6.156371
  C      -0.056076     -1.924713      5.422609
  H      -0.787523     -2.559440      4.874153
  H       0.890746     -2.488179      5.579328
  O       0.176504     -0.766691      4.565864
  C       1.388003     -0.104579      4.713449
  O       2.334613     -0.560081      5.335086
  C       1.376612      1.243463      3.984304
  H       0.360587      1.459709      3.590590
  H       1.601201      2.009489      4.761790
  C      -2.894599      2.051332      4.695520
  H      -1.978792      2.688054      4.673866
  H      -3.758563      2.742980      4.546330
  C      -2.851795      1.016315      3.540447
  H      -3.818545      0.454390      3.520813
  H      -2.061312      0.258480      3.742740
  C      -2.587520      1.641504      2.145843
  H      -1.610815      2.185923      2.166371
  H      -3.362278      2.416421      1.921065
  C      -2.561868      0.588452      1.006216
  H      -3.560849      0.087544      0.952853
  H      -1.833989     -0.213052      1.279003
  C      -2.205270      1.173095     -0.385925
  H      -1.161888      1.574281     -0.364757
  H      -2.865765      2.049592     -0.593986
  C      -2.353453      0.167988     -1.574036
  H      -2.213194      0.718850     -2.531794
  H      -3.413895     -0.195145     -1.583471
  C      -1.429351     -1.036769     -1.504949
  H      -1.463780     -1.607051     -0.555190
  C      -0.581602     -1.493810     -2.461469
  H       0.003236     -2.406642     -2.221584
  C      -0.356277     -0.945723     -3.860077
  H       0.742055     -0.862461     -4.043492
  H      -0.755389      0.088745     -3.960664
  C      -0.978753     -1.851034     -4.965725
  H      -2.082352     -1.917172     -4.804178
  H      -0.594736     -2.894575     -4.846115
  C      -0.690824     -1.363909     -6.409532
  H       0.414300     -1.302038     -6.558455
  H      -1.071279     -0.318554     -6.532855
  C      -1.332457     -2.273192     -7.490980
  H      -2.430874     -2.334645     -7.295111
  H      -0.946766     -3.316299     -7.367757
  C      -1.113437     -1.822106     -8.961062
  H      -1.488697     -0.775999     -9.090051
  H      -1.751181     -2.455295     -9.625336
  C       0.352335     -1.904123     -9.462050
  H       0.751285     -2.930905     -9.265582
  H       0.998784     -1.209829     -8.871623
  C       0.508896     -1.578118    -10.970836
  H       0.095715     -0.558645    -11.171421
  H      -0.122452     -2.282601    -11.566749
  C       1.974782     -1.650616    -11.464389
  H       2.056797     -1.422253    -12.552079
  H       2.405390     -2.666486    -11.300616
  H       2.622598     -0.924507    -10.918492
  C       2.426176      1.321091      2.840856
  H       3.431659      1.055835      3.245668
  H       2.494348      2.383115      2.502657
  C       2.082659      0.423697      1.624943
  H       1.032170      0.628947      1.299877
  H       2.099681     -0.652144      1.927273
  C       3.027285      0.640996      0.415512
  H       4.081834      0.419770      0.716510
  H       3.011988      1.726486      0.152268
  C       2.639700     -0.209878     -0.820078
  H       2.692306     -1.292129     -0.546619
  H       1.570223     -0.024949     -1.074210
  C       3.516088      0.026479     -2.079328
  H       4.572914     -0.267192     -1.863396
  H       3.163293     -0.654292     -2.890817
  C       3.518883      1.493025     -2.629058
  H       4.144762      1.520732     -3.549643
  H       4.036657      2.155087     -1.893856
  C       2.132908      2.062429     -2.900954
  H       1.563990      2.394643     -2.009264
  C       1.529838      2.186505     -4.109305
  H       0.516780      2.639279     -4.136156
  C       2.131835      1.829838     -5.461744
  H       1.342865      1.380276     -6.112615
  H       2.920416      1.050051     -5.348774
  C       2.738169      3.071362     -6.186500
  H       3.523116      3.517674     -5.529171
  H       1.947399      3.852085     -6.286948
  C       3.352516      2.747516     -7.574208
  H       4.109186      1.935254     -7.446831
  H       2.561751      2.323964     -8.242822
  C       4.026602      3.959835     -8.277587
  H       4.792802      4.404432     -7.593834
  H       4.591929      3.594093     -9.169347
  C       3.043284      5.070612     -8.733248
  H       2.471642      5.454857     -7.854437
  H       2.281628      4.624307     -9.420275
  C       3.736818      6.263317     -9.438839
  H       4.498986      6.706990     -8.750703
  H       4.309563      5.891886    -10.325337
  C       2.754053      7.373312     -9.894811
  H       1.995965      6.929266    -10.586022
  H       2.178229      7.738784     -9.008886
  C       3.453424      8.568322    -10.587851
  H       2.722349      9.349707    -10.898682
  H       4.194661      9.052165     -9.908798
  H       4.005520      8.241724    -11.500682
138
Coordinates from ORCA-job /wrk/rja7/qm_final_3_replicates/qm_final_1.1/qm/4/freq E -2722.581362508130
  N      -3.606303     -4.703366     12.940983
  C      -2.610656     -5.472798     11.982231
  H      -2.611063     -6.526117     12.338392
  H      -1.600065     -5.053121     12.154668
  C      -4.575324     -5.709611     13.539600
  H      -5.296171     -5.182107     14.198548
  H      -5.124153     -6.211267     12.715948
  H      -4.012371     -6.461779     14.130237
  C      -4.421963     -3.589815     12.254358
  H      -3.708447     -2.838094     11.856231
  H      -5.029916     -4.032727     11.443515
  H      -5.084410     -3.155273     13.033446
  C      -2.767997     -4.044534     14.043225
  H      -2.115160     -3.299071     13.538643
  H      -2.167904     -4.827939     14.551637
  H      -3.452310     -3.558783     14.770760
  C      -2.905649     -5.424884     10.460450
  H      -2.148742     -6.132784     10.026136
  H      -3.917026     -5.851139     10.235756
  P      -1.369772     -3.206949     10.270051
  O      -0.203199     -4.187766     10.211147
  O      -1.724579     -2.387305     11.518962
  O      -2.825851     -4.138136      9.881391
  O      -1.444001     -2.169937      8.960230
  C      -1.045930     -2.666059      7.666136
  H      -1.894333     -3.221626      7.189727
  H      -0.184938     -3.372521      7.762504
  C      -0.631729     -1.475905      6.787318
  H       0.116710     -0.855002      7.326288
  O      -1.833553     -0.663032      6.530581
  C      -1.696593      0.705426      6.501115
  O      -0.653488      1.309128      6.718806
  C      -3.016007      1.392767      6.112283
  H      -3.198514      2.193103      6.866078
  H      -3.861254      0.670853      6.162476
  C      -0.051214     -1.939191      5.426189
  H      -0.783434     -2.575971      4.881024
  H       0.893902     -2.503755      5.588340
  O       0.184926     -0.788532      4.560056
  C       1.397344     -0.126088      4.700182
  O       2.345225     -0.576086      5.324297
  C       1.380912      1.220532      3.968404
  H       0.362786      1.435365      3.579208
  H       1.607927      1.987596      4.744064
  C      -2.914945      2.035211      4.692865
  H      -2.002566      2.676676      4.663790
  H      -3.783598      2.721628      4.546715
  C      -2.872377      0.997581      3.540265
  H      -3.837614      0.432868      3.522556
  H      -2.079194      0.242499      3.742219
  C      -2.612239      1.622007      2.144740
  H      -1.635059      2.166057      2.161903
  H      -3.387522      2.397090      1.922260
  C      -2.591556      0.568930      1.005442
  H      -3.590594      0.067818      0.954829
  H      -1.862098     -0.232468      1.274872
  C      -2.240583      1.154631     -0.387358
  H      -1.195638      1.552475     -0.372109
  H      -2.899024      2.034525     -0.589326
  C      -2.400174      0.151563     -1.574981
  H      -2.257479      0.701547     -2.532905
  H      -3.464106     -0.201156     -1.581975
  C      -1.488815     -1.063095     -1.507701
  H      -1.541431     -1.643647     -0.564785
  C      -0.635840     -1.519499     -2.459468
  H      -0.064353     -2.441853     -2.223473
  C      -0.388523     -0.958823     -3.848973
  H       0.712986     -0.883392     -4.015984
  H      -0.776898      0.080229     -3.943635
  C      -1.002561     -1.845610     -4.973708
  H      -2.109021     -1.904102     -4.829864
  H      -0.629258     -2.893833     -4.861235
  C      -0.688645     -1.341418     -6.405863
  H       0.419055     -1.282412     -6.535287
  H      -1.061752     -0.292546     -6.521211
  C      -1.315475     -2.231220     -7.511215
  H      -2.417163     -2.293176     -7.334797
  H      -0.934076     -3.277218     -7.399300
  C      -1.071899     -1.754299     -8.969032
  H      -1.445041     -0.705893     -9.085430
  H      -1.698540     -2.375056     -9.655211
  C       0.402220     -1.826134     -9.446121
  H       0.798694     -2.856478     -9.263232
  H       1.038216     -1.143162     -8.831534
  C       0.582680     -1.469683    -10.945032
  H       0.172662     -0.446185    -11.131236
  H      -0.039468     -2.161644    -11.564868
  C       2.056198     -1.532766    -11.416613
  H       2.155437     -1.282380    -12.498002
  H       2.484113     -2.551970    -11.266693
  H       2.695377     -0.818047    -10.846032
  C       2.425036      1.297994      2.819935
  H       3.432514      1.033640      3.220547
  H       2.490791      2.359901      2.480770
  C       2.076185      0.399001      1.606629
  H       1.024664      0.605919      1.285639
  H       2.092362     -0.676431      1.910602
  C       3.016459      0.612358      0.392753
  H       4.071917      0.391591      0.690844
  H       3.000452      1.697038      0.126045
  C       2.625113     -0.242505     -0.839406
  H       2.677437     -1.323666     -0.561897
  H       1.555270     -0.057279     -1.092796
  C       3.500998     -0.012502     -2.100267
  H       4.556603     -0.310264     -1.884098
  H       3.145208     -0.693662     -2.910182
  C       3.510201      1.452566     -2.652744
  H       4.136921      1.476614     -3.572864
  H       4.030108      2.114062     -1.918300
  C       2.126568      2.026257     -2.927411
  H       1.555611      2.357551     -2.036603
  C       1.527237      2.154785     -4.137146
  H       0.515884      2.610373     -4.166037
  C       2.129305      1.798166     -5.488772
  H       1.340738      1.348951     -6.140289
  H       2.918216      1.018651     -5.376690
  C       2.733459      3.041175     -6.211659
  H       3.516222      3.489170     -5.552777
  H       1.940454      3.819790     -6.312695
  C       3.350768      2.719712     -7.598366
  H       4.107993      1.907807     -7.471655
  H       2.562056      2.296675     -8.269802
  C       4.024093      3.935005     -8.295761
  H       4.789550      4.376181     -7.609068
  H       4.589760      3.574112     -9.189320
  C       3.040379      5.048164     -8.744963
  H       2.470150      5.428263     -7.863240
  H       2.277318      4.604979     -9.432374
  C       3.733322      6.244178     -9.445816
  H       4.496147      6.684676     -8.756383
  H       4.305564      5.877028    -10.334477
  C       2.750603      7.356760     -9.895717
  H       1.991157      6.916122    -10.587588
  H       2.176262      7.718614     -9.007334
  C       3.449492      8.554687    -10.584250
  H       2.718312      9.337803    -10.890516
  H       4.191833      9.035136     -9.903961
  H       4.000086      8.231983    -11.499428
138
Coordinates from ORCA-job /wrk/rja7/qm_final_3_replicates/qm_final_1.1/qm/4/freq E -2722.581571722466
  N      -3.580204     -4.707678     12.955991
  C      -2.588075     -5.475140     11.992790
  H      -2.585232     -6.529475     12.345862
  H      -1.577821     -5.053531     12.162879
  C      -4.535666     -5.716165     13.571973
  H      -5.251552     -5.188187     14.235933
  H      -5.091625     -6.227244     12.758751
  H      -3.961101     -6.460712     14.161187
  C      -4.411501     -3.607606     12.267973
  H      -3.709085     -2.851264     11.860557
  H      -5.021193     -4.060977     11.464277
  H      -5.072870     -3.173682     13.048332
  C      -2.738390     -4.033788     14.046629
  H      -2.093307     -3.286810     13.533508
  H      -2.130378     -4.809266     14.557626
  H      -3.422205     -3.547683     14.774333
  C      -2.887848     -5.425267     10.471890
  H      -2.128354     -6.129373     10.035780
  H      -3.897756     -5.856504     10.249575
  P      -1.364686     -3.199167     10.278904
  O      -0.194671     -4.176428     10.221220
  O      -1.722715     -2.375996     11.523978
  O      -2.817036     -4.137263      9.895362
  O      -1.442732     -2.166821      8.965642
  C      -1.049374     -2.666578      7.672023
  H      -1.899846     -3.222291      7.199601
  H      -0.188528     -3.373412      7.767349
  C      -0.636137     -1.478840      6.789165
  H       0.116291     -0.858707      7.323512
  O      -1.837094     -0.663576      6.537719
  C      -1.697212      0.704642      6.509304
  O      -0.651090      1.305748      6.719538
  C      -3.017423      1.394196      6.128220
  H      -3.194766      2.194760      6.882939
  H      -3.863451      0.673533      6.183072
  C      -0.063515     -1.944602      5.425995
  H      -0.799335     -2.581747      4.886054
  H       0.882186     -2.509591      5.583361
  O       0.167097     -0.795656      4.555973
  C       1.378539     -0.129772      4.687339
  O       2.331801     -0.575445      5.306384
  C       1.353288      1.214569      3.951576
  H       0.332912      1.423476      3.564916
  H       1.578864      1.985087      4.724223
  C      -2.922475      2.036029      4.708189
  H      -2.011627      2.679539      4.675195
  H      -3.793126      2.720210      4.564006
  C      -2.879605      0.997014      3.556649
  H      -3.842486      0.428169      3.542627
  H      -2.082640      0.245524      3.756662
  C      -2.627682      1.621181      2.159716
  H      -1.653120      2.170164      2.172794
  H      -3.407464      2.392431      1.939661
  C      -2.606435      0.567500      1.020988
  H      -3.602656      0.060511      0.975290
  H      -1.870646     -0.229416      1.286543
  C      -2.266594      1.155958     -0.373313
  H      -1.222083      1.555193     -0.364899
  H      -2.927926      2.035411     -0.568429
  C      -2.434363      0.155404     -1.561781
  H      -2.296932      0.707229     -2.519469
  H      -3.498605     -0.196123     -1.562743
  C      -1.524075     -1.060312     -1.502179
  H      -1.583009     -1.650769     -0.565664
  C      -0.667015     -1.508899     -2.454010
  H      -0.098246     -2.434354     -2.223441
  C      -0.412237     -0.937941     -3.837837
  H       0.690311     -0.856557     -3.995935
  H      -0.804013      0.100154     -3.929038
  C      -1.013445     -1.819752     -4.973343
  H      -2.121114     -1.881685     -4.840850
  H      -0.638325     -2.867545     -4.863183
  C      -0.685912     -1.305717     -6.398890
  H       0.422735     -1.239061     -6.515029
  H      -1.064039     -0.258513     -6.512658
  C      -1.293026     -2.191614     -7.518050
  H      -2.396909     -2.260540     -7.358642
  H      -0.907156     -3.236079     -7.407373
  C      -1.029587     -1.703142     -8.968663
  H      -1.410722     -0.657609     -9.084914
  H      -1.638272     -2.325424     -9.669450
  C       0.453434     -1.756813     -9.420429
  H       0.857372     -2.784076     -9.236533
  H       1.071283     -1.070905     -8.790695
  C       0.655937     -1.389658    -10.913987
  H       0.239018     -0.369151    -11.101293
  H       0.051348     -2.084093    -11.548259
  C       2.137826     -1.435188    -11.360643
  H       2.252868     -1.177399    -12.438722
  H       2.573415     -2.450939    -11.209293
  H       2.760036     -0.717560    -10.775104
  C       2.393955      1.292164      2.799908
  H       3.403729      1.033854      3.198664
  H       2.453995      2.353009      2.456368
  C       2.045412      0.386475      1.591363
  H       0.991646      0.587247      1.273652
  H       2.067531     -0.687627      1.899630
  C       2.980368      0.598552      0.373351
  H       4.037714      0.382647      0.668231
  H       2.959361      1.682062      0.102453
  C       2.588077     -0.262553     -0.854308
  H       2.643418     -1.342241     -0.571689
  H       1.517184     -0.080676     -1.106454
  C       3.462598     -0.037611     -2.117214
  H       4.517965     -0.335767     -1.900331
  H       3.105740     -0.721541     -2.924305
  C       3.474101      1.424963     -2.675821
  H       4.102962      1.444359     -3.594579
  H       3.993269      2.088994     -1.943122
  C       2.092144      1.999189     -2.957151
  H       1.517591      2.331642     -2.069090
  C       1.499008      2.127730     -4.170009
  H       0.488538      2.584575     -4.204806
  C       2.106525      1.767297     -5.517872
  H       1.320443      1.318383     -6.172507
  H       2.893295      0.986502     -5.400312
  C       2.716620      3.007698     -6.239738
  H       3.496564      3.455790     -5.577527
  H       1.925318      3.787188     -6.346830
  C       3.340924      2.682342     -7.622318
  H       4.094713      1.868134     -7.490495
  H       2.554732      2.261275     -8.298094
  C       4.022284      3.895184     -8.315794
  H       4.786973      4.331993     -7.625384
  H       4.589818      3.532731     -9.207478
  C       3.045880      5.013825     -8.767589
  H       2.475972      5.397698     -7.887280
  H       2.281523      4.574749     -9.456249
  C       3.747535      6.205361     -9.467395
  H       4.512299      6.640753     -8.776874
  H       4.318658      5.834243    -10.355141
  C       2.773133      7.324670     -9.918867
  H       2.012167      6.889540    -10.612575
  H       2.199232      7.689963     -9.031573
  C       3.481451      8.518487    -10.604922
  H       2.756068      9.306446    -10.912615
  H       4.224884      8.993786     -9.922257
  H       4.032459      8.192961    -11.518849
138
Coordinates from ORCA-job /wrk/rja7/qm_final_3_replicates/qm_final_1.1/qm/4/freq E -2722.581690227077
  N      -3.561491     -4.701723     12.971682
  C      -2.568320     -5.465282     12.007501
  H      -2.565382     -6.521258     12.355633
  H      -1.558752     -5.043319     12.179528
  C      -4.514272     -5.713358     13.585652
  H      -5.228800     -5.188794     14.253905
  H      -5.072718     -6.221659     12.772343
  H      -3.938072     -6.460364     14.170040
  C      -4.395410     -3.603952     12.284661
  H      -3.696035     -2.841886     11.881757
  H      -4.999864     -4.056703     11.476388
  H      -5.062811     -3.175961     13.063103
  C      -2.723826     -4.028539     14.065740
  H      -2.076122     -3.278888     13.559524
  H      -2.118435     -4.804799     14.578406
  H      -3.411641     -3.544587     14.791096
  C      -2.866527     -5.410773     10.486084
  H      -2.102740     -6.110571     10.050227
  H      -3.873815     -5.846626     10.261432
  P      -1.350688     -3.180275     10.292436
  O      -0.179860     -4.156776     10.233230
  O      -1.708524     -2.355618     11.535740
  O      -2.801747     -4.121115      9.912955
  O      -1.428272     -2.150188      8.977406
  C      -1.044602     -2.657680      7.683938
  H      -1.898939     -3.214100      7.219675
  H      -0.184977     -3.366237      7.777655
  C      -0.633104     -1.476408      6.790884
  H       0.128219     -0.857803      7.314276
  O      -1.831057     -0.655068      6.545920
  C      -1.681967      0.711945      6.510772
  O      -0.628116      1.305448      6.702995
  C      -2.999936      1.409337      6.135804
  H      -3.164831      2.216011      6.886683
  H      -3.851212      0.695826      6.202435
  C      -0.077290     -1.951142      5.424568
  H      -0.821025     -2.588680      4.896074
  H       0.868649     -2.517942      5.574473
  O       0.147008     -0.807396      4.546109
  C       1.360303     -0.143576      4.665196
  O       2.317947     -0.590570      5.276201
  C       1.333322      1.198025      3.924227
  H       0.311786      1.407152      3.540930
  H       1.562097      1.971120      4.693572
  C      -2.911482      2.042263      4.710906
  H      -1.998142      2.681692      4.668038
  H      -3.780055      2.729427      4.568670
  C      -2.880225      0.997961      3.563523
  H      -3.844233      0.430924      3.558952
  H      -2.083469      0.245580      3.759737
  C      -2.637992      1.616668      2.162160
  H      -1.663670      2.166171      2.167205
  H      -3.419392      2.386984      1.944583
  C      -2.622416      0.559312      1.026833
  H      -3.617151      0.048625      0.990737
  H      -1.881698     -0.234336      1.288074
  C      -2.295885      1.144549     -0.372459
  H      -1.250257      1.539947     -0.375106
  H      -2.956459      2.025721     -0.562501
  C      -2.478428      0.142561     -1.557424
  H      -2.343731      0.690731     -2.517620
  H      -3.544758     -0.202336     -1.549865
  C      -1.576478     -1.079235     -1.499997
  H      -1.645985     -1.675431     -0.567795
  C      -0.715542     -1.527478     -2.448601
  H      -0.153658     -2.457378     -2.218925
  C      -0.448588     -0.952652     -3.828448
  H       0.655213     -0.867444     -3.975896
  H      -0.842649      0.084304     -3.921974
  C      -1.035866     -1.834277     -4.971607
  H      -2.144784     -1.898452     -4.850870
  H      -0.659909     -2.881496     -4.858763
  C      -0.693017     -1.316823     -6.392241
  H       0.416507     -1.246886     -6.495329
  H      -1.072813     -0.270517     -6.508274
  C      -1.281848     -2.200283     -7.522782
  H      -2.387755     -2.273971     -7.380448
  H      -0.893226     -3.243582     -7.410943
  C      -0.996981     -1.703257     -8.966750
  H      -1.386921     -0.661386     -9.085948
  H      -1.585625     -2.329052     -9.681370
  C       0.495344     -1.737736     -9.390361
  H       0.907308     -2.761133     -9.203069
  H       1.092502     -1.047725     -8.745382
  C       0.723281     -1.361077    -10.878126
  H       0.298613     -0.344423    -11.068951
  H       0.139599     -2.059299    -11.527562
  C       2.214307     -1.386971    -11.295231
  H       2.347858     -1.122523    -12.369544
  H       2.658843     -2.398163    -11.139837
  H       2.816038     -0.664929    -10.693849
  C       2.370391      1.269366      2.769009
  H       3.380808      1.011277      3.166183
  H       2.431333      2.328559      2.420710
  C       2.015968      0.359442      1.565340
  H       0.960752      0.560142      1.251800
  H       2.038646     -0.713599      1.877092
  C       2.946632      0.566434      0.343542
  H       4.004393      0.347183      0.634609
  H       2.928391      1.649614      0.071432
  C       2.547225     -0.294334     -0.882025
  H       2.599257     -1.374245     -0.599203
  H       1.476054     -0.108425     -1.130079
  C       3.419941     -0.074349     -2.147363
  H       4.472937     -0.382770     -1.933296
  H       3.054686     -0.753822     -2.954570
  C       3.444942      1.388807     -2.704250
  H       4.071544      1.402932     -3.624614
  H       3.972911      2.046192     -1.971959
  C       2.068927      1.978372     -2.981640
  H       1.496478      2.308385     -2.091351
  C       1.479256      2.124360     -4.194221
  H       0.472290      2.589801     -4.225914
  C       2.086891      1.773151     -5.544883
  H       1.298983      1.334705     -6.203929
  H       2.869252      0.987054     -5.433251
  C       2.705747      3.014675     -6.258027
  H       3.490754      3.451775     -5.594449
  H       1.920610      3.801192     -6.357900
  C       3.323813      2.693097     -7.644415
  H       4.069282      1.870200     -7.519684
  H       2.531261      2.284709     -8.320775
  C       4.016979      3.902305     -8.332720
  H       4.790464      4.325097     -7.643218
  H       4.575870      3.538467     -9.229328
  C       3.052926      5.036080     -8.772971
  H       2.494648      5.424362     -7.887234
  H       2.277513      4.610359     -9.457788
  C       3.766002      6.220000     -9.473600
  H       4.543306      6.641051     -8.788128
  H       4.323951      5.844044    -10.367642
  C       2.804835      7.355762     -9.911860
  H       2.031425      6.935605    -10.601091
  H       2.243857      7.725599     -9.018178
  C       3.525417      8.542002    -10.598097
  H       2.809321      9.341726    -10.897090
  H       4.280608      9.003644     -9.919011
  H       4.065046      8.212605    -11.517392
138
Coordinates from ORCA-job /wrk/rja7/qm_final_3_replicates/qm_final_1.1/qm/4/freq E -2722.581859428975
  N      -3.553407     -4.693216     12.975551
  C      -2.571029     -5.461548     12.004084
  H      -2.575101     -6.518892     12.347957
  H      -1.557131     -5.048773     12.172071
  C      -4.502996     -5.701353     13.600038
  H      -5.209181     -5.174633     14.275480
  H      -5.071644     -6.208235     12.792956
  H      -3.923479     -6.450322     14.178507
  C      -4.390303     -3.593569     12.295315
  H      -3.692443     -2.832329     11.887659
  H      -5.002195     -4.044649     11.491673
  H      -5.051438     -3.164756     13.078702
  C      -2.703487     -4.020795     14.060231
  H      -2.057950     -3.274530     13.546819
  H      -2.096436     -4.798278     14.569101
  H      -3.382871     -3.532564     14.790757
  C      -2.876432     -5.399221     10.484519
  H      -2.120347     -6.103552     10.042514
  H      -3.888035     -5.826387     10.263138
  P      -1.346416     -3.179028     10.296446
  O      -0.182022     -4.162734     10.231486
  O      -1.695868     -2.356002     11.543204
  O      -2.804398     -4.107989      9.916212
  O      -1.420119     -2.145294      8.984574
  C      -1.041102     -2.653321      7.689906
  H      -1.896566     -3.210314      7.228500
  H      -0.180929     -3.361591      7.780546
  C      -0.633727     -1.472392      6.795049
  H       0.127950     -0.851738      7.315490
  O      -1.834644     -0.654458      6.552616
  C      -1.691386      0.713047      6.517337
  O      -0.640116      1.311222      6.709248
  C      -3.013072      1.404168      6.143697
  H      -3.180038      2.211790      6.893088
  H      -3.861095      0.687079      6.213435
  C      -0.080949     -1.948562      5.427922
  H      -0.826363     -2.585643      4.901226
  H       0.864703     -2.516218      5.576465
  O       0.143584     -0.806352      4.547493
  C       1.359451     -0.146489      4.661106
  O       2.316935     -0.594826      5.271298
  C       1.334644      1.193631      3.917096
  H       0.313417      1.403856      3.534056
  H       1.564654      1.967997      4.684878
  C      -2.930236      2.033664      4.717188
  H      -2.021222      2.679059      4.671637
  H      -3.803434      2.714753      4.573941
  C      -2.893382      0.986762      3.572555
  H      -3.854260      0.414426      3.568571
  H      -2.092770      0.239082      3.770590
  C      -2.653650      1.604055      2.170189
  H      -1.682036      2.158198      2.174673
  H      -3.438657      2.370296      1.951295
  C      -2.632642      0.545450      1.036430
  H      -3.624280      0.028518      1.001986
  H      -1.886743     -0.243513      1.296739
  C      -2.311997      1.132146     -0.363645
  H      -1.265486      1.525662     -0.370819
  H      -2.972552      2.014393     -0.548738
  C      -2.501874      0.132619     -1.549480
  H      -2.366988      0.681275     -2.509329
  H      -3.569656     -0.207679     -1.539376
  C      -1.605746     -1.093573     -1.496325
  H      -1.683341     -1.697147     -0.569557
  C      -0.741300     -1.537006     -2.443859
  H      -0.184610     -2.471496     -2.219963
  C      -0.464207     -0.949584     -3.816197
  H       0.640423     -0.862464     -3.955621
  H      -0.858204      0.087998     -3.903029
  C      -1.043408     -1.820213     -4.971804
  H      -2.153386     -1.883524     -4.860462
  H      -0.670076     -2.869101     -4.865697
  C      -0.687632     -1.288994     -6.383834
  H       0.422789     -1.222446     -6.477620
  H      -1.062565     -0.239973     -6.491018
  C      -1.269747     -2.156345     -7.530121
  H      -2.377170     -2.227688     -7.399049
  H      -0.885936     -3.202448     -7.428035
  C      -0.968843     -1.640963     -8.964432
  H      -1.357430     -0.597660     -9.074751
  H      -1.549033     -2.257610     -9.693780
  C       0.528614     -1.669416     -9.370781
  H       0.938371     -2.695445     -9.193375
  H       1.117539     -0.988830     -8.708645
  C       0.775045     -1.270101    -10.849522
  H       0.352527     -0.250679    -11.030058
  H       0.200099     -1.958431    -11.517035
  C       2.271426     -1.288951    -11.247823
  H       2.418542     -1.007947    -12.316126
  H       2.714542     -2.302185    -11.102170
  H       2.864821     -0.575944    -10.627666
  C       2.371146      1.261010      2.761219
  H       3.380942      1.000278      3.158155
  H       2.435154      2.319615      2.411679
  C       2.012921      0.350324      1.559191
  H       0.958714      0.555055      1.244905
  H       2.030736     -0.722009      1.873685
  C       2.944859      0.550566      0.337366
  H       4.001642      0.328114      0.629597
  H       2.930911      1.633079      0.062204
  C       2.543826     -0.312947     -0.885760
  H       2.589964     -1.392040     -0.598797
  H       1.473973     -0.122959     -1.136390
  C       3.420346     -0.101894     -2.150002
  H       4.471645     -0.413494     -1.932279
  H       3.054533     -0.783880     -2.954854
  C       3.450580      1.358406     -2.713786
  H       4.078887      1.366800     -3.633014
  H       3.978578      2.018019     -1.983476
  C       2.075998      1.948752     -2.996127
  H       1.501171      2.279946     -2.107823
  C       1.488958      2.092529     -4.210247
  H       0.481501      2.556669     -4.244703
  C       2.098100      1.739515     -5.559681
  H       1.311892      1.295782     -6.217080
  H       2.884047      0.957232     -5.446478
  C       2.710191      2.981668     -6.277461
  H       3.497847      3.421767     -5.619007
  H       1.922462      3.765928     -6.374138
  C       3.320604      2.660007     -7.666956
  H       4.067836      1.838075     -7.546134
  H       2.524628      2.249824     -8.338196
  C       4.007993      3.869651     -8.359963
  H       4.788066      4.290768     -7.676871
  H       4.558559      3.506525     -9.262038
  C       3.041276      5.004997     -8.790019
  H       2.493401      5.394483     -7.898381
  H       2.257546      4.580757     -9.466309
  C       3.748850      6.187234     -9.498778
  H       4.536017      6.605651     -8.822922
  H       4.294663      5.810217    -10.399833
  C       2.785743      7.326123     -9.924043
  H       2.001736      6.908793    -10.603024
  H       2.237772      7.697544     -9.022962
  C       3.500854      8.510197    -10.619552
  H       2.783175      9.311626    -10.910109
  H       4.265494      8.970314     -9.950063
  H       4.028398      8.179145    -11.545245
138
Coordinates from ORCA-job /wrk/rja7/qm_final_3_replicates/qm_final_1.1/qm/4/freq E -2722.582064916176
  N      -3.532458     -4.665780     13.000581
  C      -2.554436     -5.442587     12.030214
  H      -2.558999     -6.497868     12.380132
  H      -1.539341     -5.030123     12.192299
  C      -4.472865     -5.669104     13.646842
  H      -5.172968     -5.136388     14.323792
  H      -5.049072     -6.186987     12.852068
  H      -3.885161     -6.410009     14.227348
  C      -4.379512     -3.578110     12.313404
  H      -3.688404     -2.817545     11.894891
  H      -4.994202     -4.041020     11.518852
  H      -5.038339     -3.144165     13.095990
  C      -2.676430     -3.976007     14.069361
  H      -2.036799     -3.235304     13.540834
  H      -2.063698     -4.744788     14.584751
  H      -3.351670     -3.479079     14.797949
  C      -2.863577     -5.390246     10.510766
  H      -2.108394     -6.097346     10.071701
  H      -3.875581     -5.819319     10.294882
  P      -1.336763     -3.169157     10.305045
  O      -0.170775     -4.151578     10.247872
  O      -1.687648     -2.336661     11.545044
  O      -2.793666     -4.102746      9.933477
  O      -1.411120     -2.145713      8.984919
  C      -1.032275     -2.660929      7.692811
  H      -1.886918     -3.222904      7.235836
  H      -0.169516     -3.365716      7.785684
  C      -0.630816     -1.483098      6.790740
  H       0.132853     -0.859484      7.304687
  O      -1.834361     -0.667689      6.552658
  C      -1.693782      0.700067      6.514762
  O      -0.642699      1.300539      6.700479
  C      -3.019626      1.387961      6.150440
  H      -3.182487      2.196616      6.899656
  H      -3.865230      0.668861      6.227900
  C      -0.085284     -1.963443      5.421811
  H      -0.833087     -2.602933      4.901386
  H       0.861691     -2.529785      5.566432
  O       0.132723     -0.823678      4.535879
  C       1.349158     -0.162297      4.636742
  O       2.311570     -0.606387      5.242473
  C       1.317547      1.174443      3.886098
  H       0.294375      1.378767      3.504922
  H       1.545961      1.953008      4.650108
  C      -2.949916      2.014301      4.722124
  H      -2.042914      2.661841      4.667359
  H      -3.826148      2.692623      4.584144
  C      -2.919497      0.964613      3.580138
  H      -3.880241      0.391979      3.582503
  H      -2.117713      0.217448      3.775755
  C      -2.688312      1.578528      2.174902
  H      -1.717820      2.134692      2.172462
  H      -3.475852      2.342789      1.958238
  C      -2.672147      0.516847      1.044165
  H      -3.663390     -0.001341      1.016529
  H      -1.923581     -0.270450      1.301867
  C      -2.361140      1.100601     -0.359363
  H      -1.312470      1.489114     -0.377268
  H      -3.020002      1.985249     -0.539343
  C      -2.565485      0.099151     -1.540980
  H      -2.433873      0.644405     -2.503171
  H      -3.635045     -0.234921     -1.522074
  C      -1.676048     -1.132097     -1.490035
  H      -1.762926     -1.741395     -0.567806
  C      -0.805851     -1.571828     -2.433888
  H      -0.254851     -2.510527     -2.213392
  C      -0.513372     -0.972253     -3.797424
  H       0.592355     -0.882258     -3.924353
  H      -0.907327      0.065716     -3.879727
  C      -1.078135     -1.831761     -4.968385
  H      -2.189547     -1.894996     -4.872319
  H      -0.706520     -2.881825     -4.867962
  C      -0.701770     -1.284412     -6.368360
  H       0.409782     -1.218245     -6.445208
  H      -1.074042     -0.233675     -6.467936
  C      -1.265513     -2.135498     -7.535761
  H      -2.374845     -2.209471     -7.423827
  H      -0.882339     -3.182740     -7.443384
  C      -0.940637     -1.596557     -8.956075
  H      -1.336037     -0.555040     -9.058895
  H      -1.499971     -2.207105     -9.706557
  C       0.565607     -1.604781     -9.330344
  H       0.980887     -2.630158     -9.162085
  H       1.133313     -0.930863     -8.643525
  C       0.841513     -1.175087    -10.794874
  H       0.412701     -0.156648    -10.965958
  H       0.289714     -1.856316    -11.488693
  C       2.347028     -1.170686    -11.158234
  H       2.515585     -0.868008    -12.217385
  H       2.797698     -2.181766    -11.020968
  H       2.917914     -0.463233    -10.511152
  C       2.351403      1.242164      2.727390
  H       3.362612      0.984444      3.122713
  H       2.412066      2.300428      2.376199
  C       1.994358      0.329303      1.526256
  H       0.940047      0.531805      1.211171
  H       2.013448     -0.742368      1.843020
  C       2.927411      0.528936      0.304782
  H       3.984088      0.308149      0.598718
  H       2.912526      1.611042      0.027935
  C       2.530554     -0.337168     -0.918154
  H       2.573503     -1.415514     -0.627889
  H       1.461996     -0.146254     -1.173992
  C       3.413705     -0.131357     -2.179120
  H       4.462620     -0.446602     -1.955415
  H       3.049484     -0.813955     -2.984259
  C       3.452129      1.327511     -2.746601
  H       4.084803      1.331618     -3.662847
  H       3.979180      1.986932     -2.015253
  C       2.081041      1.921949     -3.036948
  H       1.501917      2.252028     -2.151073
  C       1.500585      2.070406     -4.253936
  H       0.494907      2.537479     -4.292120
  C       2.110726      1.717664     -5.602713
  H       1.324868      1.274351     -6.260773
  H       2.896751      0.935354     -5.490117
  C       2.721193      2.960716     -6.319815
  H       3.512153      3.398341     -5.663636
  H       1.933711      3.745922     -6.411340
  C       3.324700      2.642807     -7.713182
  H       4.068621      1.816797     -7.599482
  H       2.524577      2.239686     -8.383756
  C       4.015150      3.853566     -8.400775
  H       4.802546      4.262596     -7.719023
  H       4.557138      3.495179     -9.309953
  C       3.053932      5.000141     -8.812814
  H       2.515739      5.384911     -7.913230
  H       2.261830      4.589073     -9.487444
  C       3.766069      6.184413     -9.513799
  H       4.562615      6.587619     -8.839686
  H       4.301190      5.813268    -10.423689
  C       2.810042      7.336973     -9.917213
  H       2.017995      6.935807    -10.596611
  H       2.270957      7.700610     -9.007605
  C       3.530625      8.524652    -10.600908
  H       2.817507      9.334910    -10.877943
  H       4.301465      8.970630     -9.928970
  H       4.051775      8.201795    -11.533093
138
Coordinates from ORCA-job /wrk/rja7/qm_final_3_replicates/qm_final_1.1/qm/4/freq E -2722.582249258834
  N      -3.511367     -4.606934     13.030563
  C      -2.540330     -5.399266     12.064357
  H      -2.549552     -6.450983     12.424533
  H      -1.522808     -4.989933     12.219189
  C      -4.449585     -5.598527     13.698324
  H      -5.139033     -5.054900     14.377343
  H      -5.037623     -6.122369     12.916022
  H      -3.858706     -6.336364     14.279258
  C      -4.360288     -3.525608     12.334841
  H      -3.669662     -2.771050     11.906657
  H      -4.980303     -3.996570     11.549501
  H      -5.014834     -3.081658     13.115557
  C      -2.646757     -3.905556     14.084105
  H      -2.008641     -3.173250     13.542488
  H      -2.032483     -4.669044     14.605640
  H      -3.315103     -3.396417     14.810728
  C      -2.853508     -5.362529     10.544877
  H      -2.102855     -6.077492     10.111050
  H      -3.867926     -5.790006     10.337178
  P      -1.320136     -3.149052     10.309908
  O      -0.156923     -4.135237     10.265048
  O      -1.667930     -2.300531     11.539885
  O      -2.781350     -4.081467      9.951913
  O      -1.389267     -2.141865      8.976926
  C      -1.014700     -2.672061      7.689078
  H      -1.870764     -3.239039      7.241022
  H      -0.150635     -3.374681      7.785183
  C      -0.618961     -1.501894      6.773816
  H       0.150924     -0.876452      7.276064
  O      -1.823500     -0.685508      6.542839
  C      -1.681321      0.681917      6.499268
  O      -0.627309      1.281264      6.671671
  C      -3.011384      1.370696      6.152348
  H      -3.161932      2.182222      6.901040
  H      -3.856117      0.652371      6.244471
  C      -0.088972     -1.991564      5.401842
  H      -0.842593     -2.633768      4.893228
  H       0.859473     -2.557341      5.538298
  O       0.118791     -0.855751      4.507580
  C       1.337499     -0.195384      4.587343
  O       2.306902     -0.635090      5.185267
  C       1.297291      1.135851      3.826324
  H       0.272487      1.329471      3.443626
  H       1.518301      1.920896      4.586001
  C      -2.963817      1.990786      4.720557
  H      -2.057636      2.637834      4.648386
  H      -3.842192      2.668549      4.593315
  C      -2.952307      0.936230      3.583250
  H      -3.915926      0.368588      3.598176
  H      -2.152492      0.185363      3.773147
  C      -2.735052      1.542321      2.172232
  H      -1.765019      2.099079      2.156660
  H      -3.524663      2.305516      1.959355
  C      -2.731885      0.473724      1.048255
  H      -3.723558     -0.044384      1.035798
  H      -1.980084     -0.312103      1.300747
  C      -2.439484      1.047952     -0.363646
  H      -1.386569      1.424567     -0.403459
  H      -3.093701      1.937396     -0.536813
  C      -2.673748      0.039041     -1.533335
  H      -2.552708      0.574602     -2.502219
  H      -3.745664     -0.284946     -1.492828
  C      -1.793533     -1.199134     -1.486559
  H      -1.888535     -1.813672     -0.568639
  C      -0.917433     -1.634012     -2.427265
  H      -0.371233     -2.576581     -2.211409
  C      -0.610913     -1.020569     -3.781198
  H       0.494775     -0.918857     -3.895294
  H      -1.012702      0.014682     -3.860842
  C      -1.152557     -1.873771     -4.968150
  H      -2.265233     -1.941337     -4.891193
  H      -0.777941     -2.922944     -4.869698
  C      -0.751671     -1.310962     -6.354367
  H       0.360408     -1.237213     -6.407428
  H      -1.128935     -0.261780     -6.451727
  C      -1.279115     -2.153087     -7.545392
  H      -2.390230     -2.238049     -7.463400
  H      -0.888449     -3.197785     -7.455993
  C      -0.919439     -1.591405     -8.948691
  H      -1.337625     -0.559234     -9.055198
  H      -1.435149     -2.208019     -9.725080
  C       0.599920     -1.554819     -9.266333
  H       1.035945     -2.571257     -9.096173
  H       1.122129     -0.876259     -8.549105
  C       0.922864     -1.092918    -10.710758
  H       0.469496     -0.085619    -10.884679
  H       0.424195     -1.779424    -11.438744
  C       2.442040     -1.033126    -11.007956
  H       2.645141     -0.707555    -12.054125
  H       2.920217     -2.030824    -10.865985
  H       2.960041     -0.317516    -10.326032
  C       2.332069      1.207228      2.668314
  H       3.344484      0.958298      3.066098
  H       2.385034      2.264904      2.314137
  C       1.986725      0.288899      1.467411
  H       0.933593      0.483837      1.144454
  H       2.009698     -0.781381      1.788725
  C       2.927412      0.491943      0.252115
  H       3.983576      0.280743      0.554909
  H       2.905746      1.573011     -0.028445
  C       2.549656     -0.381167     -0.972043
  H       2.592795     -1.458040     -0.676349
  H       1.483400     -0.195719     -1.241865
  C       3.447760     -0.175650     -2.223041
  H       4.494715     -0.486893     -1.985272
  H       3.096613     -0.862427     -3.030559
  C       3.486382      1.281854     -2.794424
  H       4.125403      1.286553     -3.706281
  H       4.005847      1.944680     -2.060437
  C       2.114937      1.870100     -3.094147
  H       1.525398      2.185621     -2.209998
  C       1.542585      2.027689     -4.313934
  H       0.533863      2.487634     -4.353788
  C       2.155981      1.689885     -5.664507
  H       1.374509      1.241173     -6.324106
  H       2.951814      0.916517     -5.558544
  C       2.747708      2.944671     -6.376094
  H       3.544270      3.381210     -5.725864
  H       1.953179      3.724781     -6.449357
  C       3.334047      2.647006     -7.781159
  H       4.076382      1.816698     -7.689514
  H       2.525424      2.257177     -8.449505
  C       4.022449      3.867009     -8.453680
  H       4.827611      4.249722     -7.777574
  H       4.542662      3.525857     -9.382108
  C       3.067781      5.035272     -8.816621
  H       2.556665      5.406471     -7.895753
  H       2.253689      4.652082     -9.481410
  C       3.781372      6.226077     -9.505253
  H       4.603374      6.596304     -8.842771
  H       4.285436      5.870636    -10.438893
  C       2.836561      7.406037     -9.850281
  H       2.019547      7.039339    -10.519653
  H       2.327512      7.752532     -8.916870
  C       3.560350      8.600798    -10.518172
  H       2.853839      9.428527    -10.758134
  H       4.351942      9.017412     -9.851564
  H       4.056721      8.295476    -11.469553
138
Coordinates from ORCA-job /wrk/rja7/qm_final_3_replicates/qm_final_1.1/qm/4/freq E -2722.582523073430
  N      -3.486530     -4.614997     13.038380
  C      -2.519025     -5.407055     12.067985
  H      -2.527825     -6.459617     12.425594
  H      -1.500658     -4.998755     12.220496
  C      -4.415867     -5.607517     13.717168
  H      -5.101664     -5.063895     14.399913
  H      -5.008715     -6.136354     12.941822
  H      -3.817883     -6.341342     14.295966
  C      -4.344815     -3.540637     12.343859
  H      -3.661042     -2.783961     11.908941
  H      -4.967253     -4.017231     11.563842
  H      -4.997211     -3.096986     13.126579
  C      -2.618045     -3.905222     14.083168
  H      -1.985744     -3.172934     13.534581
  H      -1.998298     -4.664064     14.605065
  H      -3.284398     -3.395174     14.811030
  C      -2.836094     -5.367458     10.549324
  H      -2.085428     -6.080845     10.112862
  H      -3.850465     -5.795765     10.343227
  P      -1.306667     -3.151175     10.316356
  O      -0.142310     -4.136144     10.269698
  O      -1.655006     -2.303319     11.546439
  O      -2.766736     -4.085211      9.959429
  O      -1.378489     -2.143468      8.983815
  C      -1.007393     -2.672325      7.694479
  H      -1.863162     -3.242744      7.250193
  H      -0.140084     -3.371494      7.786647
  C      -0.621266     -1.500569      6.776983
  H       0.149103     -0.871880      7.274456
  O      -1.830831     -0.689598      6.553799
  C      -1.695927      0.678647      6.512576
  O      -0.644467      1.283370      6.681781
  C      -3.031742      1.360554      6.175023
  H      -3.182441      2.170591      6.925301
  H      -3.871688      0.637240      6.271762
  C      -0.098323     -1.989175      5.401646
  H      -0.853330     -2.634077      4.898492
  H       0.852610     -2.552140      5.532270
  O       0.099581     -0.854477      4.503345
  C       1.317007     -0.190299      4.570122
  O       2.292326     -0.624151      5.162738
  C       1.267062      1.137173      3.802650
  H       0.239837      1.324180      3.423152
  H       1.487062      1.926851      4.557817
  C      -2.996452      1.981657      4.743582
  H      -2.096023      2.636221      4.667003
  H      -3.881146      2.651935      4.620647
  C      -2.980403      0.927353      3.606167
  H      -3.938941      0.351222      3.624195
  H      -2.173428      0.183466      3.793107
  C      -2.773395      1.535692      2.194702
  H      -1.809012      2.102169      2.176291
  H      -3.571267      2.290924      1.984249
  C      -2.762405      0.467457      1.070643
  H      -3.748378     -0.061503      1.060924
  H      -2.001257     -0.310272      1.320224
  C      -2.481137      1.045769     -0.341772
  H      -1.431160      1.430551     -0.386637
  H      -3.143306      1.930226     -0.510545
  C      -2.712189      0.036110     -1.511018
  H      -2.596364      0.572602     -2.480031
  H      -3.782014     -0.294311     -1.468182
  C      -1.824891     -1.196941     -1.465050
  H      -1.923235     -1.817658     -0.551572
  C      -0.939307     -1.620969     -2.401606
  H      -0.389943     -2.562208     -2.187786
  C      -0.625787     -0.997367     -3.748950
  H       0.480172     -0.887565     -3.853316
  H      -1.033663      0.035716     -3.825882
  C      -1.152241     -1.846266     -4.945508
  H      -2.265221     -1.919768     -4.879317
  H      -0.773283     -2.894176     -4.850152
  C      -0.741048     -1.271748     -6.323489
  H       0.371121     -1.193270     -6.365628
  H      -1.121587     -0.223317     -6.416240
  C      -1.253621     -2.105630     -7.526420
  H      -2.365137     -2.196032     -7.456607
  H      -0.859277     -3.149430     -7.442615
  C      -0.881810     -1.528666     -8.920110
  H      -1.306487     -0.498731     -9.022526
  H      -1.383187     -2.142091     -9.708316
  C       0.641028     -1.477244     -9.218053
  H       1.082784     -2.491937     -9.052302
  H       1.148693     -0.801682     -8.487692
  C       0.977944     -0.998213    -10.653367
  H       0.518919      0.007323    -10.822660
  H       0.493668     -1.681101    -11.394349
  C       2.500177     -0.923667    -10.931131
  H       2.713502     -0.585902    -11.971376
  H       2.984388     -1.919035    -10.793292
  H       3.004114     -0.211076    -10.235696
  C       2.297341      1.207748      2.640404
  H       3.311980      0.963894      3.035637
  H       2.345365      2.264234      2.281977
  C       1.951150      0.283709      1.443904
  H       0.896808      0.475151      1.122537
  H       1.977125     -0.785127      1.769792
  C       2.889586      0.482696      0.225986
  H       3.946426      0.274628      0.528666
  H       2.865891      1.562378     -0.059703
  C       2.512800     -0.397297     -0.993816
  H       2.555665     -1.472388     -0.691575
  H       1.446770     -0.213427     -1.266004
  C       3.414038     -0.200930     -2.244384
  H       4.459302     -0.514050     -2.001765
  H       3.062869     -0.891454     -3.048753
  C       3.459815      1.252683     -2.825326
  H       4.104771      1.249466     -3.732977
  H       3.976450      1.919221     -2.092621
  C       2.092364      1.842459     -3.139731
  H       1.495159      2.161974     -2.262178
  C       1.532329      1.998354     -4.365660
  H       0.525521      2.461023     -4.416721
  C       2.157417      1.656640     -5.709824
  H       1.381698      1.205644     -6.374676
  H       2.952556      0.883844     -5.594876
  C       2.753937      2.909633     -6.420573
  H       3.546218      3.348146     -5.766427
  H       1.959583      3.689251     -6.501019
  C       3.348678      2.608625     -7.821401
  H       4.089880      1.777940     -7.724072
  H       2.543653      2.217949     -8.493559
  C       4.040701      3.827182     -8.492706
  H       4.845508      4.208348     -7.815352
  H       4.561717      3.485135     -9.420371
  C       3.088829      4.997362     -8.856699
  H       2.579170      5.370946     -7.935965
  H       2.273298      4.615337     -9.520420
  C       3.804972      6.185569     -9.547156
  H       4.629082      6.553847     -8.886188
  H       4.306640      5.827993    -10.481270
  C       2.863210      7.368123     -9.891500
  H       2.044196      7.003526    -10.559584
  H       2.356369      7.716507     -8.957593
  C       3.589592      8.560536    -10.560755
  H       2.885035      9.389895    -10.800850
  H       4.382665      8.975621     -9.894932
  H       4.084597      8.253290    -11.512233
138
Coordinates from ORCA-job /wrk/rja7/qm_final_3_replicates/qm_final_1.1/qm/4/freq E -2722.582864689744
  N      -3.441770     -4.607601     13.054945
  C      -2.486742     -5.399762     12.072306
  H      -2.497672     -6.453594     12.426104
  H      -1.464744     -4.997587     12.216414
  C      -4.373560     -5.599482     13.731019
  H      -5.051029     -5.057681     14.423579
  H      -4.975032     -6.116050     12.954204
  H      -3.776953     -6.343117     14.298543
  C      -4.296734     -3.522294     12.373860
  H      -3.610205     -2.766062     11.941305
  H      -4.925792     -3.988519     11.592640
  H      -4.942518     -3.081489     13.163569
  C      -2.561508     -3.911740     14.099479
  H      -1.927960     -3.180109     13.551333
  H      -1.943908     -4.678765     14.611808
  H      -3.219456     -3.402257     14.835284
  C      -2.818857     -5.353121     10.557017
  H      -2.075427     -6.067774     10.110355
  H      -3.836796     -5.776987     10.359663
  P      -1.282847     -3.142320     10.313840
  O      -0.123772     -4.132847     10.257035
  O      -1.615377     -2.292623     11.546994
  O      -2.750184     -4.069638      9.969919
  O      -1.362070     -2.134967      8.981719
  C      -1.014687     -2.670709      7.688958
  H      -1.880767     -3.236879      7.259598
  H      -0.151014     -3.375723      7.770885
  C      -0.634389     -1.505326      6.761033
  H       0.148982     -0.881074      7.243449
  O      -1.840925     -0.685635      6.553714
  C      -1.696645      0.681483      6.510163
  O      -0.637670      1.278057      6.660388
  C      -3.032581      1.373642      6.193975
  H      -3.165247      2.183975      6.947236
  H      -3.876311      0.656503      6.303230
  C      -0.138217     -2.003890      5.379684
  H      -0.905838     -2.645858      4.892172
  H       0.810971     -2.572899      5.496610
  O       0.052574     -0.874466      4.473704
  C       1.276125     -0.220561      4.517597
  O       2.256677     -0.658229      5.098627
  C       1.224762      1.102490      3.743269
  H       0.197371      1.286982      3.362923
  H       1.444027      1.895618      4.495250
  C      -3.015285      1.996344      4.762751
  H      -2.113792      2.648021      4.673929
  H      -3.899179      2.669917      4.653101
  C      -3.019565      0.943085      3.624088
  H      -3.980576      0.371674      3.654212
  H      -2.213988      0.195154      3.799797
  C      -2.827492      1.550709      2.210079
  H      -1.862079      2.115051      2.180545
  H      -3.625987      2.307660      2.008240
  C      -2.831704      0.481535      1.086974
  H      -3.818902     -0.045177      1.088475
  H      -2.069770     -0.297702      1.329242
  C      -2.563522      1.055654     -0.329941
  H      -1.513784      1.438714     -0.386143
  H      -3.226330      1.939905     -0.496677
  C      -2.803749      0.040519     -1.492737
  H      -2.689460      0.570736     -2.465397
  H      -3.874229     -0.286642     -1.444094
  C      -1.919113     -1.194118     -1.440894
  H      -2.028788     -1.817774     -0.530829
  C      -1.017640     -1.611531     -2.365192
  H      -0.468985     -2.552111     -2.146910
  C      -0.682354     -0.979150     -3.703117
  H       0.424192     -0.854028     -3.781812
  H      -1.101368      0.048985     -3.786522
  C      -1.169910     -1.831512     -4.913789
  H      -2.283242     -1.918236     -4.875230
  H      -0.781227     -2.875077     -4.810425
  C      -0.731275     -1.250556     -6.280521
  H       0.380007     -1.152396     -6.290115
  H      -1.127221     -0.209018     -6.385454
  C      -1.194295     -2.095730     -7.495858
  H      -2.304445     -2.214617     -7.451492
  H      -0.775787     -3.129338     -7.403404
  C      -0.807781     -1.508231     -8.881231
  H      -1.264720     -0.493554     -8.996501
  H      -1.268509     -2.139590     -9.679999
  C       0.718632     -1.405642     -9.142848
  H       1.191259     -2.403178     -8.959232
  H       1.184662     -0.708347     -8.405515
  C       1.072693     -0.924598    -10.573430
  H       0.579415      0.061123    -10.762580
  H       0.634044     -1.631065    -11.320656
  C       2.597268     -0.791912    -10.813954
  H       2.823010     -0.454507    -11.851724
  H       3.117560     -1.765787    -10.655065
  H       3.054540     -0.053736    -10.113168
  C       2.255734      1.169351      2.582245
  H       3.270024      0.927840      2.979662
  H       2.303388      2.224463      2.219764
  C       1.911915      0.240751      1.388978
  H       0.859719      0.433971      1.061595
  H       1.933756     -0.826754      1.719533
  C       2.856851      0.433368      0.175405
  H       3.911797      0.226249      0.485222
  H       2.835301      1.511809     -0.114973
  C       2.486769     -0.450493     -1.043334
  H       2.526089     -1.524724     -0.737719
  H       1.423070     -0.266013     -1.323499
  C       3.396648     -0.257156     -2.287911
  H       4.440074     -0.570354     -2.037739
  H       3.050799     -0.948298     -3.094046
  C       3.446623      1.196161     -2.868667
  H       4.096831      1.192849     -3.772586
  H       3.958897      1.862718     -2.132968
  C       2.081077      1.785800     -3.190477
  H       1.474948      2.096755     -2.315938
  C       1.531463      1.950378     -4.419719
  H       0.522904      2.409438     -4.475233
  C       2.169406      1.619909     -5.760515
  H       1.401576      1.166758     -6.433310
  H       2.968556      0.851659     -5.642651
  C       2.763449      2.880281     -6.460957
  H       3.553780      3.316171     -5.802679
  H       1.966888      3.658179     -6.536272
  C       3.360125      2.591324     -7.863528
  H       4.099988      1.758607     -7.773218
  H       2.555032      2.207656     -8.539116
  C       4.053965      3.813374     -8.526358
  H       4.866147      4.183897     -7.851494
  H       4.566561      3.477062     -9.460784
  C       3.106035      4.991771     -8.873034
  H       2.609866      5.364982     -7.944812
  H       2.279706      4.618278     -9.528394
  C       3.821011      6.177630     -9.568631
  H       4.656782      6.537661     -8.917664
  H       4.307606      5.819822    -10.510585
  C       2.882813      7.367630     -9.896159
  H       2.050667      7.010400    -10.552049
  H       2.393048      7.718032     -8.953918
  C       3.607020      8.555775    -10.575211
  H       2.904254      9.389647    -10.804644
  H       4.412488      8.965597     -9.921073
  H       4.086040      8.245739    -11.533918
138
Coordinates from ORCA-job /wrk/rja7/qm_final_3_replicates/qm_final_1.1/qm/4/freq E -2722.583056467242
  N      -3.415405     -4.640443     13.032625
  C      -2.488206     -5.426234     12.022006
  H      -2.518483     -6.487938     12.350722
  H      -1.456144     -5.050360     12.165548
  C      -4.375663     -5.627414     13.674227
  H      -5.038600     -5.091090     14.385053
  H      -4.988623     -6.100888     12.879400
  H      -3.800037     -6.406394     14.215744
  C      -4.236853     -3.506898     12.388500
  H      -3.526163     -2.762269     11.970767
  H      -4.882885     -3.931008     11.596982
  H      -4.864567     -3.069545     13.194337
  C      -2.512966     -4.008665     14.098381
  H      -1.861834     -3.273603     13.575052
  H      -1.912846     -4.810315     14.577054
  H      -3.153523     -3.511010     14.857024
  C      -2.837127     -5.331000     10.513591
  H      -2.119372     -6.052669     10.037699
  H      -3.869099     -5.719952     10.317071
  P      -1.242693     -3.158293     10.308762
  O      -0.114347     -4.181118     10.215661
  O      -1.532073     -2.327328     11.566029
  O      -2.740647     -4.033749      9.960904
  O      -1.311299     -2.122453      8.999089
  C      -1.018077     -2.656206      7.693488
  H      -1.910775     -3.196001      7.285838
  H      -0.172539     -3.385816      7.746921
  C      -0.632169     -1.498072      6.759314
  H       0.179147     -0.895479      7.222317
  O      -1.822081     -0.648808      6.580696
  C      -1.649494      0.714525      6.524864
  O      -0.573466      1.288754      6.634471
  C      -2.982051      1.431117      6.248301
  H      -3.079621      2.242499      7.005570
  H      -3.834099      0.727985      6.381466
  C      -0.184016     -2.012034      5.368534
  H      -0.974454     -2.648155      4.910739
  H       0.760499     -2.593215      5.461938
  O      -0.003935     -0.895249      4.446519
  C       1.232580     -0.266025      4.445415
  O       2.226353     -0.724361      4.986700
  C       1.176794      1.061022      3.680238
  H       0.150164      1.244100      3.296759
  H       1.389356      1.850577      4.438412
  C      -2.994960      2.053704      4.817033
  H      -2.095124      2.704705      4.707096
  H      -3.880037      2.728130      4.725650
  C      -3.022465      0.997381      3.680810
  H      -3.982010      0.425174      3.732790
  H      -2.213925      0.250444      3.843787
  C      -2.858467      1.598253      2.261006
  H      -1.895412      2.165215      2.210903
  H      -3.662745      2.351783      2.069339
  C      -2.879622      0.522156      1.144715
  H      -3.865633     -0.005973      1.165194
  H      -2.112858     -0.254271      1.379601
  C      -2.633840      1.085610     -0.280298
  H      -1.584568      1.461481     -0.356853
  H      -3.295220      1.971394     -0.442949
  C      -2.896411      0.062345     -1.433047
  H      -2.792859      0.583930     -2.411611
  H      -3.966530     -0.261581     -1.367117
  C      -2.011551     -1.172623     -1.381288
  H      -2.125691     -1.798665     -0.473699
  C      -1.101682     -1.585956     -2.299950
  H      -0.550162     -2.523506     -2.076193
  C      -0.759286     -0.956977     -3.638353
  H       0.344627     -0.799217     -3.694072
  H      -1.205555      0.058134     -3.743247
  C      -1.188079     -1.838697     -4.851639
  H      -2.299402     -1.954827     -4.847936
  H      -0.775660     -2.869505     -4.717625
  C      -0.716777     -1.271972     -6.214892
  H       0.387711     -1.121596     -6.173126
  H      -1.155352     -0.253974     -6.367865
  C      -1.078741     -2.174634     -7.423995
  H      -2.179397     -2.368059     -7.413065
  H      -0.595841     -3.174864     -7.289259
  C      -0.687210     -1.599988     -8.814131
  H      -1.227542     -0.635153     -8.984454
  H      -1.057523     -2.296347     -9.605915
  C       0.833047     -1.370281     -9.024173
  H       1.385620     -2.308414     -8.766319
  H       1.203141     -0.595546     -8.310797
  C       1.203205     -0.936661    -10.466939
  H       0.620892     -0.020417    -10.736741
  H       0.874587     -1.726033    -11.187020
  C       2.715201     -0.656122    -10.652869
  H       2.953042     -0.359314    -11.700377
  H       3.328060     -1.556425    -10.410750
  H       3.058172      0.167855     -9.983596
  C       2.214554      1.134665      2.527634
  H       3.226473      0.890537      2.929101
  H       2.264845      2.191119      2.169373
  C       1.873732      0.208743      1.332265
  H       0.822968      0.405089      1.002493
  H       1.894177     -0.859522      1.660718
  C       2.821517      0.397734      0.120905
  H       3.874752      0.182887      0.430672
  H       2.807533      1.476526     -0.168110
  C       2.439554     -0.479700     -1.098387
  H       2.472756     -1.555268     -0.797107
  H       1.375610     -0.285323     -1.369426
  C       3.338402     -0.289208     -2.350983
  H       4.382406     -0.609189     -2.112378
  H       2.978845     -0.975770     -3.154982
  C       3.394673      1.163816     -2.930481
  H       4.034674      1.154077     -3.841725
  H       3.921567      1.825180     -2.200613
  C       2.033025      1.769375     -3.236534
  H       1.430521      2.068814     -2.355549
  C       1.481023      1.959859     -4.460530
  H       0.472751      2.423155     -4.503407
  C       2.113731      1.642311     -5.807143
  H       1.340407      1.198362     -6.479264
  H       2.908096      0.867862     -5.696388
  C       2.716925      2.901595     -6.502949
  H       3.520154      3.321020     -5.849699
  H       1.930858      3.691311     -6.564755
  C       3.294201      2.610045     -7.913993
  H       4.011101      1.756090     -7.838172
  H       2.471228      2.255562     -8.582869
  C       4.017621      3.812459     -8.581351
  H       4.855452      4.153249     -7.921612
  H       4.501924      3.460081     -9.524857
  C       3.105402      5.022567     -8.912726
  H       2.647540      5.424237     -7.976731
  H       2.248484      4.674791     -9.542951
  C       3.844514      6.173056     -9.642059
  H       4.709778      6.509895     -9.017561
  H       4.292611      5.784535    -10.590884
  C       2.941741      7.391675     -9.963432
  H       2.080034      7.055574    -10.592010
  H       2.490450      7.774535     -9.014586
  C       3.689690      8.541443    -10.681672
  H       3.010968      9.395783    -10.907997
  H       4.526282      8.933347    -10.056268
  H       4.131625      8.197401    -11.646513
138
Coordinates from ORCA-job /wrk/rja7/qm_final_3_replicates/qm_final_1.1/qm/4/freq E -2722.583125892094
  N      -3.419328     -4.601695     13.052447
  C      -2.484055     -5.403421     12.059560
  H      -2.509802     -6.459009     12.407571
  H      -1.454679     -5.018981     12.200414
  C      -4.364372     -5.581910     13.727217
  H      -5.029590     -5.033200     14.426231
  H      -4.977296     -6.085403     12.950649
  H      -3.776527     -6.338094     14.287459
  C      -4.258573     -3.496465     12.382203
  H      -3.560481     -2.752365     11.946716
  H      -4.900647     -3.949060     11.603787
  H      -4.890525     -3.047687     13.178551
  C      -2.521198     -3.929696     14.097088
  H      -1.879583     -3.202343     13.552079
  H      -1.911225     -4.710946     14.596907
  H      -3.165757     -3.418215     14.843216
  C      -2.824464     -5.340421     10.547520
  H      -2.098690     -6.066510     10.090686
  H      -3.852410     -5.740718     10.352799
  P      -1.245461     -3.159013     10.316297
  O      -0.106273     -4.171811     10.246036
  O      -1.554466     -2.313323     11.558765
  O      -2.733230     -4.053346      9.971170
  O      -1.313368     -2.140019      8.992538
  C      -0.996249     -2.676721      7.692933
  H      -1.875476     -3.234427      7.279757
  H      -0.137171     -3.389359      7.756530
  C      -0.626294     -1.513126      6.758624
  H       0.172357     -0.895677      7.224399
  O      -1.830973     -0.685531      6.579200
  C      -1.681425      0.680851      6.530301
  O      -0.615944      1.272912      6.647598
  C      -3.024655      1.375412      6.252203
  H      -3.137508      2.185331      7.009163
  H      -3.864725      0.657784      6.383381
  C      -0.166327     -2.017731      5.367289
  H      -0.948301     -2.659718      4.902996
  H       0.783390     -2.589842      5.462643
  O       0.005672     -0.894952      4.449569
  C       1.236330     -0.253283      4.449435
  O       2.231062     -0.697791      5.000497
  C       1.172176      1.069065      3.674524
  H       0.144797      1.241000      3.287966
  H       1.375906      1.865070      4.428260
  C      -3.045133      1.995951      4.820792
  H      -2.155712      2.661348      4.712615
  H      -3.941264      2.655413      4.726409
  C      -3.051728      0.937885      3.686541
  H      -4.003600      0.352348      3.732443
  H      -2.233705      0.202374      3.855608
  C      -2.887211      1.540121      2.267545
  H      -1.932072      2.120844      2.223377
  H      -3.700693      2.282307      2.070640
  C      -2.886341      0.464503      1.150935
  H      -3.866961     -0.074148      1.161387
  H      -2.113264     -0.304025      1.391596
  C      -2.635215      1.035915     -0.269543
  H      -1.585571      1.415277     -0.340347
  H      -3.298686      1.921595     -0.426994
  C      -2.893503      0.021394     -1.430272
  H      -2.787115      0.551697     -2.403776
  H      -3.964694     -0.300405     -1.369747
  C      -2.013065     -1.217241     -1.388763
  H      -2.133491     -1.853677     -0.488984
  C      -1.106232     -1.626263     -2.311975
  H      -0.563591     -2.572242     -2.101869
  C      -0.756427     -0.979198     -3.639216
  H       0.349570     -0.840506     -3.697469
  H      -1.185164      0.045447     -3.722246
  C      -1.205627     -1.825729     -4.869216
  H      -2.319038     -1.919574     -4.864190
  H      -0.813006     -2.867452     -4.762029
  C      -0.726819     -1.231521     -6.217343
  H       0.382476     -1.119288     -6.183650
  H      -1.132333     -0.194740     -6.331093
  C      -1.129705     -2.075217     -7.454666
  H      -2.237340     -2.223579     -7.447430
  H      -0.687231     -3.098424     -7.358727
  C      -0.713569     -1.463207     -8.820895
  H      -1.208287     -0.467766     -8.949048
  H      -1.116846     -2.107611     -9.640124
  C       0.816534     -1.296018     -9.022679
  H       1.323568     -2.272625     -8.818866
  H       1.224261     -0.580315     -8.268905
  C       1.207277     -0.798796    -10.438393
  H       0.675718      0.162140    -10.650540
  H       0.834622     -1.525141    -11.202163
  C       2.732381     -0.592312    -10.615480
  H       2.984074     -0.246894    -11.644643
  H       3.293450     -1.538760    -10.431149
  H       3.123100      0.169121     -9.899907
  C       2.211716      1.146557      2.522186
  H       3.224467      0.910914      2.926693
  H       2.254954      2.202394      2.161239
  C       1.882102      0.215972      1.326438
  H       0.830381      0.402226      0.993537
  H       1.910178     -0.851358      1.657293
  C       2.833338      0.409997      0.117399
  H       3.886912      0.204072      0.432249
  H       2.811837      1.487978     -0.174736
  C       2.466928     -0.475879     -1.101376
  H       2.505573     -1.549477     -0.793582
  H       1.403226     -0.290702     -1.381670
  C       3.376717     -0.288402     -2.347525
  H       4.419589     -0.602365     -2.096151
  H       3.028622     -0.983048     -3.149693
  C       3.432439      1.160110     -2.939641
  H       4.078099      1.145425     -3.846751
  H       3.952990      1.828836     -2.211598
  C       2.070882      1.758968     -3.259989
  H       1.465927      2.069579     -2.384650
  C       1.522367      1.934180     -4.488537
  H       0.516550      2.399632     -4.540641
  C       2.153176      1.603990     -5.832658
  H       1.379403      1.152583     -6.498923
  H       2.950345      0.833026     -5.718952
  C       2.746723      2.859649     -6.541294
  H       3.550874      3.288635     -5.895271
  H       1.956098      3.644596     -6.605805
  C       3.317439      2.561517     -7.953172
  H       4.040233      1.712781     -7.875944
  H       2.493885      2.197027     -8.616978
  C       4.029079      3.767615     -8.625287
  H       4.865676      4.112688     -7.967089
  H       4.512371      3.421166     -9.571634
  C       3.106998      4.972877     -8.947241
  H       2.645251      5.360028     -8.006927
  H       2.253760      4.625180     -9.582188
  C       3.839732      6.138362     -9.658947
  H       4.701854      6.471157     -9.028138
  H       4.291765      5.767586    -10.613044
  C       2.930436      7.356715     -9.961730
  H       2.074177      7.027188    -10.600920
  H       2.471850      7.717867     -9.007905
  C       3.674888      8.525702    -10.652197
  H       2.992286      9.380783    -10.863693
  H       4.505949      8.908906    -10.014179
  H       4.123518      8.205146    -11.622099
138
Coordinates from ORCA-job /wrk/rja7/qm_final_3_replicates/qm_final_1.1/qm/4/freq E -2722.582928742559
  N      -3.486923     -4.613466     13.023283
  C      -2.546705     -5.427515     12.044677
  H      -2.575874     -6.478573     12.406426
  H      -1.517693     -5.043077     12.187414
  C      -4.457521     -5.581623     13.679581
  H      -5.132406     -5.023268     14.361664
  H      -5.058682     -6.080186     12.890645
  H      -3.890426     -6.341578     14.255945
  C      -4.300224     -3.494052     12.343473
  H      -3.585014     -2.761978     11.916988
  H      -4.937946     -3.937284     11.556365
  H      -4.933748     -3.035910     13.133176
  C      -2.594214     -3.958005     14.083341
  H      -1.937715     -3.236843     13.548702
  H      -1.998800     -4.748950     14.585621
  H      -3.241974     -3.444074     14.824937
  C      -2.876473     -5.381252     10.530716
  H      -2.152874     -6.118147     10.087584
  H      -3.906135     -5.775851     10.333622
  P      -1.271777     -3.219876     10.287906
  O      -0.140590     -4.241113     10.213645
  O      -1.574311     -2.377845     11.534869
  O      -2.768352     -4.102027      9.939979
  O      -1.331940     -2.190007      8.971059
  C      -1.003490     -2.712247      7.667930
  H      -1.879533     -3.267070      7.244069
  H      -0.142439     -3.422725      7.729056
  C      -0.631507     -1.535918      6.750085
  H       0.163454     -0.922773      7.228118
  O      -1.836024     -0.707118      6.577804
  C      -1.685208      0.660268      6.554123
  O      -0.618945      1.248203      6.683094
  C      -3.023852      1.361734      6.271104
  H      -3.142926      2.163027      7.036498
  H      -3.866594      0.644428      6.384739
  C      -0.166224     -2.022271      5.353707
  H      -0.949319     -2.653147      4.876177
  H       0.780115     -2.600513      5.445978
  O       0.017094     -0.887186      4.454059
  C       1.255005     -0.259878      4.462942
  O       2.242172     -0.722390      5.012463
  C       1.206884      1.076129      3.710105
  H       0.186009      1.258485      3.311445
  H       1.401830      1.858836      4.480012
  C      -3.027488      2.000785      4.847162
  H      -2.140391      2.672620      4.762322
  H      -3.926083      2.656479      4.748879
  C      -3.010180      0.957553      3.699242
  H      -3.957130      0.362884      3.726120
  H      -2.187573      0.227643      3.870347
  C      -2.831762      1.576658      2.288982
  H      -1.880523      2.164809      2.263730
  H      -3.647954      2.314645      2.087581
  C      -2.805099      0.510864      1.162944
  H      -3.783324     -0.032242      1.151180
  H      -2.032868     -0.255437      1.414107
  C      -2.529943      1.093357     -0.248366
  H      -1.481427      1.480983     -0.297842
  H      -3.195027      1.977689     -0.410330
  C      -2.762245      0.088563     -1.422321
  H      -2.641156      0.630264     -2.387892
  H      -3.834295     -0.234736     -1.385040
  C      -1.883867     -1.151632     -1.377441
  H      -1.999857     -1.780557     -0.471653
  C      -0.992731     -1.577917     -2.307166
  H      -0.458640     -2.528448     -2.095530
  C      -0.651490     -0.946840     -3.643681
  H       0.457221     -0.844214     -3.724523
  H      -1.051687      0.090068     -3.720430
  C      -1.148834     -1.782751     -4.860515
  H      -2.264513     -1.838836     -4.837489
  H      -0.791685     -2.837624     -4.756557
  C      -0.671570     -1.211804     -6.219133
  H       0.443415     -1.162919     -6.215221
  H      -1.020020     -0.152881     -6.317928
  C      -1.162759     -2.023046     -7.444105
  H      -2.277627     -2.093418     -7.408631
  H      -0.791499     -3.075313     -7.360458
  C      -0.735790     -1.440228     -8.817884
  H      -1.123722     -0.394916     -8.915934
  H      -1.242153     -2.024007     -9.625263
  C       0.793249     -1.449120     -9.083283
  H       1.188486     -2.484402     -8.924466
  H       1.318702     -0.808110     -8.334637
  C       1.176411     -0.966080    -10.505014
  H       0.774391      0.065352    -10.663548
  H       0.663170     -1.608739    -11.262433
  C       2.702410     -0.975114    -10.769673
  H       2.942624     -0.636656    -11.803962
  H       3.128809     -1.998270    -10.643960
  H       3.241050     -0.303212    -10.062527
  C       2.262704      1.168352      2.573451
  H       3.268913      0.922001      2.987488
  H       2.315139      2.229188      2.228862
  C       1.942381      0.256060      1.361530
  H       0.892848      0.449113      1.024799
  H       1.966489     -0.816186      1.676237
  C       2.900740      0.462410      0.159618
  H       3.952361      0.250793      0.477123
  H       2.882493      1.543347     -0.122461
  C       2.534968     -0.413733     -1.066383
  H       2.580711     -1.489668     -0.767915
  H       1.468749     -0.231128     -1.340054
  C       3.437646     -0.214903     -2.315492
  H       4.484938     -0.519225     -2.070105
  H       3.092061     -0.911643     -3.116692
  C       3.477194      1.234107     -2.907761
  H       4.111279      1.223569     -3.823045
  H       4.003126      1.905211     -2.185593
  C       2.108547      1.827328     -3.209521
  H       1.520773      2.149671     -2.326681
  C       1.539190      1.992906     -4.430096
  H       0.536073      2.464105     -4.469532
  C       2.147007      1.655617     -5.782839
  H       1.359260      1.203230     -6.431428
  H       2.944332      0.883433     -5.681490
  C       2.728698      2.905092     -6.510719
  H       3.550444      3.334147     -5.886995
  H       1.940691      3.693527     -6.561134
  C       3.259924      2.592707     -7.934337
  H       3.981205      1.742298     -7.869836
  H       2.416525      2.224259     -8.571063
  C       3.954865      3.789475     -8.638169
  H       4.810142      4.138022     -8.007324
  H       4.409914      3.434535     -9.595426
  C       3.024667      4.993451     -8.940651
  H       2.584434      5.379547     -7.989477
  H       2.157935      4.644322     -9.555955
  C       3.740809      6.160410     -9.666430
  H       4.611517      6.497999     -9.050407
  H       4.177893      5.791127    -10.628039
  C       2.821376      7.374798     -9.954305
  H       1.955876      7.040682    -10.578090
  H       2.378813      7.734478     -8.992515
  C       3.549979      8.546346    -10.657320
  H       2.863462      9.403212    -10.847787
  H       4.397004      8.925282    -10.037999
  H       3.973692      8.230206    -11.639926
138
Coordinates from ORCA-job /wrk/rja7/qm_final_3_replicates/qm_final_1.1/qm/4/freq E -2722.583226362870
  N      -3.447282     -4.604140     13.046812
  C      -2.516995     -5.417673     12.060057
  H      -2.555381     -6.471208     12.413437
  H      -1.483621     -5.044957     12.202292
  C      -4.423341     -5.570534     13.696537
  H      -5.094030     -5.013919     14.384130
  H      -5.027410     -6.059253     12.904008
  H      -3.861050     -6.339311     14.265936
  C      -4.253440     -3.475109     12.374820
  H      -3.532941     -2.746244     11.948211
  H      -4.896208     -3.909886     11.586866
  H      -4.881995     -3.016477     13.167994
  C      -2.548304     -3.961882     14.109557
  H      -1.887445     -3.241875     13.578160
  H      -1.957552     -4.760179     14.605388
  H      -3.191009     -3.448346     14.855655
  C      -2.853650     -5.354790     10.547750
  H      -2.136597     -6.091379     10.093739
  H      -3.886457     -5.741807     10.351931
  P      -1.240579     -3.198433     10.309047
  O      -0.116286     -4.226571     10.228390
  O      -1.529190     -2.354648     11.558206
  O      -2.742543     -4.071074      9.967186
  O      -1.303104     -2.170656      8.991927
  C      -1.005235     -2.706523      7.687875
  H      -1.895415     -3.251559      7.281446
  H      -0.154817     -3.430361      7.741719
  C      -0.628390     -1.544515      6.754020
  H       0.183528     -0.940186      7.214001
  O      -1.822160     -0.698554      6.589285
  C      -1.653234      0.666060      6.547802
  O      -0.577377      1.240629      6.656287
  C      -2.987831      1.383115      6.282363
  H      -3.082587      2.190270      7.044690
  H      -3.837910      0.677716      6.415359
  C      -0.188217     -2.052345      5.357819
  H      -0.983213     -2.683808      4.901317
  H       0.755120     -2.636617      5.443245
  O      -0.009459     -0.931113      4.441114
  C       1.234477     -0.316805      4.420888
  O       2.231607     -0.789924      4.942929
  C       1.179199      1.019301      3.670575
  H       0.155112      1.200909      3.279714
  H       1.378368      1.800879      4.440800
  C      -3.008792      2.014537      4.854974
  H      -2.112739      2.671180      4.747632
  H      -3.898248      2.684319      4.771111
  C      -3.033298      0.966107      3.711452
  H      -3.991397      0.390876      3.757968
  H      -2.223605      0.220018      3.871270
  C      -2.866189      1.576600      2.296434
  H      -1.905812      2.148739      2.255018
  H      -3.672941      2.327415      2.104593
  C      -2.873261      0.507471      1.172857
  H      -3.859976     -0.019923      1.176483
  H      -2.109845     -0.270672      1.413969
  C      -2.608123      1.083195     -0.243328
  H      -1.556289      1.456970     -0.303497
  H      -3.264315      1.974233     -0.401748
  C      -2.862930      0.077923     -1.413284
  H      -2.742379      0.614610     -2.381785
  H      -3.937392     -0.235428     -1.366491
  C      -1.994699     -1.169212     -1.371564
  H      -2.120811     -1.802955     -0.470672
  C      -1.092413     -1.590186     -2.294033
  H      -0.559864     -2.541028     -2.080260
  C      -0.731010     -0.950730     -3.622170
  H       0.377370     -0.826702     -3.674829
  H      -1.147451      0.078771     -3.709230
  C      -1.180048     -1.796801     -4.852447
  H      -2.294698     -1.874155     -4.860639
  H      -0.805313     -2.844039     -4.735233
  C      -0.675316     -1.221303     -6.200468
  H       0.436099     -1.134712     -6.155437
  H      -1.055252     -0.175908     -6.322923
  C      -1.092435     -2.062803     -7.434259
  H      -2.203736     -2.180945     -7.430877
  H      -0.679311     -3.097340     -7.329033
  C      -0.654122     -1.475079     -8.804006
  H      -1.094861     -0.454069     -8.928375
  H      -1.102172     -2.095827     -9.618321
  C       0.879901     -1.400696     -9.026001
  H       1.327717     -2.409588     -8.841190
  H       1.345239     -0.721777     -8.271468
  C       1.276867     -0.914578    -10.444332
  H       0.817757      0.088200    -10.630794
  H       0.828058     -1.597651    -11.207214
  C       2.807944     -0.830793    -10.661550
  H       3.059140     -0.493028    -11.693433
  H       3.293982     -1.822750    -10.505468
  H       3.279972     -0.115086     -9.949055
  C       2.227216      1.114539      2.528273
  H       3.235685      0.863976      2.933967
  H       2.279518      2.176911      2.188432
  C       1.896093      0.208802      1.314825
  H       0.847026      0.409312      0.981862
  H       1.915620     -0.864686      1.625827
  C       2.850973      0.414968      0.111085
  H       3.902283      0.195195      0.423805
  H       2.838912      1.497282     -0.165502
  C       2.473091     -0.450708     -1.117901
  H       2.509449     -1.528875     -0.826504
  H       1.408229     -0.256129     -1.386425
  C       3.371499     -0.250224     -2.368892
  H       4.417106     -0.566173     -2.131655
  H       3.015314     -0.936029     -3.174981
  C       3.421104      1.204390     -2.945637
  H       4.057254      1.198202     -3.859644
  H       3.949514      1.865512     -2.216262
  C       2.057164      1.808837     -3.244888
  H       1.464996      2.119938     -2.360939
  C       1.494542      1.993029     -4.465281
  H       0.491056      2.465660     -4.502516
  C       2.107777      1.663846     -5.817749
  H       1.320582      1.221218     -6.473876
  H       2.899175      0.885268     -5.716291
  C       2.704707      2.914165     -6.533037
  H       3.529154      3.328767     -5.903294
  H       1.925036      3.711209     -6.578500
  C       3.237508      2.608347     -7.957896
  H       3.943738      1.744558     -7.899113
  H       2.390505      2.262052     -8.601216
  C       3.956779      3.798242     -8.650020
  H       4.817997      4.126916     -8.015778
  H       4.407361      3.439627     -9.607885
  C       3.050440      5.020481     -8.951226
  H       2.618408      5.417608     -8.001012
  H       2.176202      4.687094     -9.564879
  C       3.785679      6.171354     -9.683976
  H       4.664078      6.495979     -9.071790
  H       4.213311      5.789066    -10.644704
  C       2.886620      7.400073     -9.976760
  H       2.012532      7.076638    -10.594402
  H       2.454623      7.775148     -9.015996
  C       3.631827      8.552464    -10.693840
  H       2.958856      9.418676    -10.890234
  H       4.487559      8.923481    -10.081744
  H       4.046740      8.219375    -11.674467
138
Coordinates from ORCA-job /wrk/rja7/qm_final_3_replicates/qm_final_1.1/qm/4/freq E -2722.583294715016
  N      -3.414082     -4.621395     13.067458
  C      -2.488492     -5.427491     12.070738
  H      -2.524167     -6.483195     12.417817
  H      -1.455173     -5.054151     12.210263
  C      -4.385362     -5.592153     13.717527
  H      -5.050520     -5.039910     14.413781
  H      -4.995289     -6.074860     12.925915
  H      -3.819158     -6.365315     14.276942
  C      -4.225036     -3.487705     12.408817
  H      -3.506623     -2.753736     11.986512
  H      -4.871814     -3.915950     11.620605
  H      -4.850610     -3.036554     13.208769
  C      -2.508682     -3.985490     14.128006
  H      -1.849313     -3.263677     13.597350
  H      -1.916333     -4.786762     14.616939
  H      -3.146280     -3.474067     14.879927
  C      -2.834124     -5.355303     10.560476
  H      -2.120732     -6.089280     10.096757
  H      -3.868340     -5.741047     10.369131
  P      -1.227031     -3.192959     10.322613
  O      -0.100668     -4.217770     10.234034
  O      -1.510971     -2.352432     11.575001
  O      -2.728422     -4.067811      9.985708
  O      -1.298247     -2.165090      9.006467
  C      -1.010190     -2.703986      7.701347
  H      -1.902545     -3.250823      7.302419
  H      -0.159026     -3.427150      7.751186
  C      -0.639361     -1.545159      6.760658
  H       0.173940     -0.938088      7.214378
  O      -1.835002     -0.701857      6.596580
  C      -1.667954      0.662802      6.551106
  O      -0.593182      1.239341      6.660834
  C      -3.004511      1.377514      6.289634
  H      -3.103124      2.178502      7.057812
  H      -3.852404      0.668302      6.416371
  C      -0.205276     -2.057764      5.364557
  H      -1.001705     -2.691868      4.914123
  H       0.739099     -2.640833      5.446930
  O      -0.034716     -0.939494      4.442501
  C       1.208473     -0.324765      4.403832
  O       2.212522     -0.792919      4.917031
  C       1.141082      1.004720      3.642666
  H       0.114662      1.173452      3.252333
  H       1.333047      1.793858      4.407203
  C      -3.025794      2.018487      4.866363
  H      -2.130968      2.677541      4.763257
  H      -3.916166      2.687377      4.786411
  C      -3.048536      0.976505      3.717028
  H      -4.005280      0.398932      3.762065
  H      -2.236824      0.231568      3.871736
  C      -2.887185      1.594493      2.304408
  H      -1.928117      2.169043      2.261711
  H      -3.696443      2.344447      2.120118
  C      -2.900390      0.530576      1.175895
  H      -3.886154      0.001526      1.185450
  H      -2.134356     -0.248046      1.406791
  C      -2.649669      1.112167     -0.240671
  H      -1.598396      1.486442     -0.309193
  H      -3.308416      2.002238     -0.391796
  C      -2.914724      0.106770     -1.408510
  H      -2.804941      0.642050     -2.379054
  H      -3.987584     -0.209825     -1.350155
  C      -2.041299     -1.136499     -1.372690
  H      -2.159422     -1.770145     -0.470660
  C      -1.138656     -1.551928     -2.297767
  H      -0.597367     -2.497588     -2.082755
  C      -0.786877     -0.915373     -3.630029
  H       0.318181     -0.764466     -3.680281
  H      -1.226648      0.103016     -3.729524
  C      -1.210998     -1.785100     -4.853642
  H      -2.323669     -1.886312     -4.868407
  H      -0.813621     -2.821989     -4.720726
  C      -0.708695     -1.215660     -6.205050
  H       0.398695     -1.096101     -6.147743
  H      -1.116726     -0.183723     -6.348908
  C      -1.081802     -2.089629     -7.431405
  H      -2.188397     -2.244383     -7.442041
  H      -0.635205     -3.107564     -7.303528
  C      -0.643306     -1.508756     -8.804909
  H      -1.130358     -0.513534     -8.958882
  H      -1.039842     -2.166654     -9.616851
  C       0.889352     -1.355037     -8.991558
  H       1.386048     -2.334535     -8.777992
  H       1.295494     -0.639508     -8.237042
  C       1.296978     -0.867960    -10.407067
  H       0.780846      0.100229    -10.624946
  H       0.917612     -1.590607    -11.171154
  C       2.825404     -0.684745    -10.576002
  H       3.087808     -0.348455    -11.605533
  H       3.371404     -1.638383    -10.383918
  H       3.222764      0.075149     -9.862081
  C       2.186499      1.103994      2.498796
  H       3.197193      0.862354      2.904392
  H       2.230463      2.165702      2.155778
  C       1.863928      0.191877      1.287610
  H       0.813815      0.381684      0.951243
  H       1.892529     -0.880433      1.601994
  C       2.820718      0.405473      0.086954
  H       3.872628      0.194649      0.403922
  H       2.800563      1.487737     -0.188995
  C       2.458669     -0.462907     -1.144839
  H       2.498976     -1.540791     -0.852867
  H       1.395383     -0.275059     -1.423669
  C       3.368368     -0.254187     -2.386513
  H       4.413626     -0.562441     -2.138066
  H       3.026828     -0.941468     -3.197752
  C       3.411009      1.202210     -2.959491
  H       4.059253      1.204542     -3.864976
  H       3.922478      1.867381     -2.222026
  C       2.044548      1.791078     -3.277475
  H       1.436824      2.096091     -2.401992
  C       1.495711      1.963485     -4.505934
  H       0.486143      2.421800     -4.558943
  C       2.130616      1.632304     -5.847991
  H       1.357971      1.179265     -6.514455
  H       2.927250      0.861362     -5.729940
  C       2.727648      2.885260     -6.559170
  H       3.534225      3.312421     -5.914914
  H       1.939761      3.672849     -6.623685
  C       3.295506      2.581328     -7.970924
  H       4.013830      1.728622     -7.893085
  H       2.469236      2.219228     -8.632336
  C       4.011678      3.781023     -8.649632
  H       4.851419      4.126081     -7.995133
  H       4.491404      3.426679     -9.594759
  C       3.093348      4.987169     -8.978518
  H       2.630209      5.380183     -8.041418
  H       2.240762      4.637373     -9.613379
  C       3.827475      6.147274     -9.697352
  H       4.688165      6.485146     -9.067238
  H       4.281007      5.769259    -10.647847
  C       2.917423      7.362474    -10.011896
  H       2.063051      7.026323    -10.650245
  H       2.456729      7.731229     -9.062035
  C       3.661744      8.525684    -10.712140
  H       2.980101      9.380758    -10.926681
  H       4.495986      8.911152    -10.079653
  H       4.106187      8.198054    -11.681546
138
Coordinates from ORCA-job /wrk/rja7/qm_final_3_replicates/qm_final_1.1/qm/4/freq E -2722.583378013876
  N      -3.408701     -4.602634     13.075918
  C      -2.490655     -5.420156     12.081025
  H      -2.532668     -6.474145     12.432674
  H      -1.454218     -5.053574     12.216633
  C      -4.384444     -5.563844     13.733638
  H      -5.045739     -5.003681     14.427404
  H      -4.998435     -6.048612     12.946326
  H      -3.821746     -6.336372     14.297627
  C      -4.214291     -3.468164     12.412128
  H      -3.493262     -2.742144     11.981407
  H      -4.865858     -3.898107     11.628858
  H      -4.834261     -3.007349     13.210916
  C      -2.496959     -3.966348     14.130937
  H      -1.835311     -3.250534     13.594803
  H      -1.907435     -4.768445     14.622095
  H      -3.130187     -3.448555     14.882198
  C      -2.838422     -5.352284     10.571459
  H      -2.130028     -6.092688     10.110260
  H      -3.875346     -5.732081     10.383013
  P      -1.214578     -3.204500     10.325564
  O      -0.096999     -4.239161     10.237722
  O      -1.489901     -2.358308     11.576062
  O      -2.723814     -4.067915      9.993008
  O      -1.280792     -2.178232      9.007576
  C      -1.004229     -2.720271      7.701321
  H      -1.901956     -3.263790      7.309927
  H      -0.155489     -3.446717      7.745404
  C      -0.637600     -1.563458      6.756427
  H       0.182337     -0.958897      7.201609
  O      -1.831968     -0.716217      6.604700
  C      -1.662893      0.648392      6.560215
  O      -0.586183      1.223250      6.658715
  C      -3.001482      1.364470      6.313581
  H      -3.090776      2.166827      7.081579
  H      -3.848205      0.655895      6.451135
  C      -0.220257     -2.079546      5.356176
  H      -1.022575     -2.714380      4.917300
  H       0.724699     -2.662937      5.428468
  O      -0.060403     -0.964230      4.428465
  C       1.184005     -0.353911      4.367195
  O       2.194716     -0.824283      4.865188
  C       1.107941      0.977342      3.609388
  H       0.081590      1.138770      3.215601
  H       1.289180      1.765384      4.377828
  C      -3.039075      2.003134      4.889960
  H      -2.149691      2.668141      4.778364
  H      -3.934966      2.665395      4.816170
  C      -3.062270      0.958724      3.742847
  H      -4.014540      0.374287      3.794380
  H      -2.244465      0.219971      3.894716
  C      -2.912879      1.574883      2.328402
  H      -1.960034      2.159198      2.280726
  H      -3.730374      2.315997      2.144685
  C      -2.917045      0.507953      1.202815
  H      -3.896278     -0.033052      1.216392
  H      -2.140574     -0.260293      1.433544
  C      -2.677970      1.090141     -0.215365
  H      -1.629961      1.472894     -0.290210
  H      -3.344487      1.975315     -0.362434
  C      -2.940824      0.083240     -1.381915
  H      -2.837369      0.619767     -2.352515
  H      -4.011814     -0.239003     -1.320170
  C      -2.061298     -1.155873     -1.348718
  H      -2.178018     -1.793342     -0.449136
  C      -1.157365     -1.565292     -2.274676
  H      -0.614157     -2.510765     -2.063527
  C      -0.806197     -0.922335     -3.603485
  H       0.298657     -0.767804     -3.650913
  H      -1.249745      0.095079     -3.699412
  C      -1.223730     -1.788026     -4.831597
  H      -2.336404     -1.887298     -4.854339
  H      -0.829469     -2.826248     -4.699513
  C      -0.710628     -1.215373     -6.177404
  H       0.397382     -1.104698     -6.113406
  H      -1.110348     -0.179586     -6.317099
  C      -1.086013     -2.078646     -7.409805
  H      -2.194456     -2.219208     -7.428651
  H      -0.653890     -3.103130     -7.284200
  C      -0.630088     -1.497134     -8.776875
  H      -1.092043     -0.488859     -8.924700
  H      -1.042179     -2.138543     -9.594151
  C       0.906409     -1.385047     -8.961487
  H       1.374489     -2.380867     -8.758176
  H       1.334292     -0.689679     -8.200287
  C       1.326766     -0.897004    -10.372463
  H       0.845469      0.091754    -10.577371
  H       0.917552     -1.596587    -11.142591
  C       2.860151     -0.770227    -10.548077
  H       3.129661     -0.433351    -11.575614
  H       3.370426     -1.746032    -10.369378
  H       3.290083     -0.034379     -9.829173
  C       2.157820      1.089475      2.470752
  H       3.168003      0.850643      2.879146
  H       2.197513      2.153452      2.134261
  C       1.844166      0.183312      1.252651
  H       0.795185      0.372661      0.912591
  H       1.874174     -0.890713      1.561117
  C       2.806514      0.403830      0.057206
  H       3.857022      0.192370      0.378360
  H       2.786783      1.487317     -0.214176
  C       2.449921     -0.459789     -1.179826
  H       2.489280     -1.538711     -0.891466
  H       1.387469     -0.270796     -1.461791
  C       3.365062     -0.249634     -2.417470
  H       4.408222     -0.562193     -2.165589
  H       3.024121     -0.933526     -3.231866
  C       3.416834      1.207508     -2.987760
  H       4.068357      1.208035     -3.890884
  H       3.929104      1.868750     -2.247156
  C       2.055085      1.804835     -3.310102
  H       1.444456      2.108862     -2.436280
  C       1.513787      1.988131     -4.540551
  H       0.507663      2.453080     -4.595815
  C       2.152260      1.663996     -5.882352
  H       1.380187      1.213867     -6.551254
  H       2.948763      0.892586     -5.767021
  C       2.748829      2.919312     -6.589349
  H       3.560329      3.341617     -5.947996
  H       1.962506      3.709036     -6.646269
  C       3.304958      2.618442     -8.006352
  H       4.017566      1.760486     -7.938140
  H       2.470756      2.264834     -8.662203
  C       4.022878      3.815364     -8.687563
  H       4.876387      4.146944     -8.044470
  H       4.484095      3.462941     -9.642615
  C       3.111760      5.033020     -8.992731
  H       2.670689      5.425838     -8.044900
  H       2.243548      4.695628     -9.612903
  C       3.844626      6.189253     -9.719160
  H       4.719539      6.515877     -9.102914
  H       4.277454      5.811573    -10.679394
  C       2.941209      7.414799    -10.011584
  H       2.070633      7.089241    -10.633237
  H       2.503949      7.785290     -9.051404
  C       3.683268      8.572431    -10.723364
  H       3.006811      9.435867    -10.920078
  H       4.535113      8.946143    -10.107463
  H       4.103248      8.243664    -11.703274
138
Coordinates from ORCA-job /wrk/rja7/qm_final_3_replicates/qm_final_1.1/qm/4/freq E -2722.583442723378
  N      -3.410730     -4.596967     13.092593
  C      -2.492330     -5.418262     12.100504
  H      -2.530472     -6.469698     12.460237
  H      -1.456285     -5.048395     12.230916
  C      -4.389587     -5.556411     13.748470
  H      -5.054731     -4.994620     14.437344
  H      -4.999725     -6.043112     12.959307
  H      -3.829659     -6.326947     14.317928
  C      -4.213499     -3.461169     12.427017
  H      -3.491044     -2.737345     11.995605
  H      -4.864400     -3.890863     11.643155
  H      -4.832664     -2.998520     13.225256
  C      -2.499031     -3.962247     14.149106
  H      -1.835044     -3.248952     13.612572
  H      -1.911984     -4.765449     14.641593
  H      -3.132160     -3.442858     14.899319
  C      -2.843192     -5.361900     10.591634
  H      -2.135031     -6.105015     10.134239
  H      -3.880077     -5.743801     10.407405
  P      -1.219673     -3.215641     10.333917
  O      -0.101650     -4.250145     10.249926
  O      -1.495156     -2.365239     11.581588
  O      -2.728738     -4.081794     10.004816
  O      -1.287436     -2.192876      9.012806
  C      -1.017809     -2.739661      7.707110
  H      -1.919735     -3.279761      7.320670
  H      -0.171905     -3.469622      7.749398
  C      -0.650285     -1.586126      6.758885
  H       0.174422     -0.984551      7.199478
  O      -1.840594     -0.732756      6.611847
  C      -1.663377      0.630907      6.564083
  O      -0.581790      1.198467      6.649465
  C      -2.998500      1.355266      6.322444
  H      -3.080515      2.157093      7.092034
  H      -3.849159      0.651815      6.461531
  C      -0.242014     -2.106507      5.357586
  H      -1.048836     -2.739471      4.924186
  H       0.701478     -2.692643      5.426075
  O      -0.082476     -0.992793      4.428549
  C       1.166862     -0.394666      4.352109
  O       2.178601     -0.874966      4.838310
  C       1.092881      0.939837      3.599727
  H       0.069296      1.099150      3.198040
  H       1.262692      1.724435      4.374630
  C      -3.036281      1.997775      4.900689
  H      -2.143187      2.657756      4.789225
  H      -3.928563      2.665516      4.831412
  C      -3.068571      0.957295      3.750370
  H      -4.024093      0.378198      3.801852
  H      -2.254625      0.213464      3.898621
  C      -2.916739      1.577876      2.338196
  H      -1.961774      2.158773      2.293468
  H      -3.731167      2.322718      2.156075
  C      -2.922388      0.515328      1.208315
  H      -3.904195     -0.021208      1.216253
  H      -2.150166     -0.257153      1.439094
  C      -2.674195      1.103648     -0.205562
  H      -1.625032      1.484460     -0.272623
  H      -3.336832      1.992241     -0.350122
  C      -2.934813      0.106854     -1.381033
  H      -2.819290      0.650611     -2.346252
  H      -4.009321     -0.205920     -1.330695
  C      -2.067632     -1.141173     -1.351333
  H      -2.194517     -1.782829     -0.456128
  C      -1.166294     -1.555388     -2.277240
  H      -0.635774     -2.509278     -2.071732
  C      -0.798450     -0.903788     -3.596963
  H       0.308685     -0.763689     -3.633833
  H      -1.228935      0.120227     -3.684221
  C      -1.215561     -1.749647     -4.837935
  H      -2.329083     -1.834487     -4.872851
  H      -0.836130     -2.794630     -4.715588
  C      -0.682756     -1.166884     -6.171950
  H       0.427179     -1.079288     -6.099605
  H      -1.060887     -0.121089     -6.296943
  C      -1.071429     -2.002897     -7.417851
  H      -2.183061     -2.114213     -7.445261
  H      -0.667347     -3.040205     -7.304335
  C      -0.592188     -1.415698     -8.773900
  H      -1.010829     -0.385855     -8.902294
  H      -1.034009     -2.023284     -9.601328
  C       0.947184     -1.370105     -8.962465
  H       1.369559     -2.391105     -8.784615
  H       1.411406     -0.713151     -8.188330
  C       1.381970     -0.871427    -10.364974
  H       0.952418      0.146103    -10.541617
  H       0.927949     -1.529307    -11.146693
  C       2.918129     -0.825426    -10.555046
  H       3.195674     -0.481487    -11.578130
  H       3.375077     -1.831716    -10.403271
  H       3.395599     -0.130955     -9.826016
  C       2.152111      1.063672      2.471409
  H       3.159144      0.822106      2.885843
  H       2.193418      2.130564      2.144582
  C       1.848691      0.167576      1.243456
  H       0.802081      0.359212      0.897358
  H       1.877313     -0.909059      1.542748
  C       2.819018      0.397830      0.056020
  H       3.867311      0.182244      0.381617
  H       2.802069      1.483692     -0.206208
  C       2.467268     -0.455198     -1.189582
  H       2.505226     -1.536467     -0.909922
  H       1.406002     -0.262943     -1.473704
  C       3.385539     -0.235944     -2.423142
  H       4.429200     -0.546248     -2.170407
  H       3.048785     -0.916963     -3.241654
  C       3.433272      1.224012     -2.986473
  H       4.082686      1.230326     -3.891110
  H       3.945549      1.882618     -2.243614
  C       2.069050      1.820415     -3.301355
  H       1.465773      2.130666     -2.424654
  C       1.518027      1.996796     -4.528455
  H       0.513402      2.465253     -4.578414
  C       2.146957      1.667098     -5.873366
  H       1.369500      1.213904     -6.533977
  H       2.944767      0.896716     -5.761130
  C       2.737382      2.918748     -6.591400
  H       3.553032      3.345415     -5.958239
  H       1.950445      3.707853     -6.647796
  C       3.283260      2.607686     -8.010044
  H       3.997557      1.751748     -7.939430
  H       2.444558      2.247034     -8.656681
  C       3.995286      3.799343     -8.706245
  H       4.850371      4.139137     -8.069867
  H       4.453460      3.439196     -9.659949
  C       3.079357      5.011677     -9.018069
  H       2.636331      5.406580     -8.071976
  H       2.213198      4.668064     -9.637537
  C       3.809117      6.167972     -9.747467
  H       4.680736      6.500995     -9.130129
  H       4.246096      5.788884    -10.705271
  C       2.901258      7.388637    -10.046579
  H       2.034295      7.057157    -10.669949
  H       2.459689      7.759944     -9.088755
  C       3.641046      8.547300    -10.759097
  H       2.962720      9.408910    -10.957275
  H       4.491549      8.923622    -10.142934
  H       4.062443      8.218433    -11.738425
138
Coordinates from ORCA-job /wrk/rja7/qm_final_3_replicates/qm_final_1.1/qm/4/freq E -2722.583517689540
  N      -3.383547     -4.615444     13.113443
  C      -2.467335     -5.434679     12.117785
  H      -2.502594     -6.486099     12.477832
  H      -1.431354     -5.063577     12.244920
  C      -4.361903     -5.576144     13.768306
  H      -5.028668     -5.015110     14.456156
  H      -4.970806     -6.063255     12.978428
  H      -3.802156     -6.345808     14.339010
  C      -4.187231     -3.476140     12.454415
  H      -3.465386     -2.752326     12.022526
  H      -4.841404     -3.902331     11.671580
  H      -4.802062     -3.014995     13.256798
  C      -2.468095     -3.985485     14.169529
  H      -1.804419     -3.272067     13.633147
  H      -1.881023     -4.791082     14.658084
  H      -3.098156     -3.467301     14.923126
  C      -2.823755     -5.377346     10.610707
  H      -2.117243     -6.119750     10.149385
  H      -3.861146     -5.759740     10.430005
  P      -1.202733     -3.227768     10.352209
  O      -0.083168     -4.259924     10.263498
  O      -1.475203     -2.379003     11.601630
  O      -2.711357     -4.096495     10.025474
  O      -1.279127     -2.204256      9.032013
  C      -1.023740     -2.753353      7.724383
  H      -1.930308     -3.293061      7.348570
  H      -0.177708     -3.483620      7.758107
  C      -0.666809     -1.601225      6.770767
  H       0.158873     -0.995202      7.203624
  O      -1.861317     -0.752632      6.631675
  C      -1.688466      0.611476      6.577923
  O      -0.607475      1.181692      6.651755
  C      -3.027380      1.332105      6.345543
  H      -3.109561      2.129466      7.120013
  H      -3.875012      0.625026      6.484131
  C      -0.266256     -2.125931      5.368452
  H      -1.072168     -2.767146      4.945455
  H       0.682142     -2.704555      5.432206
  O      -0.122683     -1.016845      4.431938
  C       1.126293     -0.423837      4.319136
  O       2.149202     -0.905140      4.780255
  C       1.032430      0.909614      3.566682
  H       0.007915      1.048692      3.160228
  H       1.178951      1.695872      4.345188
  C      -3.072719      1.982683      4.927995
  H      -2.179305      2.641963      4.815535
  H      -3.964709      2.651722      4.867206
  C      -3.112558      0.947876      3.773301
  H      -4.069682      0.371464      3.824893
  H      -2.300496      0.201095      3.916711
  C      -2.960119      1.574081      2.364013
  H      -2.005966      2.156441      2.322780
  H      -3.775015      2.318557      2.182786
  C      -2.961433      0.515360      1.230429
  H      -3.942582     -0.022537      1.233880
  H      -2.189107     -0.257093      1.460879
  C      -2.707878      1.110790     -0.179051
  H      -1.660594      1.498679     -0.237240
  H      -3.374344      1.996560     -0.323102
  C      -2.955288      0.119943     -1.361387
  H      -2.830618      0.669624     -2.322149
  H      -4.030509     -0.192691     -1.323924
  C      -2.090088     -1.129101     -1.329218
  H      -2.221952     -1.771775     -0.435459
  C      -1.189510     -1.545559     -2.254105
  H      -0.664436     -2.503003     -2.050997
  C      -0.812059     -0.888521     -3.567662
  H       0.295968     -0.753894     -3.596274
  H      -1.237979      0.137881     -3.650112
  C      -1.225043     -1.722032     -4.817347
  H      -2.338747     -1.799055     -4.862823
  H      -0.853991     -2.770886     -4.702470
  C      -0.678354     -1.128154     -6.140747
  H       0.433360     -1.066629     -6.066308
  H      -1.032884     -0.071848     -6.245334
  C      -1.087957     -1.929444     -7.401634
  H      -2.202542     -2.002096     -7.436372
  H      -0.720478     -2.982083     -7.305856
  C      -0.581831     -1.333324     -8.743371
  H      -0.939645     -0.277457     -8.840044
  H      -1.062446     -1.889877     -9.584934
  C       0.956499     -1.373439     -8.939856
  H       1.315814     -2.425638     -8.812265
  H       1.464082     -0.782345     -8.140111
  C       1.413053     -0.837925    -10.321194
  H       1.053773      0.214226    -10.442308
  H       0.906600     -1.423325    -11.127999
  C       2.946770     -0.890592    -10.528154
  H       3.238682     -0.519243    -11.537533
  H       3.331774     -1.932696    -10.428523
  H       3.478788     -0.266293     -9.773732
  C       2.094842      1.060663      2.445346
  H       3.103041      0.828590      2.862116
  H       2.122461      2.131468      2.130222
  C       1.812434      0.172904      1.206051
  H       0.766966      0.354511      0.851056
  H       1.851772     -0.906022      1.495653
  C       2.791986      0.426484      0.030754
  H       3.838904      0.217965      0.365392
  H       2.766622      1.515100     -0.219538
  C       2.464106     -0.417786     -1.227059
  H       2.506710     -1.501150     -0.955914
  H       1.405949     -0.230513     -1.525549
  C       3.398619     -0.181048     -2.444943
  H       4.441648     -0.481227     -2.177835
  H       3.082161     -0.860573     -3.272869
  C       3.436042      1.282915     -2.998520
  H       4.100745      1.303646     -3.891752
  H       3.925488      1.944406     -2.243069
  C       2.068128      1.859747     -3.334875
  H       1.451739      2.174279     -2.468926
  C       1.528569      2.012386     -4.570391
  H       0.521142      2.472090     -4.638688
  C       2.177324      1.671925     -5.903205
  H       1.412482      1.205009     -6.569250
  H       2.980080      0.909819     -5.771926
  C       2.766708      2.920481     -6.627019
  H       3.565221      3.365098     -5.984491
  H       1.971905      3.699448     -6.708258
  C       3.343545      2.597597     -8.030456
  H       4.070632      1.755376     -7.932264
  H       2.523847      2.212712     -8.687937
  C       4.049234      3.791793     -8.728904
  H       4.882489      4.156599     -8.077846
  H       4.535721      3.427295     -9.666820
  C       3.117904      4.982188     -9.078047
  H       2.639678      5.374355     -8.148128
  H       2.277824      4.615833     -9.719810
  C       3.845397      6.148388     -9.793627
  H       4.692265      6.501895     -9.153785
  H       4.316696      5.773351    -10.736639
  C       2.922751      7.349688    -10.124934
  H       2.081728      6.998675    -10.772547
  H       2.445591      7.715373     -9.182192
  C       3.660954      8.520256    -10.819472
  H       2.973035      9.369078    -11.038593
  H       4.486889      8.912952    -10.180553
  H       4.115673      8.197325    -11.785800
138
Coordinates from ORCA-job /wrk/rja7/qm_final_3_replicates/qm_final_1.1/qm/4/freq E -2722.583638675032
  N      -3.342560     -4.579903     13.187836
  C      -2.436903     -5.408386     12.191323
  H      -2.471341     -6.457263     12.558756
  H      -1.399520     -5.037888     12.307308
  C      -4.320377     -5.531126     13.856999
  H      -4.978965     -4.961923     14.545879
  H      -4.937432     -6.021668     13.075652
  H      -3.759953     -6.299402     14.428872
  C      -4.145471     -3.442157     12.525249
  H      -3.422670     -2.725702     12.082793
  H      -4.807445     -3.871727     11.750832
  H      -4.752444     -2.971132     13.327884
  C      -2.416921     -3.946267     14.231827
  H      -1.755316     -3.238154     13.686279
  H      -1.828328     -4.750554     14.720471
  H      -3.038676     -3.420744     14.987228
  C      -2.806718     -5.359688     10.687036
  H      -2.106487     -6.106821     10.223987
  H      -3.846709     -5.741006     10.518965
  P      -1.182041     -3.216752     10.389663
  O      -0.067861     -4.253996     10.293942
  O      -1.432034     -2.355817     11.635439
  O      -2.698509     -4.082413     10.091730
  O      -1.272533     -2.205935      9.060678
  C      -1.034921     -2.770760      7.756216
  H      -1.946727     -3.312858      7.397400
  H      -0.189811     -3.502132      7.788431
  C      -0.686044     -1.631245      6.783993
  H       0.141317     -1.018323      7.203725
  O      -1.882877     -0.786944      6.639019
  C      -1.715732      0.576921      6.567148
  O      -0.637230      1.152942      6.632142
  C      -3.059977      1.288201      6.335395
  H      -3.146860      2.085600      7.109273
  H      -3.902552      0.575451      6.475613
  C      -0.292660     -2.173942      5.386851
  H      -1.097177     -2.827303      4.979976
  H       0.660488     -2.744522      5.451608
  O      -0.163498     -1.077232      4.433888
  C       1.083872     -0.487350      4.290616
  O       2.116004     -0.968099      4.731511
  C       0.974899      0.844080      3.536450
  H      -0.048942      0.966848      3.123134
  H       1.100460      1.632040      4.317189
  C      -3.110930      1.938104      4.917498
  H      -2.221416      2.602336      4.803584
  H      -4.006652      2.602194      4.858627
  C      -3.146650      0.904637      3.760998
  H      -4.101637      0.324671      3.811273
  H      -2.332178      0.160193      3.903269
  C      -2.997355      1.535926      2.353522
  H      -2.045561      2.122311      2.313993
  H      -3.815090      2.278136      2.176045
  C      -2.995896      0.483278      1.213989
  H      -3.974914     -0.058347      1.215342
  H      -2.220441     -0.287745      1.437934
  C      -2.746101      1.090287     -0.191522
  H      -1.698404      1.475752     -0.248138
  H      -3.410820      1.978644     -0.326118
  C      -2.999315      0.110529     -1.382074
  H      -2.876780      0.668237     -2.338447
  H      -4.074569     -0.201498     -1.343337
  C      -2.134438     -1.139082     -1.365005
  H      -2.266878     -1.792328     -0.479080
  C      -1.234109     -1.544951     -2.295375
  H      -0.708119     -2.504094     -2.102830
  C      -0.855695     -0.872958     -3.601464
  H       0.251011     -0.725525     -3.621675
  H      -1.291909      0.149367     -3.678857
  C      -1.250136     -1.699878     -4.862406
  H      -2.362853     -1.782208     -4.922222
  H      -0.874261     -2.747259     -4.750700
  C      -0.689760     -1.092004     -6.174087
  H       0.420039     -1.025850     -6.083666
  H      -1.048295     -0.036715     -6.273761
  C      -1.075641     -1.882198     -7.450067
  H      -2.189279     -1.957062     -7.504794
  H      -0.706813     -2.934739     -7.359339
  C      -0.548588     -1.268414     -8.776622
  H      -0.903409     -0.210726     -8.862893
  H      -1.015751     -1.811823     -9.634176
  C       0.993095     -1.304532     -8.948740
  H       1.348762     -2.360904     -8.849240
  H       1.486229     -0.740577     -8.121171
  C       1.475300     -0.723463    -10.303232
  H       1.122630      0.334209    -10.393155
  H       0.980898     -1.277770    -11.138907
  C       3.012367     -0.774625    -10.484362
  H       3.323501     -0.369172    -11.474630
  H       3.391766     -1.821143    -10.413987
  H       3.532152     -0.178769     -9.698659
  C       2.043637      1.012938      2.424591
  H       3.051300      0.788480      2.846637
  H       2.062408      2.085742      2.115578
  C       1.778136      0.129416      1.178409
  H       0.734483      0.305091      0.815223
  H       1.823031     -0.950474      1.463734
  C       2.766253      0.393890      0.012889
  H       3.811286      0.187286      0.354467
  H       2.739040      1.483894     -0.231271
  C       2.450258     -0.443960     -1.251951
  H       2.491205     -1.528836     -0.986476
  H       1.394436     -0.255094     -1.557264
  C       3.392844     -0.200989     -2.462386
  H       4.433583     -0.504002     -2.189862
  H       3.080269     -0.875250     -3.296247
  C       3.436229      1.265855     -3.007702
  H       4.104878      1.289053     -3.897942
  H       3.923495      1.922253     -2.246511
  C       2.071224      1.847720     -3.346449
  H       1.452117      2.158284     -2.481013
  C       1.535172      2.005608     -4.582800
  H       0.525783      2.461974     -4.650681
  C       2.186544      1.667826     -5.915533
  H       1.422670      1.202625     -6.583286
  H       2.988463      0.904778     -5.783173
  C       2.779663      2.914840     -6.639780
  H       3.581543      3.356358     -5.999452
  H       1.987779      3.696967     -6.719122
  C       3.350636      2.588986     -8.045675
  H       4.072088      1.741313     -7.949504
  H       2.526193      2.210679     -8.700306
  C       4.063328      3.777393     -8.747880
  H       4.906492      4.131833     -8.103756
  H       4.537705      3.409124     -9.690426
  C       3.142519      4.978810     -9.087159
  H       2.679665      5.378014     -8.152548
  H       2.290496      4.621629     -9.718256
  C       3.874707      6.134863     -9.814435
  H       4.734674      6.478784     -9.186857
  H       4.328533      5.752238    -10.762945
  C       2.962780      7.347076    -10.135556
  H       2.106524      7.004810    -10.767858
  H       2.505673      7.722866     -9.186814
  C       3.704361      8.505029    -10.847334
  H       3.023254      9.360588    -11.061576
  H       4.543686      8.891844    -10.222430
  H       4.142034      8.171441    -11.817853
138
Coordinates from ORCA-job /wrk/rja7/qm_final_3_replicates/qm_final_1.1/qm/4/freq E -2722.583645553669
  N      -3.320310     -4.573498     13.212787
  C      -2.421939     -5.401436     12.207428
  H      -2.461442     -6.452212     12.568532
  H      -1.381935     -5.038012     12.322604
  C      -4.291036     -5.526706     13.888981
  H      -4.942768     -4.959768     14.586242
  H      -4.915989     -6.014758     13.112440
  H      -3.724949     -6.296985     14.452453
  C      -4.130144     -3.435907     12.559077
  H      -3.412701     -2.715537     12.112928
  H      -4.797599     -3.863915     11.788331
  H      -4.732758     -2.968742     13.367265
  C      -2.387990     -3.939545     14.250782
  H      -1.730151     -3.230010     13.701968
  H      -1.796447     -4.743724     14.735976
  H      -3.005465     -3.414426     15.010046
  C      -2.794372     -5.343828     10.703118
  H      -2.097324     -6.091447     10.235998
  H      -3.835806     -5.720777     10.534889
  P      -1.166299     -3.201026     10.414764
  O      -0.053349     -4.240336     10.327154
  O      -1.422193     -2.337423     11.657241
  O      -2.682356     -4.065128     10.111697
  O      -1.247824     -2.193435      9.082289
  C      -1.014060     -2.764059      7.779094
  H      -1.926118     -3.309159      7.425636
  H      -0.168352     -3.494667      7.812111
  C      -0.671654     -1.629010      6.798471
  H       0.154548     -1.010289      7.211953
  O      -1.873770     -0.792431      6.651687
  C      -1.714815      0.571498      6.567796
  O      -0.639368      1.154142      6.625007
  C      -3.065152      1.274133      6.345190
  H      -3.151703      2.069983      7.120625
  H      -3.901563      0.555331      6.491579
  C      -0.281354     -2.179329      5.402844
  H      -1.083836     -2.840138      5.003898
  H       0.675186     -2.744457      5.466703
  O      -0.163296     -1.087694      4.442282
  C       1.083792     -0.503580      4.274281
  O       2.120983     -0.982911      4.704648
  C       0.967072      0.819864      3.507093
  H      -0.059838      0.935074      3.099381
  H       1.092948      1.614202      4.281489
  C      -3.133771      1.925159      4.928524
  H      -2.250286      2.595993      4.806501
  H      -4.034661      2.582883      4.879122
  C      -3.174374      0.893614      3.770292
  H      -4.124831      0.307152      3.829633
  H      -2.353044      0.154360      3.901613
  C      -3.048375      1.530217      2.362374
  H      -2.103016      2.126031      2.312644
  H      -3.875287      2.265367      2.198523
  C      -3.055199      0.481559      1.218853
  H      -4.028406     -0.070190      1.235169
  H      -2.268523     -0.282667      1.426046
  C      -2.837093      1.093785     -0.190400
  H      -1.796349      1.497368     -0.263092
  H      -3.519428      1.970083     -0.315244
  C      -3.091214      0.106187     -1.374864
  H      -2.999001      0.663198     -2.334983
  H      -4.157971     -0.230510     -1.315110
  C      -2.197391     -1.122848     -1.369690
  H      -2.306073     -1.779789     -0.483284
  C      -1.291581     -1.504788     -2.305828
  H      -0.738859     -2.448833     -2.113766
  C      -0.937552     -0.828620     -3.617486
  H       0.162882     -0.639439     -3.638596
  H      -1.410621      0.176027     -3.706551
  C      -1.299852     -1.684623     -4.869576
  H      -2.409497     -1.798206     -4.936147
  H      -0.896389     -2.719113     -4.736407
  C      -0.744178     -1.087440     -6.188300
  H       0.361049     -0.980160     -6.084825
  H      -1.137004     -0.048006     -6.319933
  C      -1.081659     -1.923022     -7.450092
  H      -2.191210     -2.033787     -7.523057
  H      -0.681727     -2.960309     -7.323455
  C      -0.548960     -1.329214     -8.784498
  H      -0.937106     -0.286912     -8.906772
  H      -0.979756     -1.911808     -9.635307
  C       0.996309     -1.316168     -8.926612
  H       1.384347     -2.358024     -8.799462
  H       1.453379     -0.720272     -8.100728
  C       1.486852     -0.745908    -10.283034
  H       1.105751      0.299592    -10.399153
  H       1.025517     -1.329248    -11.117803
  C       3.028132     -0.753912    -10.433387
  H       3.346719     -0.352655    -11.422972
  H       3.437077     -1.787562    -10.340657
  H       3.513995     -0.131773     -9.646082
  C       2.027894      0.987643      2.387688
  H       3.038713      0.767501      2.804168
  H       2.040740      2.059707      2.075878
  C       1.760730      0.101709      1.143321
  H       0.717455      0.276448      0.779006
  H       1.805495     -0.977625      1.430686
  C       2.748761      0.368506     -0.021636
  H       3.794153      0.167697      0.322426
  H       2.716382      1.457999     -0.267035
  C       2.441703     -0.470957     -1.287434
  H       2.481897     -1.555567     -1.020797
  H       1.388259     -0.283344     -1.601486
  C       3.393881     -0.224859     -2.490373
  H       4.432835     -0.525564     -2.208886
  H       3.090555     -0.898951     -3.327781
  C       3.436384      1.243661     -3.032497
  H       4.122813      1.274466     -3.908887
  H       3.902113      1.903186     -2.260706
  C       2.073169      1.811832     -3.400464
  H       1.430546      2.110573     -2.548142
  C       1.563487      1.970372     -4.647968
  H       0.550465      2.415055     -4.736091
  C       2.247919      1.649293     -5.967818
  H       1.506817      1.174539     -6.654104
  H       3.059797      0.899069     -5.822409
  C       2.832281      2.911646     -6.673033
  H       3.616481      3.361431     -6.016719
  H       2.028240      3.680699     -6.758420
  C       3.430066      2.609075     -8.072935
  H       4.164097      1.772250     -7.974032
  H       2.622350      2.224009     -8.743849
  C       4.132292      3.816406     -8.752930
  H       4.964696      4.174983     -8.097056
  H       4.620547      3.466031     -9.695237
  C       3.198350      5.009035     -9.087307
  H       2.725820      5.394902     -8.151986
  H       2.353739      4.646614     -9.725541
  C       3.919764      6.179488     -9.801930
  H       4.774139      6.527257     -9.168677
  H       4.381185      5.809953    -10.751946
  C       2.995705      7.384246    -10.115922
  H       2.146141      7.038977    -10.755729
  H       2.529477      7.745672     -9.165974
  C       3.727536      8.557550    -10.812419
  H       3.036800      9.405675    -11.025433
  H       4.556570      8.950475    -10.177638
  H       4.177496      8.237550    -11.781845
138
Coordinates from ORCA-job /wrk/rja7/qm_final_3_replicates/qm_final_1.1/qm/4/freq E -2722.583711735224
  N      -3.319867     -4.570911     13.231093
  C      -2.425195     -5.398940     12.222686
  H      -2.465009     -6.450228     12.582257
  H      -1.384648     -5.036556     12.336544
  C      -4.286992     -5.523481     13.913243
  H      -4.935499     -4.955466     14.612613
  H      -4.915548     -6.013373     13.140753
  H      -3.717862     -6.292664     14.475232
  C      -4.132846     -3.434428     12.579501
  H      -3.417747     -2.714997     12.128277
  H      -4.805048     -3.863605     11.813588
  H      -4.730883     -2.965260     13.389969
  C      -2.383762     -3.935278     14.264299
  H      -1.729392     -3.224225     13.713116
  H      -1.788624     -4.738335     14.746927
  H      -2.998459     -3.410877     15.026374
  C      -2.800306     -5.339222     10.718951
  H      -2.105161     -6.087696     10.250408
  H      -3.842653     -5.714139     10.551805
  P      -1.169455     -3.198659     10.432379
  O      -0.058516     -4.240428     10.347411
  O      -1.425694     -2.333046     11.673272
  O      -2.687309     -4.060080     10.128839
  O      -1.247055     -2.193127      9.097916
  C      -1.009822     -2.766405      7.796399
  H      -1.920261     -3.313975      7.442711
  H      -0.162611     -3.495078      7.832516
  C      -0.668846     -1.632965      6.813298
  H       0.152740     -1.009136      7.228432
  O      -1.874656     -0.803139      6.659778
  C      -1.722582      0.560786      6.566513
  O      -0.650162      1.149455      6.619235
  C      -3.077144      1.254409      6.342451
  H      -3.169576      2.049756      7.117739
  H      -3.908776      0.530077      6.488927
  C      -0.270701     -2.186089      5.421005
  H      -1.065921     -2.856760      5.023783
  H       0.691079     -2.741625      5.489662
  O      -0.160277     -1.097478      4.456201
  C       1.084990     -0.512624      4.276985
  O       2.125876     -0.988815      4.701950
  C       0.960780      0.808107      3.506339
  H      -0.065054      0.913416      3.092922
  H       1.073261      1.604686      4.280607
  C      -3.149633      1.904367      4.925821
  H      -2.268591      2.578129      4.802426
  H      -4.052827      2.558944      4.877130
  C      -3.187692      0.872592      3.767526
  H      -4.137051      0.284299      3.826498
  H      -2.364729      0.134606      3.898472
  C      -3.064316      1.511975      2.360570
  H      -2.119920      2.109398      2.311396
  H      -3.892263      2.246747      2.200228
  C      -3.072059      0.467913      1.212719
  H      -4.045470     -0.083481      1.226423
  H      -2.285702     -0.297719      1.415838
  C      -2.853273      1.088088     -0.193067
  H      -1.813983      1.496267     -0.259927
  H      -3.538994      1.962282     -0.314554
  C      -3.099077      0.106027     -1.383790
  H      -3.011839      0.670286     -2.340147
  H      -4.162742     -0.240711     -1.326216
  C      -2.194183     -1.114946     -1.387716
  H      -2.294618     -1.777156     -0.504251
  C      -1.287544     -1.484040     -2.328445
  H      -0.725380     -2.423690     -2.142214
  C      -0.942348     -0.797969     -3.637722
  H       0.156322     -0.598413     -3.660280
  H      -1.424631      0.202662     -3.721121
  C      -1.300021     -1.650219     -4.894033
  H      -2.409451     -1.764351     -4.963989
  H      -0.895911     -2.684782     -4.763689
  C      -0.740622     -1.046882     -6.208186
  H       0.365658     -0.951222     -6.106222
  H      -1.123422     -0.002483     -6.329537
  C      -1.088536     -1.864134     -7.479442
  H      -2.199729     -1.951915     -7.558117
  H      -0.709369     -2.910240     -7.362546
  C      -0.537970     -1.264256     -8.804272
  H      -0.885396     -0.205221     -8.902083
  H      -0.993495     -1.811095     -9.665840
  C       1.006368     -1.309047     -8.952240
  H       1.349729     -2.371178     -8.874233
  H       1.490168     -0.771532     -8.101968
  C       1.518716     -0.698536    -10.282727
  H       1.195200      0.370934    -10.342585
  H       1.021086     -1.212713    -11.141807
  C       3.056237     -0.783908    -10.447008
  H       3.391163     -0.345802    -11.415325
  H       3.406271     -1.842537    -10.416030
  H       3.580994     -0.235577     -9.630231
  C       2.026842      0.983216      2.393432
  H       3.036827      0.769262      2.815007
  H       2.034358      2.055431      2.081870
  C       1.771974      0.095547      1.147564
  H       0.729293      0.263228      0.778379
  H       1.822357     -0.983457      1.435321
  C       2.763212      0.367996     -0.013246
  H       3.808549      0.172839      0.334127
  H       2.725651      1.457272     -0.258964
  C       2.463815     -0.472902     -1.279800
  H       2.508638     -1.557367     -1.013503
  H       1.410160     -0.289884     -1.595845
  C       3.416461     -0.222096     -2.481463
  H       4.456263     -0.518650     -2.198748
  H       3.116429     -0.896917     -3.319417
  C       3.453989      1.247070     -3.022183
  H       4.138865      1.280768     -3.899707
  H       3.918879      1.906698     -2.250049
  C       2.088587      1.812284     -3.386325
  H       1.448885      2.111304     -2.531884
  C       1.573502      1.967251     -4.631945
  H       0.558436      2.407956     -4.716623
  C       2.251440      1.642365     -5.954001
  H       1.507409      1.165304     -6.634920
  H       3.064411      0.892846     -5.810827
  C       2.830830      2.902207     -6.667448
  H       3.620932      3.353338     -6.019201
  H       2.026699      3.671665     -6.748624
  C       3.416082      2.594389     -8.071647
  H       4.149427      1.756439     -7.976030
  H       2.602213      2.209224     -8.734833
  C       4.115919      3.798013     -8.760290
  H       4.953625      4.156365     -8.111243
  H       4.597124      3.443320     -9.704594
  C       3.183061      4.992101     -9.093114
  H       2.717561      5.382674     -8.156255
  H       2.333387      4.630009     -9.724800
  C       3.903817      6.157869     -9.815971
  H       4.761899      6.506010     -9.187942
  H       4.360163      5.783153    -10.766417
  C       2.981458      7.363624    -10.131032
  H       2.128716      7.018357    -10.766641
  H       2.519290      7.729567     -9.180775
  C       3.713743      8.532988    -10.833661
  H       3.023909      9.381348    -11.048699
  H       4.544457      8.927089    -10.201824
  H       4.161521      8.208547    -11.802601
138
Coordinates from ORCA-job /wrk/rja7/qm_final_3_replicates/qm_final_1.1/qm/4/freq E -2722.583748485487
  N      -3.284410     -4.576217     13.226841
  C      -2.405233     -5.403899     12.205486
  H      -2.443539     -6.456233     12.562483
  H      -1.362434     -5.044613     12.307020
  C      -4.246429     -5.527353     13.918165
  H      -4.883961     -4.958717     14.627113
  H      -4.885857     -6.012583     13.151590
  H      -3.672665     -6.299995     14.470700
  C      -4.101701     -3.435545     12.587853
  H      -3.388936     -2.715832     12.134174
  H      -4.782451     -3.860985     11.827432
  H      -4.690549     -2.968282     13.406149
  C      -2.332489     -3.946542     14.249382
  H      -1.683075     -3.236671     13.690688
  H      -1.733468     -4.752931     14.721576
  H      -2.935034     -3.422220     15.021123
  C      -2.801129     -5.338054     10.708174
  H      -2.115937     -6.087656     10.227042
  H      -3.847355     -5.708410     10.555227
  P      -1.167697     -3.202032     10.405049
  O      -0.061038     -4.246631     10.301406
  O      -1.402356     -2.338398     11.651885
  O      -2.692867     -4.057088     10.121110
  O      -1.262184     -2.193295      9.074678
  C      -1.040283     -2.763642      7.769751
  H      -1.957022     -3.305210      7.423179
  H      -0.196176     -3.496406      7.795790
  C      -0.701751     -1.628989      6.787889
  H       0.126037     -1.010766      7.199152
  O      -1.903850     -0.791874      6.647018
  C      -1.744394      0.571497      6.560672
  O      -0.667983      1.153395      6.605844
  C      -3.095807      1.273361      6.343881
  H      -3.181384      2.067350      7.121422
  H      -3.931188      0.553559      6.491180
  C      -0.316109     -2.180327      5.391700
  H      -1.117153     -2.846359      4.998400
  H       0.643228     -2.740897      5.452949
  O      -0.206437     -1.090918      4.427862
  C       1.038646     -0.506204      4.248499
  O       2.079227     -0.980117      4.676821
  C       0.914883      0.813106      3.475709
  H      -0.108181      0.914959      3.054053
  H       1.019948      1.611577      4.249042
  C      -3.167203      1.925286      4.928548
  H      -2.284651      2.597229      4.805342
  H      -4.068866      2.581918      4.879489
  C      -3.206394      0.891653      3.771942
  H      -4.156553      0.304682      3.832273
  H      -2.384543      0.153049      3.904943
  C      -3.080657      1.526157      2.363479
  H      -2.133511      2.119293      2.311887
  H      -3.905629      2.263760      2.200474
  C      -3.091908      0.477917      1.220130
  H      -4.067504     -0.069541      1.234739
  H      -2.308569     -0.289791      1.427522
  C      -2.869161      1.091994     -0.187068
  H      -1.830419      1.500674     -0.252306
  H      -3.555600      1.964892     -0.314770
  C      -3.107062      0.104594     -1.374613
  H      -3.016901      0.665229     -2.332842
  H      -4.169772     -0.245462     -1.321219
  C      -2.196764     -1.112280     -1.366794
  H      -2.298837     -1.770471     -0.480540
  C      -1.283751     -1.480688     -2.300623
  H      -0.717724     -2.416815     -2.108417
  C      -0.938679     -0.798339     -3.611257
  H       0.158433     -0.589827     -3.630450
  H      -1.429120      0.198312     -3.700242
  C      -1.285543     -1.659196     -4.864152
  H      -2.393719     -1.782456     -4.936531
  H      -0.874353     -2.690308     -4.728187
  C      -0.727541     -1.057764     -6.179130
  H       0.378671     -0.958807     -6.076931
  H      -1.113785     -0.014854     -6.303180
  C      -1.073971     -1.880322     -7.446733
  H      -2.184798     -1.976401     -7.520948
  H      -0.687661     -2.923739     -7.328875
  C      -0.533497     -1.279759     -8.774564
  H      -0.888797     -0.223402     -8.874110
  H      -0.989849     -1.831996     -9.632171
  C       1.009908     -1.316755     -8.929725
  H       1.360281     -2.375702     -8.839993
  H       1.495701     -0.765594     -8.089385
  C       1.509862     -0.721738    -10.271326
  H       1.177982      0.344129    -10.344729
  H       1.010608     -1.251767    -11.119762
  C       3.046772     -0.798028    -10.444473
  H       3.372180     -0.369163    -11.420213
  H       3.405728     -1.853396    -10.403332
  H       3.572711     -0.235927     -9.638241
  C       1.990402      0.987454      2.372025
  H       2.997225      0.778988      2.803821
  H       1.997421      2.058229      2.055432
  C       1.749895      0.092172      1.128949
  H       0.709714      0.255203      0.750225
  H       1.801075     -0.985256      1.422569
  C       2.751261      0.360734     -0.024171
  H       3.793732      0.168138      0.332979
  H       2.714604      1.449051     -0.274250
  C       2.463862     -0.485009     -1.290482
  H       2.508761     -1.568551     -1.020853
  H       1.412347     -0.305457     -1.615445
  C       3.425636     -0.236293     -2.485326
  H       4.463538     -0.531435     -2.194087
  H       3.132180     -0.912764     -3.324103
  C       3.467366      1.231446     -3.028603
  H       4.150874      1.261868     -3.907251
  H       3.935870      1.889966     -2.257751
  C       2.103377      1.801785     -3.389382
  H       1.465076      2.098951     -2.533216
  C       1.588425      1.964646     -4.634124
  H       0.575571      2.410386     -4.716599
  C       2.265650      1.644350     -5.957378
  H       1.520019      1.172175     -6.640328
  H       3.076149      0.891778     -5.817727
  C       2.848425      2.905867     -6.664764
  H       3.641799      3.350084     -6.015731
  H       2.047351      3.679103     -6.740124
  C       3.429398      2.602446     -8.071420
  H       4.159866      1.761657     -7.982052
  H       2.611914      2.223028     -8.733673
  C       4.130502      3.806117     -8.758149
  H       4.972630      4.159666     -8.112057
  H       4.605991      3.452873     -9.705914
  C       3.199740      5.003920     -9.082755
  H       2.741071      5.394471     -8.142429
  H       2.345082      4.645926     -9.710138
  C       3.919633      6.168608     -9.808296
  H       4.781784      6.514156     -9.184462
  H       4.369854      5.793418    -10.761494
  C       2.998183      7.376430    -10.117599
  H       2.140910      7.032923    -10.748016
  H       2.542733      7.743354     -9.164527
  C       3.728607      8.544102    -10.824995
  H       3.039295      9.394080    -11.035148
  H       4.564714      8.936126    -10.199005
  H       4.168489      8.218697    -11.797277
138
Coordinates from ORCA-job /wrk/rja7/qm_final_3_replicates/qm_final_1.1/qm/4/freq E -2722.583764307261
  N      -3.253393     -4.563574     13.256392
  C      -2.383996     -5.389988     12.225323
  H      -2.420499     -6.443064     12.580265
  H      -1.339821     -5.032314     12.318732
  C      -4.206137     -5.516333     13.958385
  H      -4.836047     -4.948894     14.675091
  H      -4.853785     -6.001948     13.198982
  H      -3.624858     -6.288566     14.503531
  C      -4.079322     -3.424626     12.625562
  H      -3.373209     -2.704527     12.161839
  H      -4.768514     -3.852279     11.874010
  H      -4.659175     -2.957107     13.450074
  C      -2.291820     -3.932429     14.269035
  H      -1.648962     -3.221459     13.703996
  H      -1.687132     -4.738039     14.735330
  H      -2.887331     -3.408913     15.046759
  C      -2.792126     -5.321005     10.731382
  H      -2.109996     -6.069235     10.243745
  H      -3.839253     -5.691888     10.586313
  P      -1.164031     -3.181363     10.417577
  O      -0.056740     -4.225434     10.312941
  O      -1.393914     -2.312917     11.661913
  O      -2.689653     -4.039383     10.144641
  O      -1.264913     -2.178281      9.083100
  C      -1.050968     -2.755423      7.779720
  H      -1.969515     -3.299432      7.441745
  H      -0.206500     -3.487787      7.805047
  C      -0.719120     -1.626599      6.788610
  H       0.108565     -1.003549      7.192750
  O      -1.923663     -0.793460      6.645409
  C      -1.767870      0.569479      6.547213
  O      -0.692709      1.154289      6.583363
  C      -3.122100      1.266686      6.332113
  H      -3.208536      2.061419      7.108901
  H      -3.954842      0.544546      6.482874
  C      -0.336467     -2.187451      5.395377
  H      -1.137564     -2.857146      5.008460
  H       0.623358     -2.746875      5.459112
  O      -0.228740     -1.104711      4.423914
  C       1.016435     -0.522418      4.238507
  O       2.057147     -0.994123      4.668971
  C       0.893232      0.791618      3.456602
  H      -0.127780      0.888149      3.028488
  H       0.991373      1.594902      4.225966
  C      -3.199115      1.916462      4.916111
  H      -2.318924      2.590899      4.789554
  H      -4.102702      2.570571      4.868674
  C      -3.238776      0.881517      3.760494
  H      -4.186263      0.290673      3.825202
  H      -2.413257      0.146496      3.890721
  C      -3.121717      1.515807      2.351113
  H      -2.177353      2.112925      2.295377
  H      -3.950559      2.249873      2.191581
  C      -3.133177      0.467902      1.207533
  H      -4.105860     -0.084619      1.226139
  H      -2.345037     -0.295803      1.411170
  C      -2.920430      1.083564     -0.200596
  H      -1.887762      1.506695     -0.267758
  H      -3.618853      1.946787     -0.328166
  C      -3.145730      0.091673     -1.387033
  H      -3.071580      0.653847     -2.345674
  H      -4.201085     -0.279136     -1.328491
  C      -2.210685     -1.106376     -1.383247
  H      -2.295521     -1.766353     -0.496548
  C      -1.293959     -1.455599     -2.320713
  H      -0.707119     -2.379164     -2.130329
  C      -0.969697     -0.768180     -3.634062
  H       0.121272     -0.530378     -3.656032
  H      -1.486537      0.214999     -3.725050
  C      -1.296678     -1.642368     -4.883047
  H      -2.402066     -1.787771     -4.956809
  H      -0.865928     -2.664598     -4.740364
  C      -0.747122     -1.038878     -6.200522
  H       0.357592     -0.923617     -6.098325
  H      -1.148162     -0.002206     -6.330190
  C      -1.080601     -1.873219     -7.463874
  H      -2.190051     -1.982055     -7.541032
  H      -0.683060     -2.911461     -7.337890
  C      -0.542005     -1.275802     -8.793878
  H      -0.905786     -0.222981     -8.899993
  H      -0.991545     -1.836510     -9.649531
  C       1.002043     -1.300947     -8.944690
  H       1.360501     -2.356686     -8.849134
  H       1.481096     -0.742141     -8.105540
  C       1.500840     -0.708566    -10.287897
  H       1.162178      0.354722    -10.366790
  H       1.006885     -1.245544    -11.135030
  C       3.038600     -0.774985    -10.457436
  H       3.363544     -0.343744    -11.432305
  H       3.404794     -1.827831    -10.415636
  H       3.558872     -0.209265     -9.650003
  C       1.975259      0.963120      2.358859
  H       2.979905      0.760122      2.798107
  H       1.981001      2.032169      2.036524
  C       1.746224      0.061339      1.118277
  H       0.707974      0.219353      0.732173
  H       1.799491     -1.014638      1.416699
  C       2.754918      0.329658     -0.028645
  H       3.795511      0.141930      0.336380
  H       2.715995      1.417083     -0.282028
  C       2.479885     -0.519648     -1.295400
  H       2.528268     -1.602604     -1.023922
  H       1.429867     -0.345266     -1.627786
  C       3.448553     -0.267864     -2.484373
  H       4.485373     -0.560062     -2.186444
  H       3.161926     -0.945082     -3.324905
  C       3.490556      1.200362     -3.026951
  H       4.178104      1.232498     -3.902358
  H       3.954557      1.858930     -2.253385
  C       2.127735      1.769574     -3.393541
  H       1.482916      2.059804     -2.539993
  C       1.620242      1.938935     -4.640506
  H       0.606226      2.381674     -4.726165
  C       2.307406      1.630920     -5.961728
  H       1.568992      1.157010     -6.651546
  H       3.122238      0.883144     -5.821482
  C       2.884908      2.900337     -6.659737
  H       3.670742      3.347644     -6.003700
  H       2.078266      3.667687     -6.736356
  C       3.476878      2.607868     -8.064288
  H       4.214449      1.773485     -7.974116
  H       2.666379      2.223792     -8.732566
  C       4.170019      3.820446     -8.743629
  H       5.006070      4.180083     -8.092980
  H       4.652691      3.474978     -9.690705
  C       3.228823      5.010166     -9.067631
  H       2.763722      5.393612     -8.127501
  H       2.379476      4.645944     -9.698617
  C       3.939632      6.183993     -9.787456
  H       4.796236      6.536149     -9.159728
  H       4.396614      5.815952    -10.740223
  C       3.007109      7.383345    -10.096346
  H       2.155664      7.033033    -10.730862
  H       2.544532      7.742709     -9.143834
  C       3.728041      8.560543    -10.797721
  H       3.030573      9.403710    -11.008366
  H       4.557533      8.959616    -10.167434
  H       4.174900      8.242266    -11.769181
138
Coordinates from ORCA-job /wrk/rja7/qm_final_3_replicates/qm_final_1.1/qm/4/freq E -2722.583796134069
  N      -3.235903     -4.574475     13.249331
  C      -2.382198     -5.393442     12.198874
  H      -2.423852     -6.450987     12.539418
  H      -1.334087     -5.045552     12.288186
  C      -4.181943     -5.532155     13.954034
  H      -4.799786     -4.971396     14.686404
  H      -4.841685     -6.006710     13.198062
  H      -3.595362     -6.312787     14.481190
  C      -4.066372     -3.427628     12.639668
  H      -3.364688     -2.704862     12.172263
  H      -4.766243     -3.846320     11.892820
  H      -4.634635     -2.966737     13.475754
  C      -2.260955     -3.956085     14.257340
  H      -1.620946     -3.241894     13.692775
  H      -1.655017     -4.768265     14.710596
  H      -2.846655     -3.437301     15.045629
  C      -2.800092     -5.302221     10.708686
  H      -2.126857     -6.050032     10.208108
  H      -3.851087     -5.662307     10.564881
  P      -1.160907     -3.167729     10.420108
  O      -0.059785     -4.219528     10.319527
  O      -1.393134     -2.300590     11.664631
  O      -2.690914     -4.014624     10.137941
  O      -1.246193     -2.161794      9.086456
  C      -1.043330     -2.742593      7.783182
  H      -1.967199     -3.281375      7.451290
  H      -0.203734     -3.480739      7.804660
  C      -0.711905     -1.617530      6.788022
  H       0.122449     -0.998673      7.184792
  O      -1.913370     -0.778643      6.653511
  C      -1.754834      0.583009      6.541858
  O      -0.677623      1.164941      6.555226
  C      -3.111433      1.281915      6.345686
  H      -3.184727      2.079392      7.121182
  H      -3.942289      0.561331      6.513266
  C      -0.343048     -2.186456      5.394196
  H      -1.150279     -2.854830      5.017829
  H       0.614389     -2.750270      5.453778
  O      -0.236945     -1.110299      4.415777
  C       1.010865     -0.539119      4.214864
  O       2.052733     -1.018382      4.634288
  C       0.888881      0.774996      3.433268
  H      -0.132104      0.872154      3.004909
  H       0.985658      1.577334      4.203982
  C      -3.211455      1.925510      4.928945
  H      -2.333830      2.599803      4.784952
  H      -4.116199      2.578738      4.892070
  C      -3.267483      0.884888      3.779282
  H      -4.213335      0.293238      3.859089
  H      -2.439691      0.151030      3.902073
  C      -3.167860      1.512956      2.366206
  H      -2.224402      2.109774      2.297662
  H      -3.998637      2.246095      2.212476
  C      -3.189323      0.460437      1.227414
  H      -4.162670     -0.090697      1.253145
  H      -2.401131     -0.303433      1.429144
  C      -2.982268      1.070106     -0.183973
  H      -1.955161      1.505867     -0.251565
  H      -3.691037      1.923647     -0.317596
  C      -3.192837      0.067837     -1.364628
  H      -3.129109      0.625762     -2.326259
  H      -4.241766     -0.320243     -1.302615
  C      -2.237004     -1.114325     -1.356094
  H      -2.312689     -1.774026     -0.468467
  C      -1.313070     -1.448282     -2.292031
  H      -0.708517     -2.360016     -2.100298
  C      -1.001703     -0.756435     -3.606399
  H       0.081068     -0.483760     -3.622773
  H      -1.549793      0.209088     -3.704056
  C      -1.294591     -1.645997     -4.853024
  H      -2.395468     -1.818808     -4.935521
  H      -0.840980     -2.656801     -4.699764
  C      -0.748262     -1.038672     -6.169997
  H       0.354596     -0.909341     -6.064654
  H      -1.162013     -0.007574     -6.304280
  C      -1.065723     -1.880659     -7.432426
  H      -2.173602     -1.999217     -7.517637
  H      -0.660121     -2.914889     -7.299385
  C      -0.521415     -1.283340     -8.760257
  H      -0.888262     -0.231836     -8.868762
  H      -0.963566     -1.845931     -9.618450
  C       1.023818     -1.302081     -8.900500
  H       1.385332     -2.356969     -8.806444
  H       1.494799     -0.744933     -8.055736
  C       1.529580     -0.702465    -10.237918
  H       1.190213      0.360868    -10.313551
  H       1.041051     -1.235631    -11.090547
  C       3.068406     -0.765352    -10.398964
  H       3.398943     -0.320319    -11.365752
  H       3.436321     -1.818012    -10.369285
  H       3.582836     -0.209726     -9.580819
  C       1.971780      0.948108      2.336568
  H       2.976111      0.743610      2.775551
  H       1.978337      2.017639      2.016011
  C       1.742160      0.048256      1.094450
  H       0.704010      0.208601      0.710090
  H       1.794410     -1.028107      1.391390
  C       2.748947      0.317680     -0.053885
  H       3.790113      0.125296      0.306644
  H       2.712686      1.406019     -0.303565
  C       2.466068     -0.525307     -1.323328
  H       2.510223     -1.609406     -1.056222
  H       1.416084     -0.344350     -1.652378
  C       3.432031     -0.273806     -2.514393
  H       4.468834     -0.570233     -2.220704
  H       3.139983     -0.948264     -3.355128
  C       3.477667      1.195828     -3.053026
  H       4.165378      1.228237     -3.928279
  H       3.943509      1.851279     -2.277768
  C       2.116473      1.769935     -3.417863
  H       1.470551      2.055158     -2.563626
  C       1.610287      1.948265     -4.663935
  H       0.596212      2.392161     -4.747161
  C       2.297768      1.645045     -5.985984
  H       1.558993      1.175610     -6.678829
  H       3.110459      0.894465     -5.848067
  C       2.880028      2.914902     -6.679036
  H       3.662832      3.359769     -6.017738
  H       2.075213      3.683897     -6.759699
  C       3.481353      2.620947     -8.079461
  H       4.217220      1.785836     -7.983311
  H       2.674922      2.237863     -8.753343
  C       4.182601      3.831124     -8.754261
  H       5.010722      4.193020     -8.094844
  H       4.676897      3.481920     -9.694069
  C       3.246182      5.020122     -9.094103
  H       2.768475      5.406704     -8.161495
  H       2.405378      4.655156     -9.735890
  C       3.968420      6.191675     -9.806835
  H       4.815671      6.544826     -9.167136
  H       4.439659      5.820119    -10.751264
  C       3.042020      7.390940    -10.133824
  H       2.201179      7.039908    -10.781878
  H       2.563656      7.752798     -9.190050
  C       3.775207      8.566245    -10.825750
  H       3.081096      9.408100    -11.052247
  H       4.592668      8.968159    -10.181788
  H       4.239677      8.244635    -11.787814
138
Coordinates from ORCA-job /wrk/rja7/qm_final_3_replicates/qm_final_1.1/qm/4/freq E -2722.583847830260
  N      -3.192403     -4.553355     13.289555
  C      -2.362472     -5.379581     12.224980
  H      -2.407561     -6.436677     12.566280
  H      -1.310184     -5.040512     12.297258
  C      -4.132223     -5.504209     14.011945
  H      -4.732313     -4.939035     14.755539
  H      -4.808901     -5.973830     13.267959
  H      -3.541355     -6.288910     14.527904
  C      -4.026486     -3.402088     12.693207
  H      -3.327927     -2.682257     12.217042
  H      -4.739344     -3.817139     11.956633
  H      -4.579785     -2.939432     13.538197
  C      -2.195771     -3.940172     14.279445
  H      -1.560637     -3.232209     13.701940
  H      -1.588491     -4.756079     14.724025
  H      -2.764025     -3.415249     15.076341
  C      -2.801908     -5.285730     10.741243
  H      -2.142939     -6.040238     10.231717
  H      -3.858092     -5.636781     10.613933
  P      -1.151257     -3.161931     10.424762
  O      -0.057645     -4.221309     10.318797
  O      -1.363615     -2.285425     11.666291
  O      -2.690219     -4.000138     10.166185
  O      -1.243501     -2.163836      9.085501
  C      -1.058626     -2.753830      7.783514
  H      -1.988380     -3.291327      7.466415
  H      -0.221221     -3.494599      7.799043
  C      -0.736217     -1.635519      6.777353
  H       0.104401     -1.016525      7.160514
  O      -1.937519     -0.795182      6.653349
  C      -1.779489      0.565902      6.535224
  O      -0.701840      1.147105      6.533331
  C      -3.138396      1.264304      6.352042
  H      -3.204900      2.061811      7.128188
  H      -3.966888      0.543066      6.527858
  C      -0.385653     -2.213951      5.382509
  H      -1.200750     -2.880024      5.019353
  H       0.569136     -2.782969      5.435226
  O      -0.284194     -1.144569      4.396186
  C       0.964738     -0.583297      4.175208
  O       2.008798     -1.066976      4.584119
  C       0.840461      0.729260      3.391097
  H      -0.178221      0.819386      2.955770
  H       0.925203      1.532083      4.162900
  C      -3.252565      1.906992      4.936037
  H      -2.379374      2.585513      4.784974
  H      -4.160713      2.555831      4.906111
  C      -3.312653      0.865475      3.787315
  H      -4.254577      0.268741      3.874885
  H      -2.480395      0.135765      3.904378
  C      -3.226616      1.492337      2.373022
  H      -2.286329      2.093317      2.297059
  H      -4.061930      2.221239      2.223952
  C      -3.249558      0.438142      1.235894
  H      -4.220870     -0.116399      1.265601
  H      -2.458162     -0.322808      1.435840
  C      -3.050887      1.046871     -0.176826
  H      -2.030390      1.498511     -0.245097
  H      -3.772963      1.889106     -0.312493
  C      -3.244985      0.038494     -1.355316
  H      -3.192578      0.595854     -2.317768
  H      -4.286708     -0.368304     -1.291406
  C      -2.267507     -1.126301     -1.347148
  H      -2.331977     -1.788379     -0.460499
  C      -1.337490     -1.441331     -2.283900
  H      -0.715384     -2.341741     -2.095110
  C      -1.038006     -0.737939     -3.595313
  H       0.037004     -0.435587     -3.606132
  H      -1.613063      0.211879     -3.691977
  C      -1.302402     -1.632263     -4.844747
  H      -2.399112     -1.826424     -4.935887
  H      -0.831283     -2.634533     -4.687942
  C      -0.757437     -1.016549     -6.158692
  H       0.343937     -0.877953     -6.049751
  H      -1.179828      0.011168     -6.292082
  C      -1.064658     -1.859585     -7.423201
  H      -2.171860     -1.978867     -7.515831
  H      -0.659778     -2.893679     -7.286510
  C      -0.510722     -1.264425     -8.748187
  H      -0.867131     -0.209181     -8.855170
  H      -0.956054     -1.820520     -9.608972
  C       1.034664     -1.299211     -8.884926
  H       1.384277     -2.358653     -8.796917
  H       1.509789     -0.753036     -8.035454
  C       1.550006     -0.696390    -10.217344
  H       1.224665      0.371894    -10.285516
  H       1.055198     -1.216702    -11.074295
  C       3.087938     -0.778281    -10.378039
  H       3.425427     -0.325555    -11.338856
  H       3.441885     -1.835995    -10.361526
  H       3.609210     -0.239903     -9.552733
  C       1.930393      0.911704      2.302882
  H       2.932341      0.709044      2.747892
  H       1.934994      1.982760      1.987508
  C       1.713861      0.017551      1.054004
  H       0.679324      0.178835      0.660632
  H       1.764547     -1.060005      1.346684
  C       2.731958      0.293759     -0.083020
  H       3.769401      0.097468      0.285927
  H       2.699456      1.383883     -0.325609
  C       2.461213     -0.540649     -1.360843
  H       2.500165     -1.626470     -1.100079
  H       1.415540     -0.355386     -1.700299
  C       3.440300     -0.284726     -2.540336
  H       4.473197     -0.585661     -2.237730
  H       3.154644     -0.953727     -3.387638
  C       3.495071      1.187508     -3.071321
  H       4.190940      1.222003     -3.939989
  H       3.955437      1.838111     -2.288661
  C       2.138629      1.766232     -3.446075
  H       1.485078      2.047320     -2.596306
  C       1.643638      1.953392     -4.695633
  H       0.631353      2.399703     -4.784608
  C       2.340903      1.658523     -6.014190
  H       1.607304      1.191596     -6.714377
  H       3.153830      0.908392     -5.875170
  C       2.924573      2.933031     -6.697153
  H       3.703083      3.375944     -6.029473
  H       2.118777      3.700842     -6.778372
  C       3.533303      2.646538     -8.095661
  H       4.271984      1.813971     -7.999002
  H       2.731143      2.262434     -8.774041
  C       4.231776      3.861724     -8.764221
  H       5.055922      4.225714     -8.100965
  H       4.730885      3.517223     -9.703187
  C       3.291212      5.047369     -9.103863
  H       2.809923      5.430651     -8.171764
  H       2.453192      4.679644     -9.747675
  C       4.009208      6.222753     -9.814751
  H       4.854502      6.578904     -9.174096
  H       4.482717      5.854065    -10.759163
  C       3.077988      7.418401    -10.141194
  H       2.237215      7.063495    -10.787235
  H       2.600123      7.779545     -9.196918
  C       3.805371      8.595362    -10.836422
  H       3.107449      9.433954    -11.063325
  H       4.622394      9.001881    -10.194805
  H       4.269301      8.273736    -11.798741
138
Coordinates from ORCA-job /wrk/rja7/qm_final_3_replicates/qm_final_1.1/qm/4/freq E -2722.583898561920
  N      -3.123607     -4.529581     13.322549
  C      -2.340996     -5.361885     12.227356
  H      -2.396355     -6.421035     12.560493
  H      -1.281199     -5.042552     12.272844
  C      -4.054999     -5.468697     14.071445
  H      -4.616832     -4.897569     14.839750
  H      -4.766198     -5.919560     13.348330
  H      -3.460322     -6.267962     14.559548
  C      -3.957580     -3.361000     12.760200
  H      -3.261319     -2.650421     12.267522
  H      -4.701482     -3.759936     12.045888
  H      -4.474601     -2.894567     13.625798
  C      -2.085015     -3.938497     14.281673
  H      -1.458941     -3.236842     13.687363
  H      -1.476680     -4.766852     14.700690
  H      -2.617663     -3.408902     15.099732
  C      -2.818798     -5.247035     10.757281
  H      -2.189233     -6.010760     10.224730
  H      -3.884912     -5.576444     10.656757
  P      -1.141248     -3.146358     10.411860
  O      -0.065962     -4.222878     10.289217
  O      -1.315179     -2.262341     11.654161
  O      -2.699147     -3.959399     10.186990
  O      -1.239866     -2.153085      9.069704
  C      -1.084471     -2.753567      7.768409
  H      -2.023270     -3.288289      7.474261
  H      -0.250648     -3.498376      7.772252
  C      -0.776641     -1.644046      6.747522
  H       0.074473     -1.026608      7.109648
  O      -1.976440     -0.799837      6.641782
  C      -1.816928      0.560194      6.516975
  O      -0.738050      1.138652      6.494529
  C      -3.177954      1.259990      6.355409
  H      -3.232197      2.058965      7.130972
  H      -4.003457      0.539116      6.545562
  C      -0.457734     -2.234161      5.350150
  H      -1.287620     -2.892053      5.006435
  H       0.490590     -2.815080      5.389889
  O      -0.360590     -1.172820      4.354733
  C       0.890862     -0.627124      4.110360
  O       1.935104     -1.117312      4.511091
  C       0.768938      0.680321      3.317224
  H      -0.243011      0.758707      2.863691
  H       0.830002      1.487134      4.087257
  C      -3.313810      1.897587      4.939013
  H      -2.447856      2.582683      4.775841
  H      -4.227370      2.539161      4.917914
  C      -3.378672      0.850594      3.795578
  H      -4.311990      0.243170      3.899824
  H      -2.536874      0.130403      3.904445
  C      -3.319527      1.468428      2.376016
  H      -2.388143      2.081423      2.283887
  H      -4.166468      2.184638      2.231560
  C      -3.338868      0.404177      1.248210
  H      -4.303514     -0.161292      1.288054
  H      -2.538141     -0.346454      1.450639
  C      -3.157294      1.001662     -0.171065
  H      -2.152162      1.486558     -0.242841
  H      -3.907985      1.816915     -0.319072
  C      -3.311715     -0.028248     -1.336550
  H      -3.285251      0.519408     -2.305312
  H      -4.334945     -0.478537     -1.265310
  C      -2.283847     -1.149438     -1.319447
  H      -2.317577     -1.805668     -0.426849
  C      -1.343981     -1.429197     -2.257973
  H      -0.679282     -2.298345     -2.068568
  C      -1.082374     -0.715348     -3.572609
  H      -0.025896     -0.353082     -3.586390
  H      -1.712733      0.198392     -3.668537
  C      -1.302267     -1.627817     -4.816962
  H      -2.390126     -1.866163     -4.911489
  H      -0.793774     -2.610161     -4.650486
  C      -0.774832     -1.003335     -6.133825
  H       0.324024     -0.842501     -6.030700
  H      -1.218100      0.015386     -6.268101
  C      -1.071131     -1.856222     -7.394799
  H      -2.177118     -1.983639     -7.489782
  H      -0.660230     -2.887071     -7.250903
  C      -0.515203     -1.265812     -8.721251
  H      -0.864302     -0.208179     -8.828326
  H      -0.964695     -1.819085     -9.581732
  C       1.029945     -1.311595     -8.857562
  H       1.371750     -2.374068     -8.776757
  H       1.507265     -0.775349     -8.003306
  C       1.552355     -0.701348    -10.183784
  H       1.233907      0.369528    -10.244461
  H       1.056440     -1.211921    -11.046004
  C       3.090070     -0.791258    -10.341156
  H       3.433679     -0.324291    -11.292945
  H       3.437108     -1.851342    -10.341780
  H       3.612645     -0.270228     -9.505171
  C       1.876860      0.869734      2.249102
  H       2.872069      0.674898      2.712208
  H       1.879323      1.940541      1.932756
  C       1.689124     -0.026404      0.996573
  H       0.659370      0.125794      0.587322
  H       1.744800     -1.103299      1.290611
  C       2.724118      0.258145     -0.122988
  H       3.756488      0.062544      0.260329
  H       2.692365      1.349349     -0.361408
  C       2.476256     -0.571930     -1.408244
  H       2.516476     -1.658978     -1.152489
  H       1.434897     -0.390088     -1.761240
  C       3.469896     -0.307295     -2.573421
  H       4.498123     -0.614291     -2.261387
  H       3.191073     -0.967311     -3.430150
  C       3.536486      1.169197     -3.090646
  H       4.235278      1.206155     -3.956852
  H       3.998894      1.809367     -2.300496
  C       2.185822      1.760840     -3.464148
  H       1.530942      2.036478     -2.613426
  C       1.696558      1.966392     -4.713387
  H       0.687676      2.419757     -4.800953
  C       2.394202      1.681259     -6.033423
  H       1.659380      1.223313     -6.738517
  H       3.204394      0.926972     -5.900951
  C       2.982366      2.960071     -6.703540
  H       3.760076      3.395258     -6.029795
  H       2.178530      3.730228     -6.780108
  C       3.594277      2.684635     -8.102326
  H       4.334217      1.852540     -8.009384
  H       2.794614      2.303675     -8.785242
  C       4.292289      3.905871     -8.759934
  H       5.109622      4.270002     -8.088338
  H       4.799864      3.567663     -9.696484
  C       3.350033      5.089494     -9.101779
  H       2.863342      5.470256     -8.171600
  H       2.515863      4.720280     -9.749783
  C       4.067268      6.267354     -9.809259
  H       4.909688      6.625343     -9.165706
  H       4.544885      5.900338    -10.752249
  C       3.134142      7.460788    -10.137810
  H       2.293872      7.103361    -10.783256
  H       2.655674      7.822855     -9.194203
  C       3.859557      8.637438    -10.835581
  H       3.159851      9.473744    -11.065470
  H       4.675140      9.047786    -10.194570
  H       4.325004      8.314115    -11.796564
138
Coordinates from ORCA-job /wrk/rja7/qm_final_3_replicates/qm_final_1.1/qm/4/freq E -2722.583938368829
  N      -3.116727     -4.522316     13.334652
  C      -2.336713     -5.357234     12.239993
  H      -2.390940     -6.415685     12.575638
  H      -1.276922     -5.037174     12.281888
  C      -4.047160     -5.458542     14.088392
  H      -4.604769     -4.884516     14.857543
  H      -4.762093     -5.909530     13.369030
  H      -3.451947     -6.257713     14.576113
  C      -3.950880     -3.354092     12.771473
  H      -3.255157     -2.646641     12.273774
  H      -4.698387     -3.753904     12.061331
  H      -4.463417     -2.883584     13.637561
  C      -2.075486     -3.929532     14.289921
  H      -1.451013     -3.229217     13.692390
  H      -1.466539     -4.757369     14.708899
  H      -2.605948     -3.397677     15.107921
  C      -2.817747     -5.245438     10.770947
  H      -2.188446     -6.009439     10.238484
  H      -3.883772     -5.576001     10.672822
  P      -1.141470     -3.145125     10.417841
  O      -0.066525     -4.221850     10.294012
  O      -1.311944     -2.258444     11.658679
  O      -2.699809     -3.958556     10.198870
  O      -1.243560     -2.154930      9.073873
  C      -1.087075     -2.757775      7.773837
  H      -2.024099     -3.296723      7.481683
  H      -0.250385     -3.499323      7.778815
  C      -0.783560     -1.649582      6.750141
  H       0.068265     -1.030674      7.108059
  O      -1.984108     -0.806294      6.645838
  C      -1.825635      0.554053      6.522497
  O      -0.747194      1.133455      6.502173
  C      -3.186981      1.252331      6.358114
  H      -3.241900      2.054786      7.129887
  H      -4.011940      0.531458      6.550623
  C      -0.468670     -2.240679      5.352489
  H      -1.301612     -2.895731      5.010858
  H       0.478128     -2.824227      5.389855
  O      -0.371396     -1.179943      4.356338
  C       0.880297     -0.635024      4.110664
  O       1.924586     -1.126453      4.509731
  C       0.757963      0.673224      3.319058
  H      -0.252985      0.750048      2.862562
  H       0.814663      1.479537      4.089987
  C      -3.322751      1.884715      4.939025
  H      -2.459315      2.573041      4.775963
  H      -4.239073      2.522273      4.915008
  C      -3.380856      0.835007      3.797886
  H      -4.310722      0.222450      3.903344
  H      -2.535354      0.119627      3.908523
  C      -3.325041      1.450180      2.376897
  H      -2.398549      2.070587      2.284218
  H      -4.177679      2.159119      2.230293
  C      -3.334579      0.383158      1.251188
  H      -4.293911     -0.191158      1.292667
  H      -2.527041     -0.359928      1.455266
  C      -3.159738      0.979946     -0.169237
  H      -2.158377      1.472033     -0.243015
  H      -3.916552      1.789439     -0.316987
  C      -3.309897     -0.050677     -1.334682
  H      -3.291788      0.498168     -2.302990
  H      -4.329013     -0.509619     -1.259893
  C      -2.272903     -1.163395     -1.325418
  H      -2.298867     -1.824273     -0.435928
  C      -1.333866     -1.430935     -2.268711
  H      -0.661455     -2.295603     -2.086733
  C      -1.081438     -0.706480     -3.579894
  H      -0.025248     -0.343071     -3.596848
  H      -1.714520      0.206395     -3.663631
  C      -1.306989     -1.610007     -4.829722
  H      -2.395616     -1.844925     -4.923609
  H      -0.800713     -2.594642     -4.670224
  C      -0.779533     -0.979832     -6.144011
  H       0.318755     -0.816269     -6.038821
  H      -1.224864      0.038200     -6.276258
  C      -1.072824     -1.830633     -7.407170
  H      -2.178665     -1.957113     -7.504942
  H      -0.662979     -2.861944     -7.263561
  C      -0.512943     -1.240063     -8.731967
  H      -0.859990     -0.181789     -8.839980
  H      -0.961370     -1.792663     -9.593423
  C       1.032367     -1.289241     -8.865286
  H       1.372048     -2.352119     -8.781753
  H       1.508909     -0.752446     -8.010856
  C       1.559155     -0.683160    -10.191863
  H       1.240501      0.387335    -10.257326
  H       1.066290     -1.197138    -11.053852
  C       3.097331     -0.773920    -10.343646
  H       3.444025     -0.313753    -11.297623
  H       3.443934     -1.834117    -10.335668
  H       3.617204     -0.247290     -9.509751
  C       1.868336      0.864268      2.254030
  H       2.862405      0.666951      2.718602
  H       1.872814      1.935874      1.940274
  C       1.679953     -0.029245      0.999824
  H       0.650184      0.124485      0.591277
  H       1.734600     -1.106675      1.292260
  C       2.715048      0.253595     -0.119909
  H       3.746900      0.051292      0.261497
  H       2.689118      1.345453     -0.355809
  C       2.460005     -0.572964     -1.406007
  H       2.494523     -1.660641     -1.151727
  H       1.418546     -0.384647     -1.755550
  C       3.452516     -0.314061     -2.573391
  H       4.478552     -0.632225     -2.265293
  H       3.164657     -0.968400     -3.431497
  C       3.532966      1.162933     -3.086866
  H       4.232812      1.194978     -3.952448
  H       4.000875      1.796970     -2.295106
  C       2.188653      1.768586     -3.460886
  H       1.536609      2.052053     -2.610388
  C       1.703315      1.980320     -4.710664
  H       0.700117      2.445853     -4.799301
  C       2.399498      1.688872     -6.030408
  H       1.661507      1.233747     -6.733797
  H       3.205612      0.930506     -5.896711
  C       2.994771      2.963097     -6.703410
  H       3.775038      3.395970     -6.031119
  H       2.194752      3.737150     -6.781045
  C       3.603524      2.682322     -8.102646
  H       4.342249      1.849229     -8.009054
  H       2.801739      2.300227     -8.782213
  C       4.301081      3.900452     -8.766809
  H       5.122075      4.264890     -8.099827
  H       4.803863      3.559068     -9.704713
  C       3.359026      5.084635     -9.107434
  H       2.877717      5.468661     -8.175789
  H       2.520975      4.714467     -9.749962
  C       4.074106      6.259330     -9.821928
  H       4.920661      6.618051     -9.184223
  H       4.545772      5.889306    -10.766726
  C       3.140756      7.453275    -10.148283
  H       2.296340      7.095485    -10.788097
  H       2.668328      7.818295     -9.202819
  C       3.864324      8.627114    -10.852590
  H       3.165325      9.465001    -11.078782
  H       4.685274      9.036170    -10.217580
  H       4.322691      8.301502    -11.816216
138
Coordinates from ORCA-job /wrk/rja7/qm_final_3_replicates/qm_final_1.1/qm/4/freq E -2722.583984403680
  N      -3.096571     -4.495703     13.356404
  C      -2.325940     -5.334968     12.258674
  H      -2.380916     -6.392652     12.596706
  H      -1.264961     -5.017453     12.292318
  C      -4.021707     -5.427771     14.121796
  H      -4.568588     -4.849682     14.895605
  H      -4.746368     -5.877434     13.411389
  H      -3.423531     -6.227606     14.604896
  C      -3.933465     -3.328155     12.796033
  H      -3.241334     -2.624994     12.287052
  H      -4.690522     -3.728619     12.096098
  H      -4.434661     -2.851586     13.665455
  C      -2.047222     -3.899828     14.301515
  H      -1.428482     -3.200502     13.696730
  H      -1.434997     -4.726491     14.717933
  H      -2.571272     -3.364930     15.121696
  C      -2.815495     -5.224969     10.792149
  H      -2.190350     -5.991300     10.258006
  H      -3.882580     -5.553694     10.699928
  P      -1.136733     -3.128560     10.426681
  O      -0.064646     -4.208661     10.306824
  O      -1.303224     -2.234010     11.662272
  O      -2.697383     -3.939836     10.216558
  O      -1.238244     -2.146739      9.076480
  C      -1.086460     -2.759566      7.780434
  H      -2.023178     -3.303829      7.497114
  H      -0.247449     -3.498424      7.787441
  C      -0.790771     -1.658848      6.746575
  H       0.063419     -1.036870      7.093458
  O      -1.992127     -0.816125      6.642981
  C      -1.833758      0.543846      6.512923
  O      -0.754958      1.122307      6.484545
  C      -3.195043      1.242441      6.349780
  H      -3.244697      2.051492      7.114849
  H      -4.019871      0.523954      6.551635
  C      -0.485232     -2.259616      5.351011
  H      -1.323413     -2.912137      5.017356
  H       0.459141     -2.847134      5.385815
  O      -0.388529     -1.204345      4.349023
  C       0.864814     -0.668056      4.092266
  O       1.908733     -1.164283      4.486153
  C       0.743101      0.638048      3.297226
  H      -0.265302      0.708713      2.833446
  H       0.788300      1.445735      4.067758
  C      -3.337861      1.866288      4.927177
  H      -2.476020      2.555105      4.757595
  H      -4.255541      2.501995      4.904426
  C      -3.399503      0.812103      3.790911
  H      -4.326656      0.196809      3.904852
  H      -2.551122      0.099919      3.898600
  C      -3.355289      1.422951      2.367229
  H      -2.434590      2.050664      2.268043
  H      -4.214383      2.124513      2.222851
  C      -3.362519      0.351879      1.244979
  H      -4.314937     -0.233045      1.296976
  H      -2.545289     -0.381803      1.444971
  C      -3.205660      0.944904     -0.179335
  H      -2.213980      1.455086     -0.260221
  H      -3.978054      1.739001     -0.328638
  C      -3.341252     -0.093748     -1.338875
  H      -3.342004      0.450888     -2.309620
  H      -4.348853     -0.575874     -1.255192
  C      -2.278962     -1.181972     -1.334460
  H      -2.288615     -1.846976     -0.447604
  C      -1.334996     -1.421713     -2.280199
  H      -0.641210     -2.270517     -2.105200
  C      -1.104047     -0.684456     -3.588952
  H      -0.053397     -0.305535     -3.610292
  H      -1.752828      0.218466     -3.660545
  C      -1.323879     -1.584887     -4.841998
  H      -2.410998     -1.825021     -4.938628
  H      -0.813151     -2.567491     -4.684033
  C      -0.796021     -0.949827     -6.153267
  H       0.300022     -0.774896     -6.042027
  H      -1.250038      0.063871     -6.289396
  C      -1.074802     -1.804317     -7.416888
  H      -2.179193     -1.936412     -7.523278
  H      -0.660727     -2.833193     -7.268566
  C      -0.507488     -1.212521     -8.737670
  H      -0.854541     -0.154415     -8.847896
  H      -0.949781     -1.765515     -9.601986
  C       1.038517     -1.260878     -8.860213
  H       1.377808     -2.323816     -8.775953
  H       1.509116     -0.725383     -8.001405
  C       1.574621     -0.654047    -10.182423
  H       1.255389      0.416082    -10.250161
  H       1.088893     -1.168638    -11.048086
  C       3.114011     -0.744387    -10.322088
  H       3.467796     -0.287646    -11.275107
  H       3.460488     -1.804583    -10.307396
  H       3.627080     -0.214611     -9.486381
  C       1.859016      0.832859      2.239106
  H       2.850877      0.636909      2.708795
  H       1.862577      1.904794      1.926399
  C       1.677704     -0.060414      0.983906
  H       0.649212      0.091101      0.571931
  H       1.733514     -1.137890      1.276149
  C       2.714599      0.224580     -0.133223
  H       3.745835      0.019462      0.248545
  H       2.690732      1.316961     -0.366219
  C       2.457679     -0.597657     -1.421624
  H       2.488958     -1.686186     -1.170202
  H       1.416366     -0.405120     -1.769943
  C       3.450347     -0.338090     -2.588735
  H       4.474378     -0.666714     -2.284871
  H       3.156111     -0.983140     -3.451681
  C       3.540852      1.142491     -3.089935
  H       4.243837      1.177665     -3.952913
  H       4.009514      1.767437     -2.291613
  C       2.201071      1.758910     -3.463594
  H       1.550271      2.044567     -2.612847
  C       1.719839      1.979510     -4.713286
  H       0.720859      2.454533     -4.801908
  C       2.415662      1.687879     -6.033450
  H       1.676426      1.234571     -6.736631
  H       3.220798      0.928402     -5.900653
  C       3.012941      2.962196     -6.705189
  H       3.794210      3.393168     -6.032851
  H       2.213840      3.737541     -6.780934
  C       3.619964      2.684024     -8.105949
  H       4.359686      1.851581     -8.014847
  H       2.817645      2.301715     -8.784640
  C       4.315334      3.903621     -8.770112
  H       5.139599      4.265659     -8.105859
  H       4.813902      3.564744     -9.711231
  C       3.372560      5.089534     -9.103106
  H       2.896128      5.470663     -8.167720
  H       2.531177      4.722117     -9.742886
  C       4.086046      6.266031     -9.815780
  H       4.936219      6.620692     -9.180650
  H       4.552819      5.899714    -10.764449
  C       3.153335      7.463199    -10.132278
  H       2.306245      7.110773    -10.771475
  H       2.684541      7.823177     -9.183068
  C       3.876935      8.640421    -10.830824
  H       3.179172      9.481558    -11.048594
  H       4.700852      9.043017    -10.195496
  H       4.331737      8.320873    -11.798179
138
Coordinates from ORCA-job /wrk/rja7/qm_final_3_replicates/qm_final_1.1/qm/4/freq E -2722.584006196375
  N      -3.086104     -4.487764     13.358498
  C      -2.318528     -5.327916     12.259946
  H      -2.372113     -6.385265     12.599183
  H      -1.257625     -5.009685     12.289495
  C      -4.003758     -5.419316     14.133478
  H      -4.544302     -4.839189     14.910121
  H      -4.733983     -5.871102     13.430229
  H      -3.400511     -6.217046     14.613763
  C      -3.929571     -3.324741     12.798790
  H      -3.242466     -2.622135     12.282309
  H      -4.691714     -3.729282     12.106667
  H      -4.424958     -2.844970     13.669825
  C      -2.033238     -3.883768     14.295366
  H      -1.421761     -3.183941     13.683680
  H      -1.415159     -4.706362     14.711067
  H      -2.554559     -3.347182     15.116202
  C      -2.812399     -5.219570     10.794463
  H      -2.187846     -5.985482     10.258998
  H      -3.879280     -5.549557     10.704744
  P      -1.139467     -3.118853     10.424501
  O      -0.064417     -4.196136     10.306257
  O      -1.308215     -2.221611     11.657862
  O      -2.697829     -3.934588     10.217741
  O      -1.244546     -2.141244      9.071867
  C      -1.087423     -2.757692      7.778280
  H      -2.020035     -3.309780      7.496278
  H      -0.243337     -3.490636      7.788946
  C      -0.797095     -1.659149      6.741393
  H       0.055309     -1.033117      7.085373
  O      -2.001026     -0.820113      6.634728
  C      -1.844677      0.540062      6.502645
  O      -0.766716      1.120375      6.477115
  C      -3.205908      1.236867      6.334278
  H      -3.256650      2.050034      7.094773
  H      -4.031122      0.519159      6.537374
  C      -0.490157     -2.261334      5.347030
  H      -1.329010     -2.912144      5.011691
  H       0.453269     -2.850203      5.382638
  O      -0.390190     -1.205009      4.346472
  C       0.864175     -0.667776      4.095826
  O       1.906520     -1.164120      4.493517
  C       0.743787      0.637816      3.300225
  H      -0.263326      0.706185      2.832986
  H       0.784223      1.445961      4.070508
  C      -3.345674      1.855603      4.908829
  H      -2.482598      2.542925      4.739429
  H      -4.262815      2.491948      4.882506
  C      -3.406485      0.798257      3.775905
  H      -4.333907      0.183591      3.891412
  H      -2.558369      0.086157      3.885937
  C      -3.361122      1.405284      2.350408
  H      -2.441487      2.034339      2.250530
  H      -4.221263      2.105087      2.203454
  C      -3.366696      0.330837      1.231376
  H      -4.316617     -0.257648      1.288071
  H      -2.546313     -0.399293      1.431793
  C      -3.213828      0.919074     -0.195162
  H      -2.227547      1.439407     -0.276348
  H      -3.994481      1.703570     -0.351046
  C      -3.334645     -0.126604     -1.349577
  H      -3.342163      0.412784     -2.323085
  H      -4.334782     -0.623608     -1.264345
  C      -2.256072     -1.198270     -1.340964
  H      -2.258147     -1.863995     -0.454523
  C      -1.305154     -1.420086     -2.283771
  H      -0.597622     -2.257497     -2.109936
  C      -1.086979     -0.678099     -3.592705
  H      -0.035716     -0.301775     -3.622460
  H      -1.735460      0.225807     -3.654057
  C      -1.320154     -1.575934     -4.845552
  H      -2.408648     -1.812873     -4.933168
  H      -0.811218     -2.560243     -4.692648
  C      -0.802295     -0.941220     -6.160594
  H       0.293469     -0.760104     -6.055880
  H      -1.261810      0.069976     -6.297256
  C      -1.084458     -1.799298     -7.421045
  H      -2.188991     -1.934270     -7.522374
  H      -0.667117     -2.826760     -7.272724
  C      -0.524304     -1.207476     -8.744600
  H      -0.873488     -0.150043     -8.854037
  H      -0.968839     -1.761902     -9.606872
  C       1.021300     -1.252333     -8.871624
  H       1.363395     -2.314332     -8.786822
  H       1.492884     -0.714433     -8.014722
  C       1.552687     -0.646322    -10.195972
  H       1.227417      0.421725    -10.266480
  H       1.069418     -1.166306    -11.059767
  C       3.092587     -0.728972    -10.335686
  H       3.443451     -0.278496    -11.292730
  H       3.444382     -1.787285    -10.311962
  H       3.603142     -0.189462     -9.504512
  C       1.861875      0.832166      2.244554
  H       2.852832      0.634841      2.715635
  H       1.866930      1.904237      1.932422
  C       1.680182     -0.060935      0.989572
  H       0.651557      0.090842      0.577988
  H       1.735326     -1.138415      1.281898
  C       2.715735      0.223285     -0.128631
  H       3.747196      0.014082      0.250365
  H       2.694957      1.316164     -0.359048
  C       2.452303     -0.594586     -1.418454
  H       2.478495     -1.683853     -1.169752
  H       1.410998     -0.396056     -1.763835
  C       3.443556     -0.335488     -2.586656
  H       4.466136     -0.673994     -2.288734
  H       3.142157     -0.971897     -3.453455
  C       3.542095      1.148308     -3.076164
  H       4.242791      1.186545     -3.940920
  H       4.016884      1.763603     -2.274214
  C       2.204686      1.776476     -3.439898
  H       1.563371      2.069208     -2.584391
  C       1.716959      1.999461     -4.686317
  H       0.721599      2.483386     -4.769645
  C       2.401403      1.697028     -6.010019
  H       1.654147      1.247244     -6.706973
  H       3.201398      0.931816     -5.879525
  C       3.005472      2.964903     -6.687721
  H       3.791093      3.392336     -6.018265
  H       2.211625      3.745650     -6.764050
  C       3.609304      2.679818     -8.088507
  H       4.345168      1.844090     -7.995887
  H       2.804909      2.299754     -8.766110
  C       4.311869      3.894306     -8.754433
  H       5.136632      4.253338     -8.089133
  H       4.810779      3.550604     -9.693655
  C       3.376395      5.084606     -9.093043
  H       2.898760      5.469789     -8.159926
  H       2.535468      4.720505     -9.735256
  C       4.099289      6.255915     -9.804604
  H       4.949231      6.606374     -9.166889
  H       4.567384      5.885685    -10.751122
  C       3.174976      7.458362    -10.126285
  H       2.328916      7.110666    -10.769375
  H       2.703649      7.821557     -9.179516
  C       3.908933      8.631105    -10.821525
  H       3.217654      9.476856    -11.042059
  H       4.732579      9.028142    -10.182339
  H       4.366212      8.309058    -11.786870
138
Coordinates from ORCA-job /wrk/rja7/qm_final_3_replicates/qm_final_1.1/qm/4/freq E -2722.584031315701
  N      -3.059881     -4.455581     13.393540
  C      -2.307042     -5.304405     12.290946
  H      -2.366144     -6.360421     12.633149
  H      -1.243232     -4.994598     12.310712
  C      -3.966072     -5.381481     14.188553
  H      -4.493491     -4.795882     14.970152
  H      -4.707678     -5.836486     13.499493
  H      -3.355944     -6.176784     14.664156
  C      -3.911862     -3.298385     12.835118
  H      -3.232981     -2.598447     12.304357
  H      -4.682235     -3.709692     12.156205
  H      -4.397023     -2.812257     13.708327
  C      -1.995203     -3.842227     14.312115
  H      -1.392088     -3.147767     13.685584
  H      -1.371948     -4.660826     14.728076
  H      -2.507029     -3.298056     15.133931
  C      -2.810033     -5.197137     10.827931
  H      -2.193096     -5.968501     10.291379
  H      -3.879312     -5.520885     10.745561
  P      -1.131216     -3.101692     10.441644
  O      -0.058788     -4.183086     10.334971
  O      -1.298500     -2.190222     11.664712
  O      -2.691349     -3.915538     10.245055
  O      -1.234328     -2.138350      9.078311
  C      -1.084010     -2.769410      7.790992
  H      -2.017367     -3.326540      7.521375
  H      -0.238637     -3.500871      7.804835
  C      -0.802631     -1.682300      6.739899
  H       0.052791     -1.052758      7.069677
  O      -2.007445     -0.844495      6.634498
  C      -1.852187      0.514488      6.487974
  O      -0.774600      1.094649      6.446946
  C      -3.214860      1.210005      6.328398
  H      -3.259059      2.026127      7.086209
  H      -4.038186      0.492893      6.540897
  C      -0.507350     -2.299307      5.349256
  H      -1.348877     -2.953396      5.027167
  H       0.436116     -2.888144      5.382828
  O      -0.415200     -1.252372      4.337892
  C       0.837877     -0.721683      4.066727
  O       1.883537     -1.218179      4.455393
  C       0.710085      0.579087      3.264210
  H      -0.294299      0.633745      2.789240
  H       0.733482      1.389548      4.032965
  C      -3.367570      1.824899      4.902750
  H      -2.507498      2.513887      4.724951
  H      -4.286568      2.458729      4.882257
  C      -3.435258      0.764483      3.773089
  H      -4.359700      0.147257      3.898389
  H      -2.583885      0.055294      3.877498
  C      -3.404878      1.368786      2.346181
  H      -2.489654      2.002533      2.237285
  H      -4.269933      2.063921      2.205388
  C      -3.415971      0.292799      1.229001
  H      -4.360221     -0.303286      1.298691
  H      -2.587247     -0.430348      1.419643
  C      -3.285078      0.879896     -0.199834
  H      -2.309165      1.418084     -0.290366
  H      -4.081220      1.649431     -0.351608
  C      -3.395257     -0.171359     -1.350476
  H      -3.420666      0.364334     -2.325577
  H      -4.384218     -0.688356     -1.256092
  C      -2.294748     -1.220576     -1.347276
  H      -2.286412     -1.895007     -0.467535
  C      -1.333509     -1.409580     -2.286462
  H      -0.607858     -2.232361     -2.118154
  C      -1.127453     -0.652548     -3.589278
  H      -0.081497     -0.261806     -3.614447
  H      -1.788635      0.242809     -3.644545
  C      -1.344642     -1.546501     -4.848296
  H      -2.430421     -1.792448     -4.943927
  H      -0.828878     -2.527187     -4.695100
  C      -0.823746     -0.904733     -6.158757
  H       0.268887     -0.710633     -6.044337
  H      -1.293883      0.101071     -6.299710
  C      -1.086351     -1.765882     -7.421477
  H      -2.188947     -1.907458     -7.534869
  H      -0.664670     -2.790640     -7.267328
  C      -0.515095     -1.172772     -8.739773
  H      -0.861799     -0.114622     -8.850185
  H      -0.954274     -1.724976     -9.606166
  C       1.031264     -1.221470     -8.856149
  H       1.369227     -2.284876     -8.771443
  H       1.499388     -0.687155     -7.995192
  C       1.572626     -0.615584    -10.176655
  H       1.253416      0.454346    -10.246484
  H       1.090597     -1.130951    -11.043850
  C       3.112744     -0.706784    -10.309575
  H       3.470266     -0.259716    -11.265762
  H       3.458564     -1.767034    -10.282800
  H       3.622610     -0.169077     -9.477049
  C       1.834026      0.784496      2.216861
  H       2.823076      0.590641      2.693221
  H       1.834463      1.857954      1.909713
  C       1.666127     -0.103034      0.956041
  H       0.640293      0.047503      0.537009
  H       1.722844     -1.181803      1.243187
  C       2.709441      0.191741     -0.152748
  H       3.738470     -0.018941      0.231814
  H       2.688416      1.286461     -0.373802
  C       2.456070     -0.614091     -1.452427
  H       2.477555     -1.705483     -1.213011
  H       1.418485     -0.409665     -1.805178
  C       3.457814     -0.346138     -2.610188
  H       4.476943     -0.691403     -2.308338
  H       3.160890     -0.972192     -3.485968
  C       3.564130      1.142563     -3.083666
  H       4.270207      1.188511     -3.943679
  H       4.035656      1.747758     -2.272318
  C       2.230370      1.778770     -3.448416
  H       1.588674      2.071566     -2.593384
  C       1.746300      2.008874     -4.695020
  H       0.753294      2.497724     -4.778435
  C       2.431633      1.710082     -6.018986
  H       1.685145      1.260181     -6.716971
  H       3.232756      0.945913     -5.889738
  C       3.033039      2.980527     -6.694269
  H       3.817014      3.408709     -6.023377
  H       2.237545      3.759592     -6.770963
  C       3.639650      2.697832     -8.094501
  H       4.376335      1.863037     -8.001617
  H       2.836605      2.317746     -8.773758
  C       4.342195      3.912927     -8.759199
  H       5.167256      4.271878     -8.094390
  H       4.841031      3.569208     -9.698568
  C       3.406793      5.103141     -9.098206
  H       2.930568      5.490253     -8.165109
  H       2.564903      4.738340     -9.738694
  C       4.129637      6.272600     -9.813025
  H       4.980411      6.623957     -9.176963
  H       4.596492      5.899857    -10.759181
  C       3.205674      7.474720    -10.137071
  H       2.358944      7.125543    -10.778428
  H       2.735268      7.840830     -9.190939
  C       3.939379      8.645095    -10.836551
  H       3.248413      9.490719    -11.058475
  H       4.764220      9.043263    -10.199596
  H       4.395057      8.320015    -11.801637
138
Coordinates from ORCA-job /wrk/rja7/qm_final_3_replicates/qm_final_1.1/qm/4/freq E -2722.584059437896
  N      -3.053728     -4.438111     13.408057
  C      -2.303139     -5.295374     12.310111
  H      -2.363284     -6.349218     12.658678
  H      -1.238905     -4.986929     12.326285
  C      -3.950147     -5.360089     14.218476
  H      -4.475783     -4.769261     14.997387
  H      -4.693400     -5.826043     13.538541
  H      -3.333047     -6.147328     14.698419
  C      -3.915878     -3.293049     12.840781
  H      -3.243550     -2.592131     12.303586
  H      -4.683636     -3.717412     12.167050
  H      -4.404382     -2.802986     13.709914
  C      -1.987494     -3.807558     14.313526
  H      -1.391507     -3.118038     13.674589
  H      -1.357695     -4.617576     14.736552
  H      -2.498189     -3.256295     15.131323
  C      -2.807897     -5.197102     10.846754
  H      -2.191849     -5.972155     10.314452
  H      -3.877322     -5.521045     10.768147
  P      -1.132063     -3.101680     10.444354
  O      -0.057486     -4.181381     10.343132
  O      -1.299856     -2.182974     11.662075
  O      -2.690456     -3.919378     10.254815
  O      -1.238299     -2.145599      9.076111
  C      -1.084682     -2.781412      7.791501
  H      -2.016003     -3.342694      7.523387
  H      -0.237093     -3.510289      7.809026
  C      -0.804899     -1.697322      6.736784
  H       0.048704     -1.064938      7.065905
  O      -2.011244     -0.862217      6.627365
  C      -1.857351      0.496714      6.478366
  O      -0.780320      1.077859      6.437439
  C      -3.220119      1.191244      6.315190
  H      -3.268395      2.003769      7.076742
  H      -4.043958      0.472818      6.520971
  C      -0.505941     -2.317620      5.348332
  H      -1.343794     -2.976492      5.026472
  H       0.439936     -2.902558      5.384886
  O      -0.416485     -1.272659      4.334714
  C       0.835157     -0.739420      4.062538
  O       1.882161     -1.233523      4.450525
  C       0.703614      0.561003      3.259891
  H      -0.301070      0.612714      2.785517
  H       0.725208      1.371140      4.028968
  C      -3.367012      1.812825      4.891679
  H      -2.504837      2.500419      4.719086
  H      -4.284368      2.448970      4.870783
  C      -3.434477      0.756741      3.757491
  H      -4.360106      0.140666      3.879086
  H      -2.584231      0.045766      3.860556
  C      -3.401633      1.365988      2.332724
  H      -2.485086      1.998243      2.226585
  H      -4.265035      2.063590      2.193505
  C      -3.415233      0.293731      1.212167
  H      -4.358888     -0.303028      1.283691
  H      -2.585286     -0.429276      1.397549
  C      -3.288813      0.883519     -0.216107
  H      -2.312660      1.420570     -0.310051
  H      -4.084412      1.654476     -0.363759
  C      -3.404353     -0.167207     -1.367006
  H      -3.424805      0.367830     -2.342672
  H      -4.396642     -0.677700     -1.273520
  C      -2.310612     -1.223586     -1.358791
  H      -2.313728     -1.901574     -0.481821
  C      -1.340850     -1.413898     -2.288486
  H      -0.622804     -2.242504     -2.115649
  C      -1.118785     -0.657635     -3.588583
  H      -0.066968     -0.282609     -3.609390
  H      -1.764939      0.248423     -3.648257
  C      -1.343063     -1.547898     -4.849025
  H      -2.430802     -1.785786     -4.943700
  H      -0.834409     -2.532533     -4.697791
  C      -0.820136     -0.906728     -6.158778
  H       0.273696     -0.719018     -6.045474
  H      -1.285646      0.101630     -6.296923
  C      -1.088823     -1.762956     -7.423496
  H      -2.192126     -1.900332     -7.535123
  H      -0.670596     -2.789757     -7.273499
  C      -0.517521     -1.166998     -8.740423
  H      -0.862034     -0.107751     -8.846986
  H      -0.959035     -1.715076     -9.608256
  C       1.028676     -1.219191     -8.858662
  H       1.363944     -2.283559     -8.774813
  H       1.499702     -0.686238     -7.998544
  C       1.568971     -0.613946    -10.179810
  H       1.253977      0.457441    -10.247360
  H       1.082275     -1.125926    -11.046373
  C       3.108325     -0.711052    -10.317998
  H       3.463959     -0.267148    -11.276344
  H       3.450521     -1.772455    -10.290506
  H       3.623220     -0.173817     -9.488285
  C       1.826654      0.770800      2.212419
  H       2.816316      0.578275      2.688009
  H       1.824468      1.844805      1.907234
  C       1.661583     -0.114327      0.949596
  H       0.636257      0.035954      0.529165
  H       1.719179     -1.193786      1.233986
  C       2.706107      0.186538     -0.156427
  H       3.735109     -0.021144      0.229749
  H       2.681066      1.281883     -0.374298
  C       2.458700     -0.615479     -1.459519
  H       2.481020     -1.707699     -1.223801
  H       1.422380     -0.411311     -1.815569
  C       3.463939     -0.340168     -2.612441
  H       4.483680     -0.680441     -2.307182
  H       3.174222     -0.966450     -3.490535
  C       3.563179      1.150296     -3.082425
  H       4.271648      1.202681     -3.940090
  H       4.028567      1.756440     -2.268168
  C       2.226586      1.779492     -3.449815
  H       1.582512      2.070175     -2.595950
  C       1.742535      2.005775     -4.697015
  H       0.747331      2.490019     -4.781637
  C       2.431272      1.709873     -6.019831
  H       1.687887      1.257514     -6.719624
  H       3.234767      0.948373     -5.889267
  C       3.029585      2.982284     -6.693925
  H       3.813453      3.410987     -6.023177
  H       2.232865      3.760049     -6.769611
  C       3.635563      2.701314     -8.094818
  H       4.370384      1.864708     -8.003942
  H       2.831312      2.324958     -8.774766
  C       4.340934      3.916022     -8.757034
  H       5.169643      4.269194     -8.093729
  H       4.835273      3.573744     -9.699343
  C       3.409346      5.111318     -9.088134
  H       2.937802      5.496819     -8.152008
  H       2.563857      4.752637     -9.727299
  C       4.134831      6.280647     -9.800767
  H       4.989500      6.625360     -9.166300
  H       4.596376      5.909693    -10.750209
  C       3.215119      7.488140    -10.116361
  H       2.364978      7.145325    -10.756666
  H       2.749117      7.852013     -9.167198
  C       3.951436      8.658506    -10.813106
  H       3.263198      9.507842    -11.029261
  H       4.779918      9.050596    -10.177107
  H       4.402597      8.335704    -11.781078
138
Coordinates from ORCA-job /wrk/rja7/qm_final_3_replicates/qm_final_1.1/qm/4/freq E -2722.584112203510
  N      -2.988013     -4.386792     13.472380
  C      -2.270806     -5.262648     12.365239
  H      -2.332696     -6.313128     12.723172
  H      -1.203838     -4.963801     12.354064
  C      -3.837261     -5.298981     14.342776
  H      -4.332406     -4.695896     15.132097
  H      -4.605272     -5.786536     13.706828
  H      -3.190311     -6.069480     14.810096
  C      -3.890700     -3.271080     12.910631
  H      -3.248572     -2.565802     12.344977
  H      -4.668425     -3.725732     12.268894
  H      -4.365266     -2.774966     13.783941
  C      -1.896193     -3.715652     14.317072
  H      -1.336207     -3.038168     13.633733
  H      -1.239888     -4.504952     14.739187
  H      -2.383298     -3.147257     15.137564
  C      -2.805864     -5.174993     10.911556
  H      -2.204325     -5.958382     10.374733
  H      -3.877924     -5.495224     10.859452
  P      -1.141420     -3.079011     10.453441
  O      -0.062998     -4.155689     10.358863
  O      -1.296620     -2.136191     11.654553
  O      -2.698376     -3.904153     10.302483
  O      -1.267430     -2.149039      9.069268
  C      -1.114444     -2.803869      7.794186
  H      -2.042210     -3.377477      7.539896
  H      -0.260530     -3.525153      7.818591
  C      -0.847126     -1.733007      6.722622
  H       0.004755     -1.092000      7.039630
  O      -2.058194     -0.905723      6.609215
  C      -1.912421      0.452422      6.447016
  O      -0.838890      1.039286      6.397504
  C      -3.279460      1.137875      6.279577
  H      -3.337734      1.946070      7.045324
  H      -4.099527      0.413337      6.478316
  C      -0.550135     -2.368266      5.340647
  H      -1.386209     -3.033301      5.027292
  H       0.397227     -2.950684      5.382860
  O      -0.464221     -1.334367      4.315320
  C       0.785294     -0.799510      4.036871
  O       1.834833     -1.288734      4.424326
  C       0.646818      0.498756      3.231637
  H      -0.353820      0.537908      2.747467
  H       0.650071      1.308889      4.000891
  C      -3.422470      1.763693      4.857567
  H      -2.562347      2.454911      4.689930
  H      -4.342000      2.396544      4.833726
  C      -3.481402      0.708630      3.721289
  H      -4.402060      0.085199      3.842251
  H      -2.625714      0.003683      3.823901
  C      -3.453670      1.318314      2.296877
  H      -2.540928      1.956092      2.189824
  H      -4.321300      2.010856      2.158056
  C      -3.460713      0.246051      1.176703
  H      -4.396533     -0.362179      1.254043
  H      -2.620864     -0.466663      1.357097
  C      -3.349536      0.834983     -0.252981
  H      -2.387294      1.395668     -0.349418
  H      -4.163789      1.586125     -0.402208
  C      -3.439704     -0.223209     -1.400348
  H      -3.471904      0.306760     -2.378474
  H      -4.419591     -0.756383     -1.305158
  C      -2.319630     -1.252477     -1.385526
  H      -2.316462     -1.938120     -0.514715
  C      -1.331364     -1.406041     -2.302333
  H      -0.593181     -2.216462     -2.127628
  C      -1.117059     -0.636441     -3.595465
  H      -0.069754     -0.248464     -3.614981
  H      -1.773180      0.262487     -3.651588
  C      -1.333135     -1.523252     -4.859848
  H      -2.418352     -1.775608     -4.948847
  H      -0.811118     -2.501800     -4.715154
  C      -0.827701     -0.870006     -6.170233
  H       0.266452     -0.677843     -6.069152
  H      -1.301157      0.136211     -6.296203
  C      -1.106471     -1.718554     -7.438407
  H      -2.210645     -1.853473     -7.543302
  H      -0.689510     -2.747160     -7.296740
  C      -0.540338     -1.116518     -8.755076
  H      -0.878548     -0.054219     -8.850717
  H      -0.991305     -1.654261     -9.624513
  C       1.004977     -1.178686     -8.883887
  H       1.333092     -2.245870     -8.807967
  H       1.485244     -0.653690     -8.024222
  C       1.540542     -0.568837    -10.204948
  H       1.235265      0.506059    -10.262178
  H       1.041842     -1.069392    -11.071371
  C       3.077642     -0.678161    -10.357546
  H       3.428433     -0.229476    -11.315439
  H       3.411721     -1.742376    -10.341829
  H       3.604712     -0.152054     -9.528092
  C       1.778556      0.723322      2.196713
  H       2.765163      0.537744      2.681164
  H       1.769884      1.798469      1.895605
  C       1.635139     -0.157787      0.928180
  H       0.613516     -0.012739      0.497481
  H       1.697158     -1.238096      1.208346
  C       2.689615      0.157863     -0.164155
  H       3.716145     -0.046599      0.229994
  H       2.659468      1.254985     -0.373160
  C       2.460197     -0.633395     -1.477030
  H       2.482158     -1.727742     -1.251237
  H       1.428253     -0.427897     -1.843652
  C       3.477557     -0.344166     -2.615548
  H       4.494714     -0.684378     -2.302050
  H       3.199003     -0.963311     -3.502323
  C       3.578011      1.151061     -3.070448
  H       4.294402      1.212814     -3.920819
  H       4.034713      1.750377     -2.246085
  C       2.243792      1.781769     -3.444394
  H       1.594175      2.068317     -2.593319
  C       1.766761      2.014003     -4.693288
  H       0.771951      2.498375     -4.780584
  C       2.462734      1.722977     -6.013338
  H       1.723417      1.273088     -6.719182
  H       3.264924      0.960411     -5.880758
  C       3.065889      2.995966     -6.681362
  H       3.847973      3.421621     -6.006454
  H       2.271369      3.775409     -6.759760
  C       3.676985      2.714306     -8.079856
  H       4.407577      1.874224     -7.987121
  H       2.873271      2.343296     -8.763398
  C       4.389820      3.926376     -8.738564
  H       5.220442      4.273543     -8.074508
  H       4.882044      3.583463     -9.681693
  C       3.464919      5.127637     -9.065821
  H       2.997124      5.514740     -8.128514
  H       2.616238      4.774811     -9.703996
  C       4.195438      6.293790     -9.779077
  H       5.053599      6.632930     -9.146300
  H       4.652127      5.920869    -10.730069
  C       3.281615      7.506407    -10.091215
  H       2.427320      7.167786    -10.728301
  H       2.821100      7.873211     -9.140562
  C       4.021503      8.672170    -10.791897
  H       3.336769      9.524805    -11.006229
  H       4.854669      9.060653    -10.159827
  H       4.466643      8.346033    -11.761551
138
Coordinates from ORCA-job /wrk/rja7/qm_final_3_replicates/qm_final_1.1/qm/4/freq E -2722.584134680191
  N      -2.942154     -4.357927     13.505805
  C      -2.237108     -5.243932     12.397572
  H      -2.293284     -6.291765     12.764039
  H      -1.170757     -4.943603     12.370892
  C      -3.753503     -5.266444     14.415700
  H      -4.234075     -4.656198     15.208391
  H      -4.532406     -5.775594     13.810733
  H      -3.081901     -6.018969     14.877521
  C      -3.878538     -3.270826     12.943667
  H      -3.262928     -2.562013     12.354173
  H      -4.658780     -3.752713     12.325121
  H      -4.346809     -2.769118     13.817120
  C      -1.843045     -3.649109     14.310136
  H      -1.312275     -2.977051     13.598257
  H      -1.164002     -4.417636     14.734905
  H      -2.322242     -3.071581     15.128942
  C      -2.788594     -5.170849     10.948873
  H      -2.186240     -5.953661     10.411966
  H      -3.858197     -5.500911     10.911037
  P      -1.150863     -3.061068     10.456742
  O      -0.061517     -4.127574     10.370232
  O      -1.308561     -2.101839     11.644280
  O      -2.699217     -3.904324     10.328724
  O      -1.294641     -2.151319      9.061183
  C      -1.134370     -2.817195      7.792897
  H      -2.056494     -3.402145      7.543502
  H      -0.273667     -3.530069      7.824342
  C      -0.875758     -1.752426      6.713395
  H      -0.027636     -1.103937      7.025436
  O      -2.091823     -0.933445      6.596380
  C      -1.953914      0.424548      6.428810
  O      -0.883781      1.017648      6.379382
  C      -3.324501      1.101937      6.258016
  H      -3.391298      1.906382      7.027100
  H      -4.141095      0.371865      6.450900
  C      -0.575932     -2.391907      5.334317
  H      -1.409286     -3.061015      5.022379
  H       0.373425     -2.970862      5.379522
  O      -0.492177     -1.359990      4.306717
  C       0.755470     -0.818200      4.032874
  O       1.805961     -1.299985      4.427213
  C       0.613792      0.476792      3.222890
  H      -0.383047      0.507030      2.730047
  H       0.603433      1.288672      3.990227
  C      -3.464480      1.730666      4.837501
  H      -2.605535      2.424121      4.673551
  H      -4.385555      2.361214      4.811405
  C      -3.517595      0.676916      3.699727
  H      -4.437403      0.051519      3.817051
  H      -2.660965     -0.026713      3.804389
  C      -3.485861      1.288381      2.276256
  H      -2.572300      1.925867      2.172553
  H      -4.352894      1.981305      2.135949
  C      -3.489907      0.218063      1.154217
  H      -4.424721     -0.392112      1.228732
  H      -2.649171     -0.493822      1.334246
  C      -3.377629      0.811013     -0.273624
  H      -2.418161      1.376780     -0.364835
  H      -4.194926      1.558994     -0.422932
  C      -3.460895     -0.243389     -1.425433
  H      -3.487736      0.290250     -2.401772
  H      -4.441605     -0.776145     -1.337167
  C      -2.341175     -1.273212     -1.410079
  H      -2.345676     -1.967508     -0.546155
  C      -1.344760     -1.417383     -2.320102
  H      -0.608245     -2.229691     -2.147447
  C      -1.121482     -0.635871     -3.604480
  H      -0.072360     -0.252358     -3.617664
  H      -1.773297      0.266608     -3.654636
  C      -1.339524     -1.510146     -4.877573
  H      -2.425277     -1.760124     -4.967287
  H      -0.818910     -2.490774     -4.742386
  C      -0.835546     -0.846249     -6.183406
  H       0.259250     -0.657211     -6.084102
  H      -1.307705      0.161679     -6.299661
  C      -1.119325     -1.685027     -7.457418
  H      -2.224122     -1.816060     -7.560051
  H      -0.705253     -2.715885     -7.323344
  C      -0.556011     -1.076950     -8.772886
  H      -0.891499     -0.013064     -8.860959
  H      -1.012097     -1.608296     -9.643571
  C       0.988504     -1.142605     -8.909788
  H       1.314663     -2.210794     -8.840476
  H       1.474078     -0.622553     -8.050033
  C       1.518617     -0.527181    -10.230768
  H       1.216018      0.548842    -10.280570
  H       1.013537     -1.021584    -11.097100
  C       3.054399     -0.639387    -10.392763
  H       3.400697     -0.185175    -11.349698
  H       3.386290     -1.704392    -10.386065
  H       3.587645     -0.119869     -9.562980
  C       1.752488      0.708539      2.197672
  H       2.736349      0.532362      2.691289
  H       1.737779      1.782878      1.893862
  C       1.626290     -0.176213      0.929727
  H       0.606598     -0.040099      0.491706
  H       1.694578     -1.255554      1.212138
  C       2.685490      0.145747     -0.156022
  H       3.711013     -0.054968      0.242609
  H       2.651437      1.243013     -0.363774
  C       2.465246     -0.643651     -1.471593
  H       2.489836     -1.738465     -1.248457
  H       1.434318     -0.440346     -1.842554
  C       3.487266     -0.348533     -2.604249
  H       4.503708     -0.686804     -2.286254
  H       3.214789     -0.965911     -3.494116
  C       3.587523      1.148224     -3.053502
  H       4.308578      1.213431     -3.899696
  H       4.038850      1.745384     -2.224696
  C       2.254991      1.779074     -3.432724
  H       1.600776      2.063266     -2.584208
  C       1.783519      2.013673     -4.683333
  H       0.789068      2.498065     -4.773603
  C       2.485315      1.723422     -6.000393
  H       1.748905      1.274220     -6.709680
  H       3.286516      0.960357     -5.864691
  C       3.092515      2.995565     -6.666350
  H       3.873444      3.420311     -5.989519
  H       2.299372      3.776156     -6.746931
  C       3.705750      2.711971     -8.063539
  H       4.433475      1.869484     -7.969258
  H       2.901922      2.343320     -8.748119
  C       4.422763      3.921801     -8.722108
  H       5.253643      4.267138     -8.057361
  H       4.914885      3.577118     -9.664547
  C       3.501403      5.125489     -9.050425
  H       3.034588      5.514586     -8.113510
  H       2.651723      4.774377     -9.688297
  C       4.234579      6.289234     -9.764878
  H       5.093452      6.627215     -9.132393
  H       4.690435      5.914442    -10.715534
  C       3.323257      7.503497    -10.077906
  H       2.467351      7.165598    -10.713248
  H       2.864957      7.873006     -9.127249
  C       4.064925      8.666172    -10.781825
  H       3.381971      9.520224    -10.996251
  H       4.900377      9.053575    -10.152101
  H       4.507231      8.337254    -11.751833
138
Coordinates from ORCA-job /wrk/rja7/qm_final_3_replicates/qm_final_1.1/qm/4/freq E -2722.584179532375
  N      -2.920046     -4.388986     13.494469
  C      -2.216545     -5.261470     12.375129
  H      -2.265256     -6.312912     12.732629
  H      -1.152164     -4.954218     12.346464
  C      -3.731866     -5.307462     14.394274
  H      -4.208445     -4.705839     15.195772
  H      -4.514248     -5.807095     13.786041
  H      -3.060366     -6.066757     14.845243
  C      -3.854481     -3.292280     12.947236
  H      -3.240835     -2.581201     12.356957
  H      -4.639320     -3.764524     12.326675
  H      -4.315839     -2.796190     13.827526
  C      -1.819723     -3.693951     14.308223
  H      -1.289108     -3.009566     13.608439
  H      -1.141156     -4.469552     14.720791
  H      -2.298064     -3.129485     15.136574
  C      -2.775421     -5.178302     10.930148
  H      -2.169598     -5.951391     10.383138
  H      -3.842655     -5.516196     10.893443
  P      -1.148423     -3.059299     10.451259
  O      -0.058926     -4.124772     10.352349
  O      -1.302166     -2.108416     11.645364
  O      -2.696532     -3.905038     10.323755
  O      -1.299029     -2.141447      9.061933
  C      -1.141574     -2.800817      7.790056
  H      -2.062998     -3.387104      7.540930
  H      -0.279190     -3.511821      7.815573
  C      -0.889605     -1.730791      6.714308
  H      -0.043630     -1.079664      7.026635
  O      -2.108948     -0.916242      6.602108
  C      -1.976888      0.442247      6.435877
  O      -0.909101      1.039675      6.387226
  C      -3.350578      1.114348      6.267656
  H      -3.421805      1.915480      7.039737
  H      -4.163527      0.379572      6.458681
  C      -0.590668     -2.364295      5.332605
  H      -1.423859     -3.033872      5.021005
  H       0.360069     -2.941105      5.374336
  O      -0.511558     -1.330169      4.307143
  C       0.733894     -0.782487      4.035248
  O       1.785641     -1.258034      4.433972
  C       0.589202      0.509034      3.220559
  H      -0.404836      0.532829      2.721444
  H       0.569124      1.323928      3.984754
  C      -3.492883      1.744905      4.848811
  H      -2.636635      2.441866      4.685681
  H      -4.416459      2.371908      4.823430
  C      -3.540782      0.692586      3.710149
  H      -4.459256      0.064520      3.824565
  H      -2.682877     -0.008980      3.816422
  C      -3.505729      1.305254      2.287159
  H      -2.592996      1.944691      2.186883
  H      -4.373974      1.995892      2.144263
  C      -3.501456      0.234688      1.165031
  H      -4.435530     -0.377566      1.232858
  H      -2.660903     -0.476041      1.351141
  C      -3.382033      0.829001     -0.261741
  H      -2.422742      1.396217     -0.346498
  H      -4.199310      1.576346     -0.414239
  C      -3.458991     -0.222555     -1.416184
  H      -3.479843      0.314212     -2.390984
  H      -4.441602     -0.753307     -1.334877
  C      -2.342278     -1.255360     -1.399095
  H      -2.346445     -1.944496     -0.530976
  C      -1.352119     -1.412413     -2.314590
  H      -0.619063     -2.227304     -2.139988
  C      -1.128614     -0.636184     -3.602122
  H      -0.081710     -0.246831     -3.615619
  H      -1.786323      0.261981     -3.654818
  C      -1.342479     -1.514266     -4.873143
  H      -2.427228     -1.767248     -4.965157
  H      -0.819221     -2.493164     -4.735252
  C      -0.835365     -0.852227     -6.179010
  H       0.259649     -0.665095     -6.078197
  H      -1.304881      0.156646     -6.297012
  C      -1.118144     -1.694507     -7.450831
  H      -2.222827     -1.827242     -7.552427
  H      -0.702682     -2.724469     -7.313914
  C      -0.558309     -1.090394     -8.769489
  H      -0.897195     -0.027838     -8.861978
  H      -1.014085     -1.627379     -9.636867
  C       0.985800     -1.151324     -8.909327
  H       1.316526     -2.218023     -8.839928
  H       1.470699     -0.628868     -8.050359
  C       1.511362     -0.534374    -10.231390
  H       1.204513      0.540390    -10.280991
  H       1.006507     -1.031139    -11.096591
  C       3.047121     -0.641044    -10.395534
  H       3.390902     -0.179763    -11.350039
  H       3.382483     -1.704982    -10.395891
  H       3.579715     -0.124653     -9.563463
  C       1.732809      0.742798      2.201962
  H       2.714475      0.579739      2.704580
  H       1.711173      1.814371      1.888947
  C       1.621709     -0.154640      0.941409
  H       0.602236     -0.033835      0.498342
  H       1.700313     -1.230406      1.234467
  C       2.681600      0.164832     -0.144112
  H       3.707289     -0.029693      0.257227
  H       2.644169      1.260203     -0.360601
  C       2.465370     -0.636615     -1.453126
  H       2.497884     -1.729345     -1.221016
  H       1.432222     -0.443145     -1.824273
  C       3.485533     -0.346941     -2.588839
  H       4.503465     -0.677245     -2.266818
  H       3.216289     -0.973768     -3.472934
  C       3.581184      1.145411     -3.052065
  H       4.305433      1.204175     -3.896047
  H       4.027066      1.752312     -2.227559
  C       2.248886      1.768034     -3.443464
  H       1.584322      2.048432     -2.601517
  C       1.788201      1.999515     -4.698825
  H       0.792186      2.478367     -4.798840
  C       2.503705      1.710348     -6.008567
  H       1.775442      1.256995     -6.723512
  H       3.306703      0.950705     -5.864442
  C       3.111877      2.983583     -6.671850
  H       3.886835      3.412107     -5.990653
  H       2.316260      3.761360     -6.757280
  C       3.732964      2.701308     -8.065610
  H       4.463486      1.861571     -7.967049
  H       2.934039      2.327984     -8.753151
  C       4.447054      3.914025     -8.722151
  H       5.270309      4.266428     -8.051584
  H       4.948732      3.570252     -9.659770
  C       3.520324      5.110810     -9.061010
  H       3.043722      5.498743     -8.128580
  H       2.677865      4.752597     -9.704681
  C       4.250998      6.278047     -9.771775
  H       5.101904      6.623893     -9.132734
  H       4.718032      5.904814    -10.717617
  C       3.333465      7.485133    -10.094797
  H       2.485430      7.140313    -10.736916
  H       2.864692      7.852707     -9.148512
  C       4.073194      8.652099    -10.793661
  H       3.386355      9.501404    -11.014492
  H       4.900823      9.045624    -10.157448
  H       4.525718      8.325166    -11.759608
138
Coordinates from ORCA-job /wrk/rja7/qm_final_3_replicates/qm_final_1.1/qm/4/freq E -2722.584227248093
  N      -2.857712     -4.373069     13.529328
  C      -2.175262     -5.246158     12.397527
  H      -2.219103     -6.297796     12.755071
  H      -1.111585     -4.938672     12.349596
  C      -3.644562     -5.291107     14.451754
  H      -4.098493     -4.687435     15.264703
  H      -4.443665     -5.791935     13.866747
  H      -2.960005     -6.048535     14.886079
  C      -3.809620     -3.282768     13.000275
  H      -3.214806     -2.569885     12.392685
  H      -4.605844     -3.759851     12.397647
  H      -4.253358     -2.786049     13.889219
  C      -1.743362     -3.669955     14.317490
  H      -1.233321     -2.981418     13.606546
  H      -1.051546     -4.440897     14.716475
  H      -2.207270     -3.107573     15.155532
  C      -2.757994     -5.162673     10.961533
  H      -2.158932     -5.934413     10.405121
  H      -3.824751     -5.503275     10.941176
  P      -1.143372     -3.038737     10.457404
  O      -0.053043     -4.103366     10.356162
  O      -1.288872     -2.078414     11.644486
  O      -2.690949     -3.889465     10.353541
  O      -1.307797     -2.133231      9.061596
  C      -1.155528     -2.803302      7.794461
  H      -2.073866     -3.400259      7.559158
  H      -0.287027     -3.506704      7.819708
  C      -0.920771     -1.742085      6.706059
  H      -0.075725     -1.083033      7.003895
  O      -2.145349     -0.934665      6.596636
  C      -2.020421      0.423378      6.420558
  O      -0.955268      1.024659      6.361139
  C      -3.397353      1.089699      6.255280
  H      -3.471696      1.887742      7.030252
  H      -4.206757      0.350578      6.444933
  C      -0.631084     -2.386908      5.327417
  H      -1.465510     -3.061093      5.029127
  H       0.321589     -2.960691      5.365955
  O      -0.564301     -1.362906      4.291008
  C       0.676294     -0.812276      4.003073
  O       1.733514     -1.278676      4.398056
  C       0.516565      0.471001      3.178382
  H      -0.470637      0.469892      2.664951
  H       0.464650      1.289386      3.937759
  C      -3.543227      1.725167      4.839029
  H      -2.687941      2.423464      4.676897
  H      -4.467682      2.351024      4.817735
  C      -3.591372      0.677291      3.696726
  H      -4.509546      0.048415      3.809696
  H      -2.733393     -0.024630      3.800051
  C      -3.557636      1.295274      2.275654
  H      -2.646942      1.937542      2.177360
  H      -4.428066      1.983591      2.135164
  C      -3.549786      0.227252      1.150947
  H      -4.478103     -0.393382      1.222193
  H      -2.702709     -0.476933      1.332222
  C      -3.442116      0.824178     -0.275814
  H      -2.492513      1.407786     -0.361938
  H      -4.272275      1.557060     -0.427898
  C      -3.500963     -0.229103     -1.429121
  H      -3.528612      0.306227     -2.404469
  H      -4.474972     -0.775647     -1.348652
  C      -2.368326     -1.243871     -1.409340
  H      -2.365138     -1.933757     -0.541779
  C      -1.372913     -1.386135     -2.321573
  H      -0.629342     -2.190839     -2.144825
  C      -1.156185     -0.607405     -3.609008
  H      -0.113528     -0.207369     -3.622113
  H      -1.824261      0.283318     -3.661749
  C      -1.360655     -1.489109     -4.879163
  H      -2.443527     -1.747897     -4.975158
  H      -0.832802     -2.464928     -4.736834
  C      -0.850124     -0.829072     -6.184586
  H       0.243757     -0.637208     -6.079190
  H      -1.322432      0.177708     -6.309200
  C      -1.124092     -1.678786     -7.453077
  H      -2.227949     -1.815093     -7.559698
  H      -0.706197     -2.706627     -7.308523
  C      -0.559895     -1.080295     -8.771855
  H      -0.899348     -0.018526     -8.871179
  H      -1.011531     -1.622293     -9.638300
  C       0.984558     -1.140637     -8.904638
  H       1.315677     -2.207012     -8.832401
  H       1.465572     -0.617081     -8.043921
  C       1.515555     -0.525857    -10.225232
  H       1.209680      0.549030    -10.277275
  H       1.013400     -1.023373    -11.091552
  C       3.051823     -0.634720    -10.383432
  H       3.399718     -0.173723    -11.336617
  H       3.385575     -1.699166    -10.382859
  H       3.582169     -0.119230     -9.549586
  C       1.669064      0.724711      2.175098
  H       2.646582      0.587502      2.693294
  H       1.627404      1.793407      1.854531
  C       1.596095     -0.184172      0.919995
  H       0.580401     -0.089431      0.462169
  H       1.693871     -1.255499      1.223255
  C       2.662853      0.148168     -0.154826
  H       3.686901     -0.035691      0.255556
  H       2.615873      1.242907     -0.372074
  C       2.466609     -0.656079     -1.465558
  H       2.504604     -1.748251     -1.231361
  H       1.435639     -0.470091     -1.847314
  C       3.497906     -0.362082     -2.590552
  H       4.513759     -0.686727     -2.256278
  H       3.242426     -0.991008     -3.477058
  C       3.590896      1.130180     -3.054485
  H       4.326330      1.192456     -3.888526
  H       4.021511      1.740455     -2.224551
  C       2.260265      1.744111     -3.464357
  H       1.581149      2.017551     -2.631817
  C       1.816905      1.976548     -4.725890
  H       0.819278      2.449189     -4.838941
  C       2.552415      1.696511     -6.026489
  H       1.837067      1.237637     -6.751077
  H       3.360344      0.943787     -5.873941
  C       3.156408      2.976562     -6.680978
  H       3.924863      3.407565     -5.994044
  H       2.355880      3.749468     -6.766760
  C       3.784892      2.705184     -8.073651
  H       4.518554      1.867926     -7.977053
  H       2.990235      2.331752     -8.765960
  C       4.495679      3.924525     -8.721374
  H       5.317783      4.274700     -8.048343
  H       4.998748      3.588483     -9.661135
  C       3.566044      5.121234     -9.052863
  H       3.090604      5.503338     -8.117385
  H       2.722922      4.765067     -9.696867
  C       4.294066      6.293294     -9.757949
  H       5.146646      6.635538     -9.119187
  H       4.758998      5.926502    -10.707345
  C       3.375456      7.502413    -10.070590
  H       2.526314      7.162573    -10.713834
  H       2.908306      7.862741     -9.120691
  C       4.114052      8.674997    -10.761172
  H       3.426981      9.526149    -10.974038
  H       4.942571      9.063277    -10.122898
  H       4.565370      8.355943    -11.730303
138
Coordinates from ORCA-job /wrk/rja7/qm_final_3_replicates/qm_final_1.1/qm/4/freq E -2722.584330943792
  N      -2.709418     -4.355484     13.584930
  C      -2.056659     -5.221581     12.431242
  H      -2.081751     -6.273729     12.788746
  H      -0.998529     -4.902977     12.346763
  C      -3.447644     -5.280785     14.539855
  H      -3.869152     -4.678849     15.371266
  H      -4.268478     -5.788655     13.992287
  H      -2.737863     -6.030921     14.945877
  C      -3.697195     -3.280930     13.092600
  H      -3.141329     -2.558751     12.458538
  H      -4.508350     -3.768732     12.518131
  H      -4.113580     -2.789875     13.997737
  C      -1.578196     -3.634708     14.334130
  H      -1.107979     -2.929896     13.611791
  H      -0.858886     -4.394640     14.704055
  H      -2.020986     -3.085215     15.192206
  C      -2.685517     -5.142543     11.013578
  H      -2.093142     -5.905326     10.437834
  H      -3.747302     -5.498325     11.024502
  P      -1.117222     -2.991940     10.463428
  O      -0.014624     -4.043067     10.351591
  O      -1.255357     -2.020338     11.641236
  O      -2.653936     -3.868203     10.404551
  O      -1.322064     -2.108215      9.059536
  C      -1.176370     -2.795651      7.800480
  H      -2.081828     -3.422932      7.594879
  H      -0.288870     -3.474736      7.821301
  C      -0.989084     -1.750217      6.688485
  H      -0.153381     -1.066954      6.956339
  O      -2.232336     -0.969935      6.585208
  C      -2.134194      0.387041      6.384970
  O      -1.079989      1.004949      6.301284
  C      -3.522471      1.030140      6.223108
  H      -3.612024      1.817759      7.007154
  H      -4.319680      0.275467      6.403692
  C      -0.711149     -2.415033      5.316426
  H      -1.540382     -3.106767      5.044643
  H       0.250999     -2.973072      5.348947
  O      -0.677995     -1.411170      4.259132
  C       0.546593     -0.837522      3.947644
  O       1.617540     -1.266860      4.347488
  C       0.345044      0.419826      3.093392
  H      -0.620455      0.349770      2.543976
  H       0.209896      1.246274      3.834361
  C      -3.673688      1.680874      4.814553
  H      -2.818856      2.380800      4.658174
  H      -4.598706      2.306065      4.802258
  C      -3.723188      0.645866      3.661095
  H      -4.648778      0.025514      3.760701
  H      -2.873671     -0.066544      3.764086
  C      -3.670155      1.279645      2.247009
  H      -2.752182      1.912572      2.163524
  H      -4.532635      1.977979      2.107391
  C      -3.663391      0.223351      1.111098
  H      -4.593103     -0.396077      1.174804
  H      -2.819391     -0.485414      1.287822
  C      -3.549155      0.834529     -0.309158
  H      -2.605358      1.429496     -0.380737
  H      -4.386310      1.558372     -0.464055
  C      -3.581539     -0.208664     -1.471315
  H      -3.596359      0.334897     -2.442366
  H      -4.552028     -0.764248     -1.411621
  C      -2.442333     -1.214653     -1.442050
  H      -2.445975     -1.907844     -0.577093
  C      -1.435182     -1.351009     -2.342166
  H      -0.692825     -2.155045     -2.157751
  C      -1.204355     -0.570101     -3.626394
  H      -0.159717     -0.176489     -3.630754
  H      -1.869359      0.323146     -3.680375
  C      -1.404752     -1.449082     -4.899572
  H      -2.488089     -1.700228     -5.005687
  H      -0.884185     -2.428269     -4.753414
  C      -0.876542     -0.793775     -6.200629
  H       0.217291     -0.607150     -6.083374
  H      -1.340842      0.215676     -6.333943
  C      -1.143242     -1.648323     -7.466986
  H      -2.246725     -1.784768     -7.579479
  H      -0.725597     -2.675042     -7.315809
  C      -0.574842     -1.055286     -8.785361
  H      -0.915594      0.005294     -8.891977
  H      -1.021729     -1.603303     -9.650544
  C       0.969765     -1.112901     -8.910757
  H       1.302651     -2.178789     -8.839154
  H       1.446117     -0.591228     -8.045921
  C       1.506416     -0.496577    -10.228094
  H       1.200203      0.578161    -10.280008
  H       1.008148     -0.993490    -11.096903
  C       3.043453     -0.606075    -10.379158
  H       3.395998     -0.142895    -11.329638
  H       3.376079     -1.670887    -10.379913
  H       3.570410     -0.093061     -9.542020
  C       1.516254      0.723623      2.127313
  H       2.479337      0.664983      2.686107
  H       1.417850      1.778364      1.774901
  C       1.547401     -0.223388      0.899656
  H       0.543733     -0.208651      0.406724
  H       1.702316     -1.276165      1.241212
  C       2.625452      0.139724     -0.153764
  H       3.646509     -0.011298      0.276587
  H       2.550034      1.231156     -0.378856
  C       2.477333     -0.677487     -1.463618
  H       2.532199     -1.766889     -1.219695
  H       1.450918     -0.514507     -1.869182
  C       3.531437     -0.373294     -2.565265
  H       4.543447     -0.678750     -2.202318
  H       3.310089     -1.011287     -3.454102
  C       3.611284      1.117561     -3.036208
  H       4.367005      1.188287     -3.851250
  H       4.009002      1.739109     -2.198481
  C       2.280939      1.705770     -3.481837
  H       1.575320      1.968437     -2.668295
  C       1.867667      1.928608     -4.755313
  H       0.865179      2.384148     -4.895318
  C       2.641647      1.660807     -6.036313
  H       1.951065      1.190710     -6.777863
  H       3.456571      0.919938     -5.864271
  C       3.241705      2.949837     -6.678010
  H       3.998252      3.385108     -5.980732
  H       2.434681      3.716049     -6.767965
  C       3.886022      2.692196     -8.066372
  H       4.622474      1.857446     -7.968910
  H       3.099417      2.319111     -8.767915
  C       4.597073      3.918382     -8.700352
  H       5.416278      4.263845     -8.021622
  H       5.104387      3.590888     -9.641119
  C       3.667456      5.116880     -9.025871
  H       3.191397      5.493089     -8.088114
  H       2.824701      4.764947     -9.672670
  C       4.397353      6.292490     -9.722306
  H       5.252328      6.627338     -9.082809
  H       4.860111      5.932213    -10.675270
  C       3.482432      7.507484    -10.023789
  H       2.631926      7.177463    -10.670193
  H       3.016662      7.860397     -9.070373
  C       4.225525      8.684220    -10.702341
  H       3.542001      9.540216    -10.906930
  H       5.055010      9.062871    -10.059502
  H       4.676962      8.373303    -11.674044
138
Coordinates from ORCA-job /wrk/rja7/qm_final_3_replicates/qm_final_1.1/qm/4/freq E -2722.584423072389
  N      -2.656413     -4.344680     13.587364
  C      -1.997749     -5.215273     12.440820
  H      -2.014208     -6.263784     12.808950
  H      -0.942668     -4.888913     12.349558
  C      -3.397401     -5.266673     14.543015
  H      -3.828643     -4.661176     15.366939
  H      -4.211783     -5.781585     13.992246
  H      -2.688704     -6.011478     14.960561
  C      -3.643740     -3.273659     13.086853
  H      -3.087103     -2.555957     12.448526
  H      -4.454331     -3.764859     12.514833
  H      -4.060685     -2.776888     13.988650
  C      -1.528778     -3.619158     14.337700
  H      -1.059326     -2.912784     13.616545
  H      -0.806784     -4.376058     14.708236
  H      -1.973836     -3.070948     15.195513
  C      -2.632929     -5.154081     11.024944
  H      -2.038367     -5.917779     10.452652
  H      -3.692083     -5.517095     11.044560
  P      -1.081887     -2.997380     10.446999
  O       0.026627     -4.040775     10.324970
  O      -1.215525     -2.027800     11.627206
  O      -2.613682     -3.884830     10.403855
  O      -1.307710     -2.115492      9.045317
  C      -1.174099     -2.804068      7.784901
  H      -2.075814     -3.441441      7.594769
  H      -0.279490     -3.473892      7.793699
  C      -1.012784     -1.760029      6.668019
  H      -0.179479     -1.068539      6.921336
  O      -2.263853     -0.989764      6.578269
  C      -2.177022      0.367218      6.372189
  O      -1.127997      0.992121      6.274835
  C      -3.570434      1.002265      6.224880
  H      -3.659674      1.783391      7.015622
  H      -4.362008      0.241541      6.404739
  C      -0.749566     -2.427121      5.293783
  H      -1.579389     -3.122337      5.033216
  H       0.214952     -2.981641      5.315561
  O      -0.732386     -1.425195      4.234096
  C       0.486362     -0.844038      3.914027
  O       1.561695     -1.262849      4.313123
  C       0.271765      0.406198      3.052602
  H      -0.685992      0.315735      2.492492
  H       0.113862      1.233179      3.788468
  C      -3.732909      1.664765      4.822830
  H      -2.881086      2.368821      4.668981
  H      -4.660009      2.286900      4.820722
  C      -3.782873      0.639632      3.660230
  H      -4.712409      0.023765      3.749548
  H      -2.937104     -0.077804      3.761406
  C      -3.717346      1.285411      2.251973
  H      -2.795669      1.913983      2.180895
  H      -4.575224      1.989508      2.112459
  C      -3.706913      0.239228      1.106935
  H      -4.640817     -0.375018      1.157584
  H      -2.868799     -0.475803      1.285606
  C      -3.573683      0.861033     -0.306986
  H      -2.624442      1.448792     -0.365501
  H      -4.403247      1.592766     -0.464388
  C      -3.601824     -0.173360     -1.476993
  H      -3.600669      0.377529     -2.444130
  H      -4.577449     -0.721436     -1.433215
  C      -2.471604     -1.189097     -1.440360
  H      -2.486770     -1.881395     -0.574856
  C      -1.458549     -1.335284     -2.331673
  H      -0.725792     -2.146537     -2.139850
  C      -1.209731     -0.559144     -3.615350
  H      -0.158495     -0.183910     -3.614812
  H      -1.859254      0.345068     -3.672659
  C      -1.418042     -1.435671     -4.888712
  H      -2.504252     -1.672594     -4.997846
  H      -0.910504     -2.421418     -4.740822
  C      -0.878286     -0.787771     -6.188858
  H       0.216840     -0.611100     -6.067097
  H      -1.332012      0.226136     -6.325806
  C      -1.149523     -1.642064     -7.454239
  H      -2.253769     -1.771637     -7.567681
  H      -0.738206     -2.670977     -7.301084
  C      -0.575915     -1.055176     -8.772861
  H      -0.913129      0.005967     -8.884333
  H      -1.022567     -1.604967     -9.637066
  C       0.968791     -1.118728     -8.893538
  H       1.297579     -2.185498     -8.814845
  H       1.445006     -0.594271     -8.030482
  C       1.511810     -0.513368    -10.213297
  H       1.209968      0.562204    -10.273363
  H       1.013947     -1.014208    -11.079997
  C       3.048861     -0.630957    -10.359662
  H       3.405833     -0.178282    -11.313544
  H       3.376301     -1.697302    -10.349829
  H       3.576275     -0.112831     -9.526113
  C       1.447281      0.726478      2.097078
  H       2.403854      0.700976      2.669547
  H       1.325884      1.773299      1.728783
  C       1.519467     -0.235030      0.883064
  H       0.522336     -0.252709      0.376466
  H       1.697417     -1.278647      1.240619
  C       2.601820      0.143766     -0.160839
  H       3.620778      0.009918      0.279779
  H       2.511364      1.233551     -0.388982
  C       2.479976     -0.677447     -1.471139
  H       2.544520     -1.765724     -1.224410
  H       1.456939     -0.527187     -1.889538
  C       3.545383     -0.362096     -2.558628
  H       4.555679     -0.654929     -2.180928
  H       3.344689     -1.004242     -3.449460
  C       3.613301      1.129260     -3.031126
  H       4.376559      1.208451     -3.838227
  H       3.994481      1.756280     -2.189534
  C       2.280525      1.700998     -3.490792
  H       1.564708      1.957639     -2.684534
  C       1.876795      1.913784     -4.768885
  H       0.870527      2.357527     -4.920555
  C       2.665505      1.649780     -6.041891
  H       1.985602      1.172585     -6.789031
  H       3.484453      0.915417     -5.861199
  C       3.261342      2.942472     -6.680259
  H       4.011302      3.381843     -5.978343
  H       2.450821      3.704359     -6.774898
  C       3.916022      2.688691     -8.064554
  H       4.653150      1.854995     -7.963689
  H       3.134735      2.315483     -8.772130
  C       4.630129      3.916514     -8.691623
  H       5.447747      4.258591     -8.009303
  H       5.139909      3.592132     -9.632260
  C       3.702500      5.117064     -9.014792
  H       3.226042      5.491044     -8.076291
  H       2.859973      4.768101     -9.663310
  C       4.435287      6.293337     -9.707023
  H       5.289673      6.625648     -9.065460
  H       4.899351      5.934634    -10.659971
  C       3.522770      7.510230    -10.007542
  H       2.671908      7.182488    -10.654584
  H       3.057086      7.862794     -9.053935
  C       4.268137      8.686504    -10.684380
  H       3.586357      9.544072    -10.888058
  H       5.098129      9.062724    -10.040721
  H       4.719512      8.376052    -11.656268
138
Coordinates from ORCA-job /wrk/rja7/qm_final_3_replicates/qm_final_1.1/qm/4/freq E -2722.584511941867
  N      -2.635271     -4.350399     13.572323
  C      -1.966840     -5.221661     12.431935
  H      -1.972951     -6.267165     12.808424
  H      -0.914456     -4.888218     12.337597
  C      -3.393435     -5.273098     14.512837
  H      -3.850998     -4.670828     15.325036
  H      -4.189101     -5.794131     13.940521
  H      -2.693794     -6.015616     14.948732
  C      -3.611232     -3.273116     13.061020
  H      -3.038500     -2.556564     12.437039
  H      -4.416322     -3.761242     12.480295
  H      -4.038326     -2.777966     13.958991
  C      -1.511509     -3.633824     14.334806
  H      -1.025828     -2.935483     13.616752
  H      -0.798041     -4.396034     14.710948
  H      -1.959410     -3.081566     15.188277
  C      -2.606813     -5.173984     11.018899
  H      -2.018830     -5.944542     10.449272
  H      -3.667578     -5.531826     11.049007
  P      -1.054927     -3.022682     10.423585
  O       0.053888     -4.063510     10.286655
  O      -1.175284     -2.060836     11.612793
  O      -2.587530     -3.909021     10.388642
  O      -1.298565     -2.133121      9.029874
  C      -1.183161     -2.815049      7.763859
  H      -2.088219     -3.449686      7.583080
  H      -0.289180     -3.485807      7.756045
  C      -1.034627     -1.766347      6.649970
  H      -0.197717     -1.076267      6.894403
  O      -2.286362     -0.995389      6.578254
  C      -2.203203      0.360594      6.365292
  O      -1.157045      0.987397      6.250884
  C      -3.600009      0.992622      6.238617
  H      -3.683582      1.767488      7.036578
  H      -4.387969      0.228985      6.420669
  C      -0.789136     -2.430553      5.271207
  H      -1.625565     -3.118178      5.013080
  H       0.170249     -2.994444      5.285818
  O      -0.768396     -1.422927      4.216679
  C       0.454350     -0.848121      3.900474
  O       1.527108     -1.278334      4.294663
  C       0.249829      0.408942      3.046618
  H      -0.711482      0.333203      2.490358
  H       0.113966      1.234539      3.787245
  C      -3.777434      1.665139      4.842773
  H      -2.933191      2.378542      4.690635
  H      -4.709654      2.279302      4.849249
  C      -3.821530      0.645635      3.672945
  H      -4.751388      0.029438      3.752744
  H      -2.974470     -0.070727      3.774915
  C      -3.746741      1.297708      2.269048
  H      -2.820942      1.921676      2.207831
  H      -4.599576      2.007751      2.127317
  C      -3.733597      0.259433      1.117446
  H      -4.679158     -0.337790      1.146661
  H      -2.910545     -0.470218      1.306213
  C      -3.560639      0.887389     -0.288852
  H      -2.598592      1.454612     -0.327260
  H      -4.370557      1.639017     -0.454961
  C      -3.590283     -0.139932     -1.466954
  H      -3.566552      0.417320     -2.430373
  H      -4.575405     -0.671603     -1.441578
  C      -2.476269     -1.174538     -1.417133
  H      -2.509322     -1.864079     -0.550118
  C      -1.454523     -1.334322     -2.295047
  H      -0.733556     -2.154026     -2.093030
  C      -1.183076     -0.564049     -3.576950
  H      -0.124722     -0.207609     -3.567701
  H      -1.814168      0.351991     -3.642009
  C      -1.395588     -1.437615     -4.851044
  H      -2.483936     -1.667927     -4.957931
  H      -0.894351     -2.426751     -4.705003
  C      -0.858945     -0.789147     -6.152388
  H       0.238864     -0.624964     -6.039192
  H      -1.304232      0.230117     -6.278146
  C      -1.151277     -1.629371     -7.423268
  H      -2.257640     -1.745872     -7.527415
  H      -0.750718     -2.664518     -7.282617
  C      -0.579234     -1.038513     -8.741890
  H      -0.907060      0.026563     -8.842947
  H      -1.036566     -1.576513     -9.607884
  C       0.964668     -1.118026     -8.871318
  H       1.282082     -2.188330     -8.791362
  H       1.450692     -0.596511     -8.012971
  C       1.507722     -0.521031    -10.195290
  H       1.215887      0.557340    -10.257316
  H       1.001681     -1.019320    -11.058694
  C       3.043087     -0.652146    -10.348720
  H       3.399701     -0.207353    -11.306348
  H       3.361944     -1.721055    -10.334951
  H       3.578807     -0.134624     -9.519577
  C       1.425490      0.718849      2.086689
  H       2.383685      0.687950      2.656114
  H       1.308686      1.766587      1.719412
  C       1.493736     -0.237442      0.868280
  H       0.497912     -0.247055      0.358720
  H       1.668467     -1.283407      1.219556
  C       2.581364      0.152167     -0.167317
  H       3.597406      0.022217      0.280747
  H       2.486079      1.243479     -0.388321
  C       2.479063     -0.658697     -1.485686
  H       2.543983     -1.748824     -1.248270
  H       1.462592     -0.508829     -1.917213
  C       3.555829     -0.324426     -2.554821
  H       4.564221     -0.607017     -2.164745
  H       3.376003     -0.965138     -3.451575
  C       3.610469      1.170752     -3.018567
  H       4.380959      1.264720     -3.816890
  H       3.974755      1.798388     -2.169306
  C       2.274747      1.726735     -3.490222
  H       1.551850      1.979518     -2.689304
  C       1.876027      1.924202     -4.771939
  H       0.865481      2.354145     -4.934217
  C       2.676522      1.657983     -6.037052
  H       2.007365      1.169758     -6.786832
  H       3.499839      0.931367     -5.845090
  C       3.266998      2.950971     -6.677823
  H       4.002559      3.402821     -5.968282
  H       2.451869      3.704246     -6.792910
  C       3.948707      2.688542     -8.047314
  H       4.693542      1.864930     -7.923855
  H       3.183836      2.299781     -8.764713
  C       4.660781      3.916618     -8.675986
  H       5.465019      4.274312     -7.985388
  H       5.187356      3.587407     -9.605426
  C       3.725088      5.103483     -9.024141
  H       3.231048      5.482514     -8.096969
  H       2.895921      4.737317     -9.680095
  C       4.453006      6.279982     -9.722430
  H       5.292788      6.633177     -9.072836
  H       4.935701      5.913107    -10.662936
  C       3.528191      7.478490    -10.055717
  H       2.689568      7.125648    -10.705725
  H       3.046303      7.842689     -9.114683
  C       4.263801      8.651380    -10.748945
  H       3.571366      9.493551    -10.979110
  H       5.080548      9.054314    -10.104485
  H       4.730580      8.327005    -11.708974
138
Coordinates from ORCA-job /wrk/rja7/qm_final_3_replicates/qm_final_1.1/qm/4/freq E -2722.584535890355
  N      -2.532743     -4.329421     13.596008
  C      -1.894951     -5.197900     12.435886
  H      -1.889162     -6.244616     12.809303
  H      -0.846218     -4.862132     12.313495
  C      -3.259440     -5.254718     14.558449
  H      -3.694206     -4.654359     15.384302
  H      -4.070116     -5.778955     14.010639
  H      -2.544602     -5.995163     14.972724
  C      -3.527218     -3.255007     13.114056
  H      -2.976229     -2.535965     12.473094
  H      -4.347810     -3.746499     12.558200
  H      -3.929536     -2.761210     14.024173
  C      -1.389967     -3.610817     14.326113
  H      -0.926758     -2.909217     13.596672
  H      -0.663485     -4.371721     14.679672
  H      -1.814660     -3.062040     15.193472
  C      -2.572076     -5.148060     11.040463
  H      -1.999399     -5.918169     10.454809
  H      -3.631662     -5.505796     11.099107
  P      -1.037560     -2.992692     10.412535
  O       0.070908     -4.032783     10.265176
  O      -1.139184     -2.021246     11.595400
  O      -2.568870     -3.882323     10.412068
  O      -1.305717     -2.116345      9.015070
  C      -1.199919     -2.808864      7.754007
  H      -2.096776     -3.460814      7.595309
  H      -0.294966     -3.464479      7.737734
  C      -1.085986     -1.770443      6.626518
  H      -0.254724     -1.065772      6.847582
  O      -2.349013     -1.017329      6.567387
  C      -2.286918      0.336906      6.339564
  O      -1.250748      0.976813      6.207656
  C      -3.693543      0.948924      6.222127
  H      -3.787822      1.714009      7.028515
  H      -4.469420      0.171905      6.399333
  C      -0.854621     -2.447444      5.251835
  H      -1.690975     -3.141448      5.011564
  H       0.106983     -3.007757      5.262509
  O      -0.850224     -1.452796      4.184596
  C       0.364602     -0.866735      3.857761
  O       1.443112     -1.274363      4.260540
  C       0.142772      0.370877      2.980116
  H      -0.799932      0.255368      2.399002
  H      -0.039868      1.202085      3.704127
  C      -3.883623      1.630138      4.832624
  H      -3.048689      2.354664      4.682777
  H      -4.823388      2.232504      4.845271
  C      -3.918003      0.616673      3.656649
  H      -4.844796     -0.004935      3.729900
  H      -3.067359     -0.095606      3.757777
  C      -3.841920      1.275316      2.256012
  H      -2.917385      1.902313      2.200211
  H      -4.696797      1.982862      2.114595
  C      -3.820884      0.242271      1.099859
  H      -4.765409     -0.356919      1.120458
  H      -2.997486     -0.486829      1.290222
  C      -3.642450      0.876882     -0.302766
  H      -2.687793      1.456622     -0.330240
  H      -4.460618      1.618867     -0.474021
  C      -3.647525     -0.147142     -1.484810
  H      -3.625033      0.413850     -2.446086
  H      -4.624699     -0.693516     -1.468875
  C      -2.517494     -1.164578     -1.429732
  H      -2.546713     -1.857866     -0.565636
  C      -1.485239     -1.303772     -2.299630
  H      -0.752102     -2.111654     -2.094536
  C      -1.218295     -0.526202     -3.578104
  H      -0.164429     -0.155891     -3.565595
  H      -1.861651      0.381151     -3.643521
  C      -1.418228     -1.401040     -4.853585
  H      -2.504404     -1.641541     -4.961947
  H      -0.908539     -2.385589     -4.706241
  C      -0.885549     -0.748988     -6.154756
  H       0.212393     -0.584576     -6.045544
  H      -1.332313      0.270038     -6.276952
  C      -1.181166     -1.587889     -7.426427
  H      -2.287969     -1.699098     -7.529971
  H      -0.785900     -2.625174     -7.285560
  C      -0.605717     -1.000891     -8.745945
  H      -0.924914      0.067063     -8.845506
  H      -1.068486     -1.534236     -9.611898
  C       0.937304     -1.094072     -8.877713
  H       1.245420     -2.167386     -8.802616
  H       1.427738     -0.580578     -8.017134
  C       1.485407     -0.494568    -10.198632
  H       1.204443      0.587070    -10.254071
  H       0.973891     -0.982529    -11.064818
  C       3.019186     -0.639388    -10.353941
  H       3.379945     -0.187417    -11.306625
  H       3.327871     -1.711402    -10.352245
  H       3.560391     -0.136470     -9.519225
  C       1.333702      0.705659      2.048502
  H       2.274783      0.725103      2.646382
  H       1.187073      1.739860      1.654303
  C       1.474896     -0.272455      0.853494
  H       0.494076     -0.334285      0.319390
  H       1.684325     -1.302136      1.232297
  C       2.572312      0.141392     -0.162386
  H       3.582657      0.046320      0.306740
  H       2.448582      1.227228     -0.395997
  C       2.522054     -0.683001     -1.475762
  H       2.612713     -1.769135     -1.228497
  H       1.510971     -0.564583     -1.929104
  C       3.611748     -0.326069     -2.523970
  H       4.618076     -0.582602     -2.110889
  H       3.466872     -0.974274     -3.421748
  C       3.642665      1.168336     -2.991624
  H       4.424655      1.275774     -3.776992
  H       3.979895      1.805293     -2.138228
  C       2.304917      1.697167     -3.487582
  H       1.563163      1.935630     -2.699341
  C       1.925565      1.888651     -4.776206
  H       0.910298      2.299309     -4.956010
  C       2.751498      1.636282     -6.027521
  H       2.102095      1.137840     -6.787730
  H       3.582413      0.921770     -5.823036
  C       3.333162      2.936837     -6.660473
  H       4.055923      3.397216     -5.943164
  H       2.510561      3.680370     -6.784085
  C       4.030543      2.681418     -8.023335
  H       4.780433      1.863225     -7.893097
  H       3.275291      2.287757     -8.747858
  C       4.738847      3.914806     -8.646153
  H       5.536216      4.277383     -7.950292
  H       5.273612      3.589038     -9.571902
  C       3.798418      5.096120     -9.000427
  H       3.299255      5.474965     -8.076110
  H       2.973354      4.724198     -9.658515
  C       4.522466      6.274659     -9.699406
  H       5.358967      6.633034     -9.048349
  H       5.009174      5.907848    -10.637856
  C       3.592887      7.468065    -10.037281
  H       2.757405      7.109822    -10.688494
  H       3.107124      7.832068     -9.098195
  C       4.324776      8.642729    -10.731468
  H       3.628632      9.480558    -10.966322
  H       5.137417      9.051859    -10.085737
  H       4.796155      8.317917    -11.689080
138
Coordinates from ORCA-job /wrk/rja7/qm_final_3_replicates/qm_final_1.1/qm/4/freq E -2722.584587611407
  N      -2.580546     -4.316657     13.578147
  C      -1.922483     -5.189543     12.432709
  H      -1.920398     -6.234738     12.810820
  H      -0.872077     -4.852868     12.327472
  C      -3.325919     -5.237847     14.529930
  H      -3.776722     -4.633882     15.344420
  H      -4.126097     -5.764956     13.969629
  H      -2.618785     -5.976053     14.961385
  C      -3.564046     -3.242181     13.074368
  H      -3.001424     -2.529462     12.436003
  H      -4.378994     -3.734051     12.510247
  H      -3.977652     -2.740533     13.975217
  C      -1.451162     -3.596572     14.326786
  H      -0.975027     -2.897053     13.603758
  H      -0.731358     -4.356652     14.695663
  H      -1.891887     -3.045218     15.184423
  C      -2.575971     -5.146934     11.025802
  H      -1.990994     -5.917305     10.452743
  H      -3.635187     -5.508153     11.067547
  P      -1.032959     -2.995711     10.415225
  O       0.075401     -4.037039     10.277170
  O      -1.146057     -2.026857     11.598967
  O      -2.564883     -3.883553     10.393933
  O      -1.284424     -2.115069      9.017314
  C      -1.171983     -2.805272      7.756045
  H      -2.070329     -3.452944      7.588182
  H      -0.269330     -3.464191      7.744652
  C      -1.047047     -1.763441      6.632975
  H      -0.213943     -1.062897      6.860284
  O      -2.306996     -1.005021      6.571293
  C      -2.239245      0.350459      6.352225
  O      -1.200035      0.987460      6.230934
  C      -3.643312      0.967320      6.229446
  H      -3.734216      1.740232      7.028473
  H      -4.421954      0.194491      6.413284
  C      -0.811842     -2.436258      5.257101
  H      -1.648568     -3.128713      5.013106
  H       0.149530     -2.996829      5.267381
  O      -0.805803     -1.439241      4.192212
  C       0.409671     -0.854091      3.866402
  O       1.487840     -1.265053      4.266565
  C       0.189180      0.387813      2.994559
  H      -0.761962      0.283639      2.425759
  H       0.024547      1.219516      3.722491
  C      -3.833055      1.637307      4.834639
  H      -2.997803      2.360087      4.678365
  H      -4.772970      2.239593      4.844074
  C      -3.870103      0.616736      3.665845
  H      -4.795373     -0.006408      3.746799
  H      -3.018018     -0.093287      3.766862
  C      -3.803057      1.268324      2.261129
  H      -2.883000      1.901241      2.197633
  H      -4.663080      1.969437      2.119538
  C      -3.781499      0.228354      1.110949
  H      -4.721559     -0.377528      1.141319
  H      -2.951468     -0.493842      1.299617
  C      -3.619428      0.856579     -0.296871
  H      -2.664997      1.436405     -0.337891
  H      -4.439994      1.597443     -0.462209
  C      -3.639027     -0.172154     -1.474172
  H      -3.630177      0.384414     -2.438137
  H      -4.615449     -0.719231     -1.442210
  C      -2.507796     -1.188173     -1.430863
  H      -2.529483     -1.883567     -0.568125
  C      -1.482114     -1.323825     -2.309802
  H      -0.746090     -2.130838     -2.112589
  C      -1.224899     -0.542624     -3.588356
  H      -0.170718     -0.173419     -3.582816
  H      -1.867742      0.365750     -3.646849
  C      -1.433849     -1.414709     -4.864674
  H      -2.521320     -1.649731     -4.970867
  H      -0.928524     -2.401850     -4.719636
  C      -0.899330     -0.763834     -6.165431
  H       0.197499     -0.594425     -6.052562
  H      -1.349706      0.252949     -6.292219
  C      -1.185148     -1.607956     -7.435780
  H      -2.291100     -1.721718     -7.545793
  H      -0.788668     -2.643926     -7.288967
  C      -0.603265     -1.024174     -8.753954
  H      -0.924446      0.042630     -8.859568
  H      -1.059478     -1.562238     -9.620476
  C       0.940622     -1.113723     -8.876878
  H       1.251554     -2.185734     -8.796965
  H       1.424581     -0.595639     -8.014968
  C       1.494297     -0.515828    -10.196103
  H       1.208082      0.564009    -10.256954
  H       0.991427     -1.009396    -11.064248
  C       3.029871     -0.653319    -10.339739
  H       3.394762     -0.205668    -11.292869
  H       3.343826     -1.723753    -10.328661
  H       3.562512     -0.142216     -9.504560
  C       1.371070      0.712483      2.048251
  H       2.320833      0.714766      2.632398
  H       1.232916      1.751181      1.662657
  C       1.481908     -0.260528      0.845530
  H       0.494776     -0.303965      0.321839
  H       1.679215     -1.295813      1.215927
  C       2.574782      0.141500     -0.179201
  H       3.587071      0.046221      0.286272
  H       2.453795      1.225948     -0.419419
  C       2.516057     -0.692680     -1.485631
  H       2.607275     -1.777082     -1.230821
  H       1.502173     -0.577098     -1.934830
  C       3.600061     -0.344010     -2.542419
  H       4.608148     -0.606122     -2.136863
  H       3.445682     -0.991731     -3.439005
  C       3.635833      1.149678     -3.009711
  H       4.410196      1.252226     -3.803486
  H       3.986907      1.783861     -2.160270
  C       2.296371      1.688548     -3.490310
  H       1.565359      1.932184     -2.693373
  C       1.905993      1.888145     -4.774265
  H       0.893226      2.309278     -4.942959
  C       2.717665      1.634895     -6.034419
  H       2.057286      1.144588     -6.790260
  H       3.545963      0.914225     -5.841312
  C       3.301819      2.935090     -6.665872
  H       4.033314      3.387673     -5.952591
  H       2.481980      3.683764     -6.777804
  C       3.985022      2.685128     -8.036611
  H       4.729526      1.859994     -7.919327
  H       3.221410      2.303190     -8.758485
  C       4.697935      3.918951     -8.653247
  H       5.503379      4.267569     -7.959795
  H       5.222971      3.598076     -9.586274
  C       3.765541      5.112085     -8.989449
  H       3.276660      5.485971     -8.057661
  H       2.932482      4.754758     -9.645698
  C       4.496129      6.291570     -9.679498
  H       5.340958      6.633073     -9.030149
  H       4.972317      5.931966    -10.626093
  C       3.576547      7.499020     -9.994623
  H       2.733544      7.159180    -10.645946
  H       3.100212      7.854079     -9.047289
  C       4.317009      8.676543    -10.674688
  H       3.628666      9.525505    -10.891995
  H       5.137660      9.066455    -10.027267
  H       4.779507      8.362038    -11.640018
138
Coordinates from ORCA-job /wrk/rja7/qm_final_3_replicates/qm_final_1.1/qm/4/freq E -2722.584613086630
  N      -2.563643     -4.320517     13.586543
  C      -1.902320     -5.190524     12.440694
  H      -1.890497     -6.234806     12.821331
  H      -0.854637     -4.846127     12.332216
  C      -3.303628     -5.245356     14.538970
  H      -3.759113     -4.643205     15.352232
  H      -4.099811     -5.779071     13.979229
  H      -2.591401     -5.977772     14.972160
  C      -3.553713     -3.251660     13.083377
  H      -2.996596     -2.536127     12.443341
  H      -4.366888     -3.748531     12.520937
  H      -3.968291     -2.751584     13.984704
  C      -1.437295     -3.594258     14.333899
  H      -0.964802     -2.894037     13.609099
  H      -0.713647     -4.350256     14.703744
  H      -1.880415     -3.043662     15.190798
  C      -2.559624     -5.155233     11.035422
  H      -1.971188     -5.922875     10.462318
  H      -3.616376     -5.523439     11.080640
  P      -1.031769     -2.995122     10.414939
  O       0.082586     -4.029900     10.274509
  O      -1.146579     -2.024315     11.596885
  O      -2.557828     -3.893233     10.400864
  O      -1.294865     -2.118599      9.016221
  C      -1.183566     -2.810392      7.755959
  H      -2.081284     -3.459661      7.590653
  H      -0.279738     -3.467669      7.743836
  C      -1.062606     -1.770417      6.630407
  H      -0.228717     -1.069382      6.852939
  O      -2.322398     -1.011462      6.571198
  C      -2.254843      0.343422      6.346945
  O      -1.215657      0.979312      6.219818
  C      -3.658995      0.960956      6.226510
  H      -3.748952      1.732142      7.027304
  H      -4.437850      0.188079      6.409515
  C      -0.831702     -2.446191      5.255270
  H      -1.670999     -3.136786      5.014586
  H       0.128213     -3.009190      5.264906
  O      -0.826149     -1.452093      4.187843
  C       0.388326     -0.865882      3.859921
  O       1.467811     -1.276528      4.256831
  C       0.163908      0.376882      2.990451
  H      -0.787040      0.270917      2.421846
  H      -0.002609      1.206726      3.720248
  C      -3.849419      1.634514      4.833629
  H      -3.013843      2.357099      4.678463
  H      -4.789100      2.237125      4.845466
  C      -3.887599      0.616971      3.662492
  H      -4.814663     -0.003928      3.740616
  H      -3.037602     -0.095452      3.763268
  C      -3.816478      1.271631      2.259408
  H      -2.895586      1.903334      2.199146
  H      -4.675139      1.974168      2.116774
  C      -3.793751      0.232588      1.108151
  H      -4.736300     -0.369634      1.133770
  H      -2.967352     -0.492793      1.300104
  C      -3.622977      0.860524     -0.298710
  H      -2.667246      1.438863     -0.335120
  H      -4.440870      1.602702     -0.469176
  C      -3.637461     -0.169158     -1.474788
  H      -3.621386      0.386136     -2.439383
  H      -4.615311     -0.713947     -1.448038
  C      -2.508781     -1.187298     -1.422286
  H      -2.537912     -1.882115     -0.559269
  C      -1.478937     -1.326525     -2.295289
  H      -0.746260     -2.135649     -2.094185
  C      -1.213790     -0.545902     -3.572308
  H      -0.156781     -0.185265     -3.564327
  H      -1.849600      0.367632     -3.630129
  C      -1.427797     -1.413505     -4.850711
  H      -2.515937     -1.645318     -4.956017
  H      -0.924936     -2.402525     -4.709914
  C      -0.894681     -0.758909     -6.150000
  H       0.202744     -0.590860     -6.038513
  H      -1.344374      0.258682     -6.272430
  C      -1.184594     -1.598845     -7.421758
  H      -2.290902     -1.714134     -7.527640
  H      -0.786074     -2.634780     -7.280737
  C      -0.610484     -1.008538     -8.739785
  H      -0.934019      0.058149     -8.839231
  H      -1.070255     -1.543672     -9.606254
  C       0.932587     -1.094669     -8.870143
  H       1.246358     -2.166024     -8.793260
  H       1.419913     -0.576519     -8.009976
  C       1.477320     -0.493548    -10.191235
  H       1.186298      0.585073    -10.249682
  H       0.972231     -0.988361    -11.057366
  C       3.012784     -0.624569    -10.341990
  H       3.371291     -0.175961    -11.297113
  H       3.331502     -1.693625    -10.331656
  H       3.547099     -0.110648     -9.509699
  C       1.344520      0.708569      2.044744
  H       2.294931      0.708660      2.627712
  H       1.204248      1.749382      1.665716
  C       1.457661     -0.256959      0.835812
  H       0.472196     -0.297870      0.308754
  H       1.655218     -1.294313      1.200329
  C       2.553481      0.152589     -0.182752
  H       3.563308      0.065364      0.289746
  H       2.426093      1.236008     -0.423697
  C       2.510836     -0.682937     -1.488970
  H       2.606527     -1.766285     -1.231709
  H       1.500351     -0.574201     -1.948203
  C       3.602197     -0.329351     -2.536864
  H       4.608404     -0.584804     -2.122285
  H       3.460495     -0.979439     -3.433725
  C       3.633086      1.163591     -3.006748
  H       4.414895      1.269359     -3.792810
  H       3.971780      1.801771     -2.155434
  C       2.295003      1.693293     -3.501761
  H       1.555936      1.936640     -2.712274
  C       1.914821      1.884754     -4.789991
  H       0.901336      2.299841     -4.969491
  C       2.740062      1.630404     -6.041198
  H       2.089694      1.132498     -6.800967
  H       3.570588      0.915545     -5.836578
  C       3.322631      2.931293     -6.673101
  H       4.042746      3.392914     -5.954153
  H       2.498772      3.673725     -6.798062
  C       4.022625      2.678937     -8.035105
  H       4.772861      1.861033     -7.905236
  H       3.269824      2.286216     -8.762575
  C       4.730605      3.915391     -8.652245
  H       5.528453      4.273799     -7.954791
  H       5.264564      3.594329     -9.580205
  C       3.790652      5.099286     -9.000056
  H       3.293215      5.473780     -8.072904
  H       2.964402      4.731758     -9.659301
  C       4.515518      6.281185     -9.691953
  H       5.354755      6.632004     -9.040297
  H       4.998620      5.921140    -10.634857
  C       3.588105      7.480278    -10.016617
  H       2.750179      7.130802    -10.669351
  H       3.105639      7.836562     -9.072863
  C       4.322204      8.659844    -10.699999
  H       3.628392      9.502670    -10.923734
  H       5.137842      9.058908    -10.051828
  H       4.789985      8.343950    -11.662348
138
Coordinates from ORCA-job /wrk/rja7/qm_final_3_replicates/qm_final_1.1/qm/4/freq E -2722.584656007603
  N      -2.526532     -4.318981     13.584008
  C      -1.866932     -5.186949     12.435639
  H      -1.843408     -6.229968     12.819355
  H      -0.822686     -4.834980     12.319122
  C      -3.257887     -5.246635     14.540112
  H      -3.717045     -4.645959     15.352453
  H      -4.050690     -5.788657     13.983516
  H      -2.539209     -5.972251     14.974161
  C      -3.524351     -3.255246     13.085027
  H      -2.974045     -2.536959     12.442255
  H      -4.338336     -3.756640     12.527790
  H      -3.936581     -2.756682     13.988320
  C      -1.400087     -3.587156     14.324989
  H      -0.933508     -2.886493     13.596840
  H      -0.671130     -4.339196     14.692540
  H      -1.841532     -3.037321     15.183217
  C      -2.534985     -5.160124     11.035524
  H      -1.947328     -5.926742     10.460311
  H      -3.589448     -5.533709     11.090718
  P      -1.022518     -2.994807     10.397845
  O       0.095192     -4.024850     10.249047
  O      -1.131549     -2.023212     11.579663
  O      -2.544431     -3.900110     10.397234
  O      -1.301465     -2.120649      9.000483
  C      -1.195660     -2.813018      7.740321
  H      -2.092309     -3.465121      7.580658
  H      -0.289638     -3.467062      7.722760
  C      -1.084833     -1.773884      6.612722
  H      -0.249407     -1.072153      6.826632
  O      -2.345362     -1.015314      6.563141
  C      -2.280075      0.338933      6.334367
  O      -1.242038      0.974778      6.197595
  C      -3.685251      0.956113      6.222828
  H      -3.773268      1.722091      7.028901
  H      -4.462883      0.181608      6.404268
  C      -0.865925     -2.451815      5.236806
  H      -1.709079     -3.140178      5.003282
  H       0.092232     -3.017952      5.240811
  O      -0.865283     -1.460066      4.167376
  C       0.346999     -0.869854      3.838722
  O       1.427756     -1.275458      4.237340
  C       0.118391      0.369330      2.965519
  H      -0.829205      0.256354      2.392808
  H      -0.055163      1.199983      3.692681
  C      -3.880527      1.637173      4.834410
  H      -3.046996      2.362440      4.681181
  H      -4.821758      2.237187      4.851418
  C      -3.918305      0.625151      3.658335
  H      -4.846607      0.005541      3.731679
  H      -3.069680     -0.089138      3.757392
  C      -3.843219      1.284953      2.257760
  H      -2.921631      1.915901      2.201848
  H      -4.700858      1.988625      2.114746
  C      -3.818546      0.248221      1.104350
  H      -4.764087     -0.349522      1.123358
  H      -2.996566     -0.481093      1.299620
  C      -3.637502      0.876345     -0.301234
  H      -2.679142      1.450547     -0.332703
  H      -4.451119      1.622004     -0.476216
  C      -3.649793     -0.154543     -1.476518
  H      -3.627703      0.399242     -2.441880
  H      -4.629554     -0.695992     -1.453125
  C      -2.524282     -1.175772     -1.416064
  H      -2.560669     -1.869579     -0.552589
  C      -1.489218     -1.318210     -2.282313
  H      -0.759144     -2.128290     -2.075358
  C      -1.216592     -0.541315     -3.559876
  H      -0.157963     -0.185644     -3.550625
  H      -1.847891      0.375055     -3.621700
  C      -1.432633     -1.410931     -4.836770
  H      -2.521149     -1.641806     -4.940156
  H      -0.930790     -2.400243     -4.694471
  C      -0.900924     -0.759485     -6.138178
  H       0.197109     -0.592963     -6.029890
  H      -1.349501      0.258487     -6.261391
  C      -1.195256     -1.601757     -7.407491
  H      -2.301986     -1.716412     -7.510174
  H      -0.797293     -2.637728     -7.265389
  C      -0.624364     -1.014587     -8.728214
  H      -0.948655      0.051666     -8.829263
  H      -1.085765     -1.551954     -9.592471
  C       0.918423     -1.100148     -8.861115
  H       1.233295     -2.170901     -8.781406
  H       1.406598     -0.578892     -8.003334
  C       1.460858     -0.501565    -10.184238
  H       1.166773      0.576050    -10.245778
  H       0.957008     -1.000203    -11.048883
  C       2.996770     -0.628400    -10.334608
  H       3.354060     -0.180578    -11.290569
  H       3.318928     -1.696393    -10.322111
  H       3.529574     -0.111342     -9.503206
  C       1.301454      0.707916      2.025395
  H       2.248632      0.717243      2.613374
  H       1.154357      1.746596      1.643165
  C       1.432389     -0.258662      0.818818
  H       0.452036     -0.310542      0.283371
  H       1.638859     -1.293104      1.186680
  C       2.532842      0.163650     -0.189173
  H       3.536989      0.106298      0.299941
  H       2.383754      1.241089     -0.443952
  C       2.532520     -0.686725     -1.486266
  H       2.649617     -1.764537     -1.215428
  H       1.528457     -0.607788     -1.965612
  C       3.633923     -0.317037     -2.518039
  H       4.638135     -0.549110     -2.085051
  H       3.522569     -0.975830     -3.412845
  C       3.642856      1.173592     -2.996206
  H       4.431199      1.289154     -3.774322
  H       3.961554      1.822153     -2.144929
  C       2.301078      1.678391     -3.507191
  H       1.550532      1.911435     -2.725568
  C       1.931038      1.860217     -4.799660
  H       0.912730      2.258115     -4.990781
  C       2.773787      1.614970     -6.041042
  H       2.138734      1.106252     -6.806743
  H       3.611719      0.912010     -5.825779
  C       3.345675      2.922323     -6.669610
  H       4.053021      3.394242     -5.944648
  H       2.513780      3.654235     -6.803497
  C       4.061320      2.676166     -8.024670
  H       4.817560      1.864973     -7.887587
  H       3.319060      2.276823     -8.759241
  C       4.764261      3.918450     -8.635851
  H       5.556200      4.281190     -7.933779
  H       5.304977      3.602007     -9.561522
  C       3.818492      5.096747     -8.986890
  H       3.317525      5.470026     -8.061096
  H       2.995217      4.723942     -9.646912
  C       4.538155      6.281329     -9.679723
  H       5.375950      6.636194     -9.028338
  H       5.022794      5.922472    -10.622277
  C       3.605660      7.476180    -10.005424
  H       2.768320      7.122278    -10.656556
  H       3.122832      7.832320     -9.061783
  C       4.334117      8.657448    -10.691922
  H       3.636235      9.496443    -10.917454
  H       5.148129      9.061918    -10.045095
  H       4.802720      8.341300    -11.653783
138
Coordinates from ORCA-job /wrk/rja7/qm_final_3_replicates/qm_final_1.1/qm/4/freq E -2722.583889277139
  N      -2.307334     -4.322697     13.580284
  C      -1.662007     -5.174588     12.412403
  H      -1.569200     -6.209581     12.808245
  H      -0.640407     -4.778851     12.248637
  C      -2.983785     -5.269204     14.556595
  H      -3.461197     -4.680862     15.367719
  H      -3.756885     -5.857845     14.019818
  H      -2.226313     -5.955137     14.989645
  C      -3.350955     -3.287657     13.113668
  H      -2.842561     -2.551078     12.457374
  H      -4.170071     -3.813261     12.587087
  H      -3.746741     -2.801227     14.031110
  C      -1.179081     -3.560543     14.281841
  H      -0.749623     -2.856264     13.534862
  H      -0.418632     -4.289803     14.631415
  H      -1.607342     -3.016442     15.150211
  C      -2.393830     -5.193546     11.045737
  H      -1.812476     -5.952987     10.455223
  H      -3.432611     -5.597643     11.160119
  P      -0.976261     -2.999189     10.308497
  O       0.157617     -4.002037     10.104411
  O      -1.046883     -2.024113     11.490149
  O      -2.470925     -3.945058     10.389735
  O      -1.350740     -2.138013      8.923708
  C      -1.273631     -2.831775      7.663731
  H      -2.163497     -3.499134      7.532751
  H      -0.356186     -3.467656      7.616490
  C      -1.216806     -1.797903      6.525353
  H      -0.376183     -1.091002      6.694468
  O      -2.481506     -1.043828      6.522450
  C      -2.431576      0.306329      6.267000
  O      -1.401515      0.944116      6.084314
  C      -3.842543      0.917641      6.191521
  H      -3.929321      1.651803      7.027261
  H      -4.613310      0.132142      6.354676
  C      -1.057163     -2.489836      5.148669
  H      -1.914852     -3.173297      4.957144
  H      -0.104820     -3.065823      5.125014
  O      -1.091539     -1.516524      4.064085
  C       0.102342     -0.893159      3.729965
  O       1.193059     -1.258288      4.140236
  C      -0.160639      0.320062      2.831862
  H      -1.084825      0.156343      2.234762
  H      -0.385696      1.153672      3.540773
  C      -4.052386      1.642707      4.828239
  H      -3.227416      2.380831      4.693705
  H      -5.000860      2.229757      4.867928
  C      -4.082267      0.665118      3.621897
  H      -5.020113      0.056947      3.660255
  H      -3.245419     -0.063661      3.715084
  C      -3.973384      1.357374      2.238344
  H      -3.043655      1.977641      2.212704
  H      -4.819972      2.073482      2.092505
  C      -3.940639      0.338334      1.068644
  H      -4.905771     -0.226922      1.045153
  H      -3.149940     -0.419285      1.280158
  C      -3.695350      0.972284     -0.325412
  H      -2.718587      1.514483     -0.324049
  H      -4.477336      1.744933     -0.522019
  C      -3.703270     -0.059060     -1.501941
  H      -3.645797      0.490643     -2.468296
  H      -4.696163     -0.576203     -1.498296
  C      -2.601885     -1.103647     -1.404780
  H      -2.680813     -1.794748     -0.542472
  C      -1.540619     -1.265894     -2.235277
  H      -0.828942     -2.084954     -1.999601
  C      -1.224077     -0.506828     -3.512790
  H      -0.155930     -0.182021     -3.495337
  H      -1.826966      0.426742     -3.593759
  C      -1.454524     -1.381969     -4.785204
  H      -2.545577     -1.604789     -4.878210
  H      -0.959859     -2.374211     -4.638814
  C      -0.929629     -0.743158     -6.095654
  H       0.171512     -0.586927     -6.004205
  H      -1.371028      0.277772     -6.219006
  C      -1.248082     -1.591293     -7.356303
  H      -2.357006     -1.701212     -7.442451
  H      -0.853536     -2.628311     -7.214057
  C      -0.694966     -1.012687     -8.688285
  H      -1.021360      0.052618     -8.789118
  H      -1.166777     -1.554606     -9.544238
  C       0.846196     -1.096161     -8.837354
  H       1.164697     -2.165510     -8.759136
  H       1.339939     -0.572672     -7.984380
  C       1.378580     -0.491313    -10.161711
  H       1.071909      0.582903    -10.221799
  H       0.880246     -0.994187    -11.026996
  C       2.916405     -0.598359    -10.310952
  H       3.269536     -0.138870    -11.262981
  H       3.253256     -1.661834    -10.305565
  H       3.441860     -0.081453     -9.474375
  C       1.033279      0.709295      1.926338
  H       1.959186      0.775164      2.542928
  H       0.842414      1.734351      1.527296
  C       1.273278     -0.256927      0.734748
  H       0.326884     -0.378053      0.152074
  H       1.537785     -1.270428      1.123591
  C       2.392973      0.247587     -0.210242
  H       3.338389      0.382568      0.373173
  H       2.114956      1.270439     -0.562572
  C       2.663599     -0.675825     -1.425096
  H       2.908606     -1.701240     -1.056680
  H       1.725090     -0.790566     -2.018912
  C       3.810030     -0.200817     -2.360733
  H       4.786122     -0.285263     -1.821319
  H       3.885914     -0.900519     -3.227933
  C       3.686644      1.263136     -2.902069
  H       4.504543      1.435417     -3.638069
  H       3.886960      1.971932     -2.062220
  C       2.331434      1.613572     -3.500429
  H       1.524250      1.790814     -2.762420
  C       2.015629      1.728260     -4.814272
  H       0.975162      2.020210     -5.068906
  C       2.947454      1.525897     -5.999160
  H       2.398392      0.952018     -6.785443
  H       3.822020      0.894256     -5.718953
  C       3.458113      2.857927     -6.630405
  H       4.096496      3.392008     -5.884593
  H       2.586740      3.529660     -6.819296
  C       4.250629      2.629301     -7.945925
  H       5.033869      1.853509     -7.762429
  H       3.562831      2.190694     -8.709807
  C       4.930702      3.891104     -8.542967
  H       5.695620      4.279343     -7.824320
  H       5.501347      3.585338     -9.454333
  C       3.961453      5.041313     -8.922050
  H       3.446788      5.422405     -8.006754
  H       3.149965      4.638981     -9.579448
  C       4.660262      6.226375     -9.635733
  H       5.495890      6.602459     -8.993156
  H       5.146234      5.859467    -10.574407
  C       3.709802      7.402754     -9.976119
  H       2.871310      7.026228    -10.613147
  H       3.230137      7.771425     -9.035577
  C       4.416270      8.579864    -10.692306
  H       3.702976      9.401166    -10.934507
  H       5.225353      9.013190    -10.058317
  H       4.885439      8.249131    -11.648935
138
Coordinates from ORCA-job /wrk/rja7/qm_final_3_replicates/qm_final_1.1/qm/4/freq E -2722.584673616051
  N      -2.460588     -4.315409     13.557576
  C      -1.798236     -5.176708     12.406036
  H      -1.753917     -6.217766     12.793526
  H      -0.760293     -4.809960     12.279447
  C      -3.183001     -5.250110     14.513445
  H      -3.654480     -4.653790     15.321989
  H      -3.965615     -5.805324     13.955451
  H      -2.456076     -5.964286     14.952749
  C      -3.467293     -3.257863     13.062359
  H      -2.924942     -2.537270     12.415384
  H      -4.281900     -3.765162     12.511440
  H      -3.876775     -2.760444     13.967578
  C      -1.337452     -3.576696     14.295629
  H      -0.878283     -2.872597     13.566197
  H      -0.601065     -4.323185     14.659850
  H      -1.779792     -3.031128     15.156072
  C      -2.480696     -5.163217     11.013416
  H      -1.891096     -5.925419     10.434340
  H      -3.530405     -5.548088     11.081634
  P      -0.996941     -2.985164     10.356551
  O       0.128340     -4.004920     10.194062
  O      -1.100725     -2.015173     11.540103
  O      -2.510083     -3.905413     10.371949
  O      -1.302218     -2.112728      8.963243
  C      -1.207817     -2.804295      7.702141
  H      -2.103164     -3.460523      7.552180
  H      -0.298898     -3.453783      7.673519
  C      -1.115635     -1.765347      6.572684
  H      -0.277843     -1.062222      6.771769
  O      -2.378407     -1.008880      6.542132
  C      -2.321259      0.343441      6.300661
  O      -1.287743      0.981069      6.139483
  C      -3.730174      0.956642      6.212130
  H      -3.811806      1.713362      7.027782
  H      -4.502485      0.177298      6.395696
  C      -0.918175     -2.446279      5.195183
  H      -1.769050     -3.128878      4.973296
  H       0.035641     -3.019861      5.189464
  O      -0.922797     -1.457520      4.123501
  C       0.287244     -0.860650      3.798191
  O       1.368338     -1.257010      4.205119
  C       0.054932      0.370079      2.914875
  H      -0.885227      0.243668      2.332865
  H      -0.132454      1.204123      3.634581
  C      -3.945711      1.649507      4.832769
  H      -3.119126      2.381932      4.676588
  H      -4.891265      2.241998      4.865154
  C      -3.988847      0.645415      3.649886
  H      -4.917435      0.026178      3.722289
  H      -3.140318     -0.070052      3.741746
  C      -3.917027      1.310297      2.251431
  H      -2.998791      1.945917      2.197835
  H      -4.777967      2.009941      2.108548
  C      -3.886133      0.272374      1.098784
  H      -4.833923     -0.321969      1.110946
  H      -3.068433     -0.458993      1.302894
  C      -3.690131      0.892354     -0.308520
  H      -2.732934      1.468629     -0.334491
  H      -4.503037      1.634630     -0.498768
  C      -3.686211     -0.149304     -1.474753
  H      -3.659236      0.395398     -2.445142
  H      -4.663233     -0.695769     -1.454601
  C      -2.555311     -1.163128     -1.392160
  H      -2.597430     -1.849570     -0.523233
  C      -1.508298     -1.304801     -2.243743
  H      -0.774837     -2.107655     -2.021096
  C      -1.228725     -0.538686     -3.525950
  H      -0.167583     -0.190872     -3.519384
  H      -1.853611      0.381581     -3.595362
  C      -1.452209     -1.416949     -4.795511
  H      -2.541139     -1.649873     -4.889126
  H      -0.948582     -2.404835     -4.649539
  C      -0.931421     -0.774817     -6.105667
  H       0.167660     -0.607351     -6.008748
  H      -1.381492      0.242097     -6.232607
  C      -1.237615     -1.628036     -7.364763
  H      -2.345241     -1.743431     -7.456695
  H      -0.838740     -2.662826     -7.216716
  C      -0.677684     -1.053539     -8.695265
  H      -1.003396      0.011517     -8.803923
  H      -1.145377     -1.599463     -9.550755
  C       0.863876     -1.139920     -8.837635
  H       1.180395     -2.209263     -8.746588
  H       1.357376     -0.607694     -7.989612
  C       1.397731     -0.556628    -10.170720
  H       1.097439      0.518411    -10.245797
  H       0.893594     -1.069520    -11.026801
  C       2.933950     -0.677109    -10.324585
  H       3.286135     -0.237637    -11.286315
  H       3.262055     -1.743088    -10.301753
  H       3.466923     -0.148723     -9.500290
  C       1.244038      0.717353      1.985623
  H       2.184301      0.744568      2.583863
  H       1.085771      1.750862      1.593952
  C       1.407661     -0.254303      0.786768
  H       0.437589     -0.326939      0.236002
  H       1.629300     -1.282433      1.163392
  C       2.514448      0.188652     -0.204473
  H       3.505974      0.192254      0.313230
  H       2.322986      1.250802     -0.492118
  C       2.590427     -0.692126     -1.478181
  H       2.747545     -1.756378     -1.176054
  H       1.600042     -0.671032     -1.991471
  C       3.705517     -0.295840     -2.485120
  H       4.705552     -0.483074     -2.021778
  H       3.646239     -0.972215     -3.371733
  C       3.672030      1.187284     -2.985466
  H       4.469877      1.317947     -3.751452
  H       3.955054      1.858671     -2.139076
  C       2.323804      1.641983     -3.526173
  H       1.552194      1.855776     -2.759949
  C       1.972944      1.804457     -4.826259
  H       0.946713      2.169774     -5.039314
  C       2.849966      1.582178     -6.048277
  H       2.247224      1.053903     -6.827165
  H       3.702710      0.904001     -5.812792
  C       3.398289      2.905343     -6.664752
  H       4.074565      3.397162     -5.923430
  H       2.549220      3.613403     -6.817800
  C       4.152287      2.681014     -8.002636
  H       4.921374      1.884508     -7.851447
  H       3.436694      2.271282     -8.757787
  C       4.844067      3.941148     -8.589560
  H       5.616929      4.311348     -7.870125
  H       5.405918      3.642793     -9.508702
  C       3.883544      5.105776     -8.945961
  H       3.368190      5.467968     -8.023613
  H       3.072422      4.722868     -9.615090
  C       4.591726      6.303948     -9.627421
  H       5.420068      6.666562     -8.968255
  H       5.087744      5.956752    -10.568407
  C       3.645255      7.487587     -9.953343
  H       2.815524      7.125013    -10.609382
  H       3.153621      7.834269     -9.010733
  C       4.361236      8.680615    -10.632745
  H       3.652845      9.510128    -10.860560
  H       5.165602      9.094958     -9.980156
  H       4.839597      8.373143    -11.592608
138
Coordinates from ORCA-job /wrk/rja7/qm_final_3_replicates/qm_final_1.1/qm/4/freq E -2722.584712254868
  N      -2.475874     -4.351712     13.569165
  C      -1.814536     -5.205234     12.411944
  H      -1.770657     -6.249039     12.791964
  H      -0.776907     -4.837260     12.288146
  C      -3.188494     -5.293320     14.525510
  H      -3.654710     -4.702172     15.340870
  H      -3.973872     -5.848141     13.971085
  H      -2.455952     -6.007683     14.954994
  C      -3.490581     -3.297380     13.083766
  H      -2.952915     -2.565899     12.445150
  H      -4.301062     -3.805125     12.527121
  H      -3.904707     -2.811725     13.993187
  C      -1.353006     -3.609926     14.304364
  H      -0.898620     -2.902730     13.574943
  H      -0.612977     -4.354140     14.665571
  H      -1.794319     -3.066687     15.166879
  C      -2.496514     -5.182071     11.019068
  H      -1.906772     -5.940542     10.435409
  H      -3.546449     -5.567034     11.083522
  P      -1.014618     -2.998779     10.376949
  O       0.111398     -4.016595     10.207369
  O      -1.119499     -2.036480     11.566546
  O      -2.526612     -3.919418     10.386526
  O      -1.319199     -2.118227      8.988863
  C      -1.214091     -2.801619      7.724420
  H      -2.107556     -3.457500      7.562582
  H      -0.304324     -3.450020      7.699031
  C      -1.113288     -1.755806      6.601889
  H      -0.280020     -1.051521      6.815628
  O      -2.378335     -1.004416      6.562100
  C      -2.323187      0.349667      6.331596
  O      -1.289817      0.992412      6.191135
  C      -3.733055      0.956666      6.221976
  H      -3.829630      1.713874      7.035448
  H      -4.504694      0.174299      6.395069
  C      -0.898544     -2.427679      5.222454
  H      -1.739546     -3.119905      4.992601
  H       0.062272     -2.989651      5.220290
  O      -0.909181     -1.435538      4.154141
  C       0.296066     -0.826538      3.834031
  O       1.379287     -1.213551      4.244123
  C       0.056200      0.403311      2.951619
  H      -0.885151      0.274356      2.372232
  H      -0.133503      1.236646      3.671312
  C      -3.929304      1.645956      4.837999
  H      -3.098895      2.375764      4.689846
  H      -4.873487      2.241122      4.857235
  C      -3.961174      0.639564      3.656263
  H      -4.890812      0.021057      3.721017
  H      -3.114740     -0.077347      3.756935
  C      -3.876921      1.304062      2.258184
  H      -2.954053      1.933692      2.209289
  H      -4.732775      2.009390      2.112861
  C      -3.849104      0.269527      1.102629
  H      -4.799474     -0.320675      1.111832
  H      -3.034812     -0.466550      1.303204
  C      -3.652004      0.897361     -0.301125
  H      -2.690069      1.465402     -0.323177
  H      -4.459889      1.647534     -0.483236
  C      -3.659712     -0.135090     -1.476076
  H      -3.635845      0.416937     -2.442414
  H      -4.638708     -0.677832     -1.453407
  C      -2.532251     -1.154193     -1.410998
  H      -2.570180     -1.846514     -0.546559
  C      -1.492750     -1.295076     -2.272771
  H      -0.759832     -2.101036     -2.059155
  C      -1.220046     -0.523701     -3.554156
  H      -0.162092     -0.165911     -3.548533
  H      -1.853139      0.390842     -3.621661
  C      -1.437074     -1.401650     -4.826155
  H      -2.524462     -1.641280     -4.920751
  H      -0.926593     -2.386071     -4.680838
  C      -0.918484     -0.754978     -6.135644
  H       0.179059     -0.580606     -6.037415
  H      -1.375041      0.258924     -6.262603
  C      -1.215658     -1.607665     -7.398144
  H      -2.322250     -1.730105     -7.493449
  H      -0.809728     -2.639794     -7.251318
  C      -0.656313     -1.025136     -8.726354
  H      -0.989800      0.037672     -8.832104
  H      -1.116754     -1.572029     -9.585190
  C       0.886959     -1.097405     -8.865103
  H       1.211284     -2.165312     -8.785793
  H       1.372574     -0.572070     -8.008555
  C       1.422833     -0.493429    -10.188946
  H       1.117343      0.581094    -10.250691
  H       0.925249     -0.997578    -11.053951
  C       2.960413     -0.602889    -10.337667
  H       3.314327     -0.146976    -11.291071
  H       3.294583     -1.667213    -10.329236
  H       3.486279     -0.083869     -9.502832
  C       1.243106      0.752080      2.020614
  H       2.185420      0.773794      2.615840
  H       1.088193      1.787543      1.632905
  C       1.398267     -0.219218      0.820775
  H       0.424868     -0.288885      0.275054
  H       1.617601     -1.248049      1.197224
  C       2.503264      0.216003     -0.175413
  H       3.497232      0.212326      0.337475
  H       2.318316      1.279567     -0.462673
  C       2.566812     -0.666996     -1.448209
  H       2.717869     -1.731853     -1.145969
  H       1.574211     -0.639996     -1.956577
  C       3.679091     -0.280781     -2.461901
  H       4.680308     -0.474261     -2.003914
  H       3.608836     -0.958429     -3.346603
  C       3.653564      1.201214     -2.965716
  H       4.450388      1.324647     -3.733870
  H       3.942587      1.873048     -2.121523
  C       2.306667      1.661999     -3.504040
  H       1.537973      1.881325     -2.736437
  C       1.952790      1.819257     -4.804079
  H       0.926187      2.183767     -5.016525
  C       2.824396      1.580572     -6.026693
  H       2.217531      1.045684     -6.797108
  H       3.675976      0.902863     -5.786092
  C       3.374752      2.893979     -6.661369
  H       4.057262      3.391910     -5.929833
  H       2.528184      3.603774     -6.819406
  C       4.121187      2.648175     -7.999669
  H       4.888900      1.851931     -7.840210
  H       3.400992      2.229242     -8.745244
  C       4.815616      3.896910     -8.607245
  H       5.591058      4.275084     -7.894901
  H       5.375400      3.581676     -9.521890
  C       3.860104      5.059947     -8.982445
  H       3.344221      5.438257     -8.066999
  H       3.048740      4.670795     -9.647741
  C       4.574668      6.244501     -9.680912
  H       5.404856      6.611972     -9.026688
  H       5.069233      5.880670    -10.616355
  C       3.635094      7.428605    -10.024925
  H       2.805362      7.062293    -10.679056
  H       3.142264      7.790006     -9.088438
  C       4.359002      8.609249    -10.717438
  H       3.655086      9.438571    -10.959503
  H       5.162258      9.029213    -10.067111
  H       4.840183      8.286924    -11.670971
138
Coordinates from ORCA-job /wrk/rja7/qm_final_3_replicates/qm_final_1.1/qm/4/freq E -2722.584747072311
  N      -2.457702     -4.333454     13.580606
  C      -1.797405     -5.193366     12.427082
  H      -1.752394     -6.234765     12.813545
  H      -0.760036     -4.825886     12.299441
  C      -3.171595     -5.269650     14.541281
  H      -3.638316     -4.674066     15.353145
  H      -3.957084     -5.826590     13.989092
  H      -2.440063     -5.982267     14.975384
  C      -3.471063     -3.280205     13.090154
  H      -2.933450     -2.554759     12.444510
  H      -4.283703     -3.789915     12.538617
  H      -3.882056     -2.787298     13.997102
  C      -1.333861     -3.589689     14.312302
  H      -0.878750     -2.886323     13.579648
  H      -0.594696     -4.333109     14.676991
  H      -1.774567     -3.042089     15.172365
  C      -2.481266     -5.179410     11.034756
  H      -1.890660     -5.940201     10.454906
  H      -3.530225     -5.566289     11.103294
  P      -1.003037     -2.999044     10.373427
  O       0.122597     -4.017229     10.203703
  O      -1.103628     -2.031870     11.559369
  O      -2.514394     -3.921129     10.393649
  O      -1.313376     -2.123645      8.982900
  C      -1.218209     -2.812017      7.720074
  H      -2.113283     -3.467931      7.567409
  H      -0.309140     -3.461186      7.690192
  C      -1.125248     -1.769946      6.592965
  H      -0.290258     -1.065156      6.797822
  O      -2.390101     -1.017690      6.559362
  C      -2.334901      0.335779      6.325041
  O      -1.301557      0.976873      6.177035
  C      -3.744456      0.945156      6.223369
  H      -3.835067      1.703286      7.036721
  H      -4.516561      0.164388      6.401584
  C      -0.921209     -2.446343      5.213949
  H      -1.765808     -3.136581      4.991543
  H       0.037945     -3.011098      5.207638
  O      -0.935352     -1.457495      4.142325
  C       0.269440     -0.850856      3.815809
  O       1.353536     -1.239502      4.221983
  C       0.028390      0.379396      2.933808
  H      -0.911862      0.248749      2.352984
  H      -0.164201      1.211301      3.654524
  C      -3.946667      1.634517      4.840266
  H      -3.117358      2.365085      4.689965
  H      -4.891388      2.228755      4.863133
  C      -3.980821      0.629366      3.657656
  H      -4.910316      0.010688      3.722811
  H      -3.134072     -0.087342      3.756097
  C      -3.897161      1.296005      2.260526
  H      -2.975020      1.926822      2.213317
  H      -4.753784      2.000496      2.115656
  C      -3.866231      0.263384      1.103446
  H      -4.815446     -0.328751      1.110641
  H      -3.050618     -0.471384      1.303884
  C      -3.668390      0.894055     -0.298915
  H      -2.707712      1.464542     -0.319028
  H      -4.477792      1.642951     -0.480445
  C      -3.672409     -0.135970     -1.475868
  H      -3.646870      0.418026     -2.441060
  H      -4.651242     -0.679184     -1.456764
  C      -2.544992     -1.155059     -1.409728
  H      -2.585509     -1.849512     -0.547069
  C      -1.503742     -1.294860     -2.269377
  H      -0.772398     -2.102389     -2.056415
  C      -1.227559     -0.520666     -3.548159
  H      -0.167762     -0.168365     -3.541286
  H      -1.856721      0.396890     -3.612206
  C      -1.448659     -1.393359     -4.822665
  H      -2.537187     -1.627458     -4.918130
  H      -0.943220     -2.380866     -4.680485
  C      -0.926950     -0.745438     -6.130234
  H       0.171581     -0.576642     -6.031778
  H      -1.378434      0.271144     -6.254058
  C      -1.229721     -1.593425     -7.394299
  H      -2.337098     -1.708035     -7.489921
  H      -0.831166     -2.628752     -7.249472
  C      -0.665949     -1.012933     -8.721313
  H      -0.989157      0.053365     -8.824363
  H      -1.132683     -1.553206     -9.580931
  C       0.876218     -1.100908     -8.861553
  H       1.189710     -2.172177     -8.783659
  H       1.368219     -0.581474     -8.004982
  C       1.416627     -0.501316    -10.185384
  H       1.122479      0.576433    -10.245572
  H       0.912181     -0.999248    -11.050034
  C       2.952610     -0.627572    -10.336889
  H       3.309867     -0.174876    -11.290570
  H       3.275053     -1.695519    -10.329899
  H       3.485839     -0.115134     -9.502711
  C       1.215376      0.734124      2.004844
  H       2.156352      0.758870      2.602025
  H       1.056701      1.769520      1.618502
  C       1.378346     -0.233899      0.803214
  H       0.407865     -0.305299      0.252573
  H       1.599394     -1.262834      1.178334
  C       2.487490      0.208072     -0.185782
  H       3.477414      0.210863      0.334973
  H       2.297779      1.270303     -0.474857
  C       2.568448     -0.675167     -1.457527
  H       2.723358     -1.738845     -1.152925
  H       1.580918     -0.654689     -1.976159
  C       3.688863     -0.282993     -2.460380
  H       4.686354     -0.472333     -1.992619
  H       3.630268     -0.960389     -3.346253
  C       3.661773      1.198976     -2.964561
  H       4.466700      1.326747     -3.723491
  H       3.937571      1.872222     -2.117082
  C       2.318704      1.652160     -3.518722
  H       1.539949      1.866572     -2.759857
  C       1.978858      1.808727     -4.822848
  H       0.952953      2.168171     -5.046396
  C       2.864790      1.579117     -6.037160
  H       2.269982      1.038896     -6.813462
  H       3.720680      0.909575     -5.789352
  C       3.407576      2.898630     -6.666434
  H       4.080796      3.401845     -5.929868
  H       2.555451      3.600814     -6.828437
  C       4.163346      2.662153     -8.001292
  H       4.936718      1.871796     -7.839728
  H       3.450394      2.238787     -8.751342
  C       4.849623      3.917885     -8.604394
  H       5.619128      4.301895     -7.888929
  H       5.415157      3.609186     -9.517751
  C       3.885185      5.073260     -8.980379
  H       3.363882      5.445436     -8.065489
  H       3.078929      4.678279     -9.648417
  C       4.591522      6.265173     -9.674581
  H       5.416977      6.638257     -9.017560
  H       5.091403      5.907710    -10.609657
  C       3.642871      7.442145    -10.017942
  H       2.817040      7.070124    -10.673755
  H       3.145947      7.797839     -9.081457
  C       4.358211      8.629808    -10.707332
  H       3.648178      9.454341    -10.947865
  H       5.157965      9.054305    -10.055633
  H       4.842259      8.313284    -11.661370
138
Coordinates from ORCA-job /wrk/rja7/qm_final_3_replicates/qm_final_1.1/qm/4/freq E -2722.584768208515
  N      -2.458881     -4.340159     13.571790
  C      -1.796095     -5.197243     12.417674
  H      -1.749195     -6.238899     12.803255
  H      -0.759205     -4.827956     12.290706
  C      -3.175364     -5.278371     14.528581
  H      -3.644586     -4.684418     15.340213
  H      -3.959199     -5.834156     13.972883
  H      -2.445149     -5.991820     14.963591
  C      -3.470458     -3.285317     13.080831
  H      -2.931573     -2.561352     12.434589
  H      -4.283759     -3.793885     12.529226
  H      -3.880499     -2.791476     13.987694
  C      -1.336440     -3.598266     14.307647
  H      -0.879901     -2.893583     13.577134
  H      -0.598049     -4.342545     14.672258
  H      -1.778777     -3.052289     15.167886
  C      -2.479775     -5.183022     11.025433
  H      -1.887763     -5.942098     10.444792
  H      -3.528227     -5.571354     11.093161
  P      -1.003390     -3.000726     10.368422
  O       0.122926     -4.018066     10.198345
  O      -1.105709     -2.035334     11.555735
  O      -2.513981     -3.924077     10.386014
  O      -1.313871     -2.123321      8.979009
  C      -1.219414     -2.809929      7.715248
  H      -2.115216     -3.464787      7.562084
  H      -0.311053     -3.460065      7.684559
  C      -1.125749     -1.766941      6.589126
  H      -0.290296     -1.062913      6.794370
  O      -2.389918     -1.013165      6.555561
  C      -2.332969      0.340232      6.320250
  O      -1.298891      0.979794      6.170458
  C      -3.741574      0.952177      6.220325
  H      -3.829023      1.711653      7.032727
  H      -4.514959      0.173215      6.400919
  C      -0.921922     -2.443184      5.210006
  H      -1.766826     -3.132883      4.987248
  H       0.036862     -3.008493      5.203918
  O      -0.935462     -1.453801      4.139007
  C       0.268629     -0.843390      3.816698
  O       1.352767     -1.229144      4.225562
  C       0.026140      0.386159      2.934306
  H      -0.912493      0.252829      2.351589
  H      -0.169788      1.217822      3.654432
  C      -3.945242      1.641148      4.836998
  H      -3.115206      2.370616      4.685397
  H      -4.889128      2.236676      4.860980
  C      -3.982290      0.635618      3.654830
  H      -4.912932      0.018801      3.721085
  H      -3.136601     -0.082299      3.752880
  C      -3.898288      1.301506      2.257409
  H      -2.974939      1.930344      2.209534
  H      -4.753536      2.007710      2.112557
  C      -3.869907      0.268313      1.100810
  H      -4.820579     -0.321450      1.108303
  H      -3.055944     -0.468121      1.301979
  C      -3.669530      0.897559     -0.301813
  H      -2.709040      1.468394     -0.321075
  H      -4.478627      1.645888     -0.486038
  C      -3.670339     -0.134030     -1.477035
  H      -3.643262      0.418493     -2.442992
  H      -4.648589     -0.678352     -1.459387
  C      -2.542177     -1.151933     -1.406137
  H      -2.583118     -1.843736     -0.541348
  C      -1.499713     -1.292781     -2.263688
  H      -0.768194     -2.099506     -2.048575
  C      -1.222646     -0.520446     -3.543222
  H      -0.160922     -0.174240     -3.538024
  H      -1.847347      0.400306     -3.605632
  C      -1.450300     -1.391910     -4.817132
  H      -2.539768     -1.622570     -4.909836
  H      -0.947541     -2.381077     -4.677016
  C      -0.930695     -0.744126     -6.125340
  H       0.168322     -0.576487     -6.029116
  H      -1.381292      0.273091     -6.247589
  C      -1.238035     -1.590734     -7.388940
  H      -2.345789     -1.704256     -7.481359
  H      -0.840142     -2.626630     -7.246384
  C      -0.677598     -1.009181     -8.716600
  H      -0.998480      0.058136     -8.816861
  H      -1.148573     -1.546747     -9.575552
  C       0.863684     -1.101197     -8.861365
  H       1.174408     -2.173363     -8.784459
  H       1.359798     -0.583270     -8.006149
  C       1.401839     -0.503553    -10.186727
  H       1.110875      0.575049    -10.246381
  H       0.893224     -1.000240    -11.049652
  C       2.936902     -0.635255    -10.342786
  H       3.292891     -0.184824    -11.298002
  H       3.255502     -1.704347    -10.335662
  H       3.474486     -0.123968     -9.510773
  C       1.214050      0.743421      2.007538
  H       2.153940      0.769996      2.606388
  H       1.054017      1.778525      1.621015
  C       1.381282     -0.224396      0.806491
  H       0.412303     -0.297755      0.253699
  H       1.603767     -1.252683      1.182534
  C       2.491923      0.219565     -0.179774
  H       3.478995      0.231878      0.346354
  H       2.296413      1.278718     -0.475908
  C       2.585630     -0.670308     -1.445928
  H       2.746518     -1.731092     -1.134193
  H       1.601008     -0.660075     -1.970665
  C       3.708240     -0.275700     -2.445435
  H       4.705052     -0.458309     -1.973611
  H       3.656256     -0.956133     -3.329465
  C       3.675063      1.204466     -2.954610
  H       4.480789      1.333722     -3.712526
  H       3.946303      1.881816     -2.108966
  C       2.330553      1.649558     -3.512122
  H       1.550703      1.865452     -2.754830
  C       1.992140      1.799265     -4.817223
  H       0.965613      2.154735     -5.044340
  C       2.881851      1.570564     -6.028919
  H       2.292844      1.021071     -6.803276
  H       3.743154      0.909981     -5.775996
  C       3.414346      2.891955     -6.663088
  H       4.080348      3.404317     -5.926293
  H       2.556492      3.585776     -6.831097
  C       4.177653      2.657281     -7.993983
  H       4.956651      1.873617     -7.827029
  H       3.471704      2.226234     -8.746275
  C       4.856823      3.916851     -8.596882
  H       5.618404      4.309538     -7.877708
  H       5.430443      3.610665     -9.506058
  C       3.884561      5.062757     -8.981593
  H       3.353126      5.431080     -8.070924
  H       3.087137      4.659585     -9.655171
  C       4.585547      6.260503     -9.671363
  H       5.402008      6.641848     -9.007948
  H       5.096349      5.906847    -10.601975
  C       3.628913      7.428240    -10.023843
  H       2.811904      7.047724    -10.685711
  H       3.121252      7.780486     -9.091841
  C       4.338922      8.621512    -10.709106
  H       3.623513      9.439508    -10.955868
  H       5.129948      9.053625    -10.051760
  H       4.833005      8.308296    -11.659094
138
Coordinates from ORCA-job /wrk/rja7/qm_final_3_replicates/qm_final_1.1/qm/4/freq E -2722.584811027580
  N      -2.447326     -4.374877     13.557474
  C      -1.781222     -5.224889     12.399860
  H      -1.731703     -6.267955     12.781280
  H      -0.745191     -4.852689     12.274436
  C      -3.161387     -5.319340     14.509839
  H      -3.632479     -4.730128     15.323823
  H      -3.943620     -5.874369     13.951089
  H      -2.429682     -6.032832     14.942248
  C      -3.461783     -3.320642     13.070637
  H      -2.924613     -2.593905     12.426178
  H      -4.274103     -3.829343     12.517697
  H      -3.872109     -2.830716     13.979459
  C      -1.327270     -3.632816     14.297223
  H      -0.872684     -2.923828     13.569642
  H      -0.587169     -4.376632     14.659356
  H      -1.771502     -3.091424     15.159380
  C      -2.464974     -5.207159     11.007838
  H      -1.869829     -5.960904     10.423468
  H      -3.511830     -5.599870     11.073753
  P      -0.998413     -3.015243     10.360777
  O       0.132463     -4.026184     10.183812
  O      -1.104088     -2.057398     11.554064
  O      -2.504448     -3.945414     10.374185
  O      -1.315643     -2.130753      8.977246
  C      -1.225065     -2.809940      7.709188
  H      -2.121194     -3.464326      7.555740
  H      -0.316743     -3.459795      7.671808
  C      -1.135929     -1.761116      6.588372
  H      -0.301754     -1.056212      6.795540
  O      -2.401860     -1.009804      6.560819
  C      -2.347648      0.344835      6.331642
  O      -1.314987      0.987245      6.183854
  C      -3.757282      0.954941      6.235761
  H      -3.843651      1.714274      7.048383
  H      -4.529254      0.174945      6.417882
  C      -0.933446     -2.431455      5.205964
  H      -1.776445     -3.123357      4.983068
  H       0.027114     -2.993670      5.195899
  O      -0.953921     -1.438860      4.138161
  C       0.245195     -0.817602      3.817630
  O       1.332223     -1.193401      4.228086
  C      -0.007980      0.409540      2.934881
  H      -0.942838      0.265447      2.348817
  H      -0.216185      1.238732      3.654421
  C      -3.964871      1.644662      4.853209
  H      -3.136039      2.375417      4.701130
  H      -4.909403      2.239081      4.878962
  C      -4.001677      0.639725      3.670569
  H      -4.932271      0.022794      3.736103
  H      -3.155721     -0.077690      3.768813
  C      -3.916022      1.306265      2.273784
  H      -2.992528      1.934910      2.228024
  H      -4.770948      2.012714      2.127967
  C      -3.884956      0.274399      1.116224
  H      -4.835648     -0.315304      1.120702
  H      -3.071401     -0.462159      1.318784
  C      -3.680182      0.906127     -0.284555
  H      -2.721949      1.481064     -0.298286
  H      -4.491458      1.651276     -0.471401
  C      -3.671331     -0.123628     -1.461267
  H      -3.644495      0.430423     -2.426309
  H      -4.646384     -0.673791     -1.447696
  C      -2.537583     -1.135373     -1.388783
  H      -2.574357     -1.825553     -0.522499
  C      -1.494791     -1.272037     -2.246442
  H      -0.759192     -2.074938     -2.031048
  C      -1.222682     -0.499851     -3.527285
  H      -0.160691     -0.154612     -3.525381
  H      -1.847916      0.420712     -3.587111
  C      -1.454495     -1.371831     -4.799946
  H      -2.543890     -1.604740     -4.887626
  H      -0.949059     -2.359930     -4.661993
  C      -0.943427     -0.723454     -6.111247
  H       0.155155     -0.549815     -6.019872
  H      -1.399785      0.291260     -6.233469
  C      -1.252952     -1.573900     -7.371689
  H      -2.360740     -1.689863     -7.460003
  H      -0.852601     -2.608642     -7.227504
  C      -0.697743     -0.995530     -8.702959
  H      -1.016957      0.072291     -8.803920
  H      -1.173798     -1.533709     -9.558661
  C       0.842510     -1.091815     -8.854395
  H       1.150541     -2.164652     -8.775214
  H       1.343817     -0.572621     -8.002860
  C       1.376772     -0.501298    -10.184463
  H       1.091730      0.578735    -10.246189
  H       0.860563     -0.998065    -11.042838
  C       2.910086     -0.643101    -10.348692
  H       3.263669     -0.197784    -11.307180
  H       3.221799     -1.714201    -10.340206
  H       3.455687     -0.133016     -9.521199
  C       1.179284      0.780135      2.012631
  H       2.116687      0.814622      2.615005
  H       1.011189      1.814288      1.627035
  C       1.360465     -0.185165      0.811798
  H       0.395737     -0.265007      0.252803
  H       1.588135     -1.211860      1.189107
  C       2.475249      0.266809     -0.165734
  H       3.455018      0.298584      0.373229
  H       2.267203      1.319661     -0.475004
  C       2.599516     -0.633861     -1.421411
  H       2.771192     -1.688993     -1.096354
  H       1.623419     -0.643310     -1.962309
  C       3.730959     -0.233099     -2.408644
  H       4.723751     -0.399183     -1.922726
  H       3.697852     -0.920831     -3.288046
  C       3.685081      1.242099     -2.931378
  H       4.501155      1.376188     -3.677335
  H       3.933021      1.930895     -2.087835
  C       2.343129      1.661711     -3.514701
  H       1.549200      1.876300     -2.771841
  C       2.023675      1.789562     -4.826793
  H       0.996286      2.127097     -5.076011
  C       2.936193      1.559079     -6.020960
  H       2.372456      0.980620     -6.793151
  H       3.809565      0.925518     -5.742159
  C       3.445951      2.881848     -6.670644
  H       4.084587      3.423757     -5.930742
  H       2.574328      3.550484     -6.867321
  C       4.241713      2.644358     -7.981770
  H       5.034987      1.881801     -7.786813
  H       3.562443      2.185700     -8.742403
  C       4.904634      3.910618     -8.588675
  H       5.635598      4.335382     -7.856259
  H       5.510078      3.604866     -9.477066
  C       3.913614      5.024036     -9.018636
  H       3.344280      5.388389     -8.129541
  H       3.149437      4.590566     -9.711398
  C       4.603706      6.232499     -9.700926
  H       5.387374      6.644022     -9.016486
  H       5.153816      5.882193    -10.610163
  C       3.627668      7.369112    -10.098932
  H       2.843624      6.958380    -10.782121
  H       3.080319      7.717987     -9.188407
  C       4.327377      8.573365    -10.775648
  H       3.598852      9.369016    -11.054833
  H       5.085151      9.033787    -10.098628
  H       4.859919      8.262914    -11.705563
138
Coordinates from ORCA-job /wrk/rja7/qm_final_3_replicates/qm_final_1.1/qm/4/freq E -2722.584559907382
  N      -2.446563     -4.507049     13.519163
  C      -1.767445     -5.332180     12.351155
  H      -1.715529     -6.381197     12.715483
  H      -0.732711     -4.952840     12.236955
  C      -3.164581     -5.470713     14.449138
  H      -3.639903     -4.896836     15.271428
  H      -3.943903     -6.012799     13.873862
  H      -2.436042     -6.192772     14.872492
  C      -3.459888     -3.446323     13.042048
  H      -2.918702     -2.714510     12.406477
  H      -4.269079     -3.948289     12.478545
  H      -3.872709     -2.967373     13.955456
  C      -1.334229     -3.774079     14.280815
  H      -0.879204     -3.049479     13.569110
  H      -0.594397     -4.522102     14.634704
  H      -1.786041     -3.249516     15.149429
  C      -2.444843     -5.295787     10.956351
  H      -1.839055     -6.032203     10.360904
  H      -3.488223     -5.698764     11.009459
  P      -0.998496     -3.078244     10.350524
  O       0.142793     -4.072583     10.151494
  O      -1.113385     -2.149380     11.566400
  O      -2.494248     -4.023438     10.343383
  O      -1.328210     -2.164574      8.988399
  C      -1.250667     -2.816648      7.704784
  H      -2.152181     -3.462306      7.545398
  H      -0.347574     -3.472532      7.648538
  C      -1.162093     -1.746906      6.604390
  H      -0.331997     -1.042623      6.829377
  O      -2.431184     -0.999901      6.584062
  C      -2.377870      0.359001      6.379752
  O      -1.345445      1.005669      6.249512
  C      -3.786991      0.970058      6.284136
  H      -3.871875      1.730799      7.095417
  H      -4.560017      0.191100      6.465890
  C      -0.950597     -2.393834      5.211567
  H      -1.784394     -3.092868      4.977279
  H       0.016313     -2.945049      5.195899
  O      -0.982625     -1.386267      4.158621
  C       0.206005     -0.738075      3.851600
  O       1.297390     -1.094476      4.267438
  C      -0.068390      0.490622      2.976818
  H      -0.992514      0.326268      2.379649
  H      -0.308019      1.307668      3.700486
  C      -3.993691      1.662729      4.901688
  H      -3.162169      2.391246      4.752816
  H      -4.935531      2.261366      4.928063
  C      -4.033142      0.660768      3.716381
  H      -4.965587      0.046522      3.779943
  H      -3.188810     -0.058098      3.814445
  C      -3.940792      1.330322      2.321818
  H      -3.015195      1.956274      2.283409
  H      -4.792992      2.039768      2.173926
  C      -3.904054      0.304534      1.158999
  H      -4.854399     -0.285537      1.156063
  H      -3.091148     -0.432651      1.362845
  C      -3.688872      0.946344     -0.235828
  H      -2.738130      1.533808     -0.233905
  H      -4.507239      1.682372     -0.427765
  C      -3.653303     -0.073816     -1.419784
  H      -3.625690      0.488580     -2.379818
  H      -4.619999     -0.638887     -1.421130
  C      -2.506057     -1.070930     -1.347174
  H      -2.528019     -1.754257     -0.474906
  C      -1.468364     -1.201665     -2.211460
  H      -0.723268     -1.996382     -1.998870
  C      -1.212273     -0.429584     -3.496088
  H      -0.148441     -0.090274     -3.504971
  H      -1.836577      0.492246     -3.544597
  C      -1.460914     -1.298769     -4.766589
  H      -2.550950     -1.533499     -4.840259
  H      -0.951496     -2.286140     -4.638790
  C      -0.972504     -0.645304     -6.084089
  H       0.125319     -0.460322     -6.006209
  H      -1.440247      0.365073     -6.200414
  C      -1.293378     -1.497263     -7.340195
  H      -2.401605     -1.616577     -7.414824
  H      -0.888350     -2.530812     -7.199938
  C      -0.754839     -0.918984     -8.678421
  H      -1.064928      0.152510     -8.771398
  H      -1.250148     -1.449228     -9.527926
  C       0.781341     -1.032145     -8.854162
  H       1.077110     -2.109223     -8.782191
  H       1.302088     -0.521998     -8.008360
  C       1.302968     -0.448642    -10.192059
  H       1.043769      0.638256    -10.244471
  H       0.757043     -0.929710    -11.041018
  C       2.828060     -0.630438    -10.389138
  H       3.174096     -0.188260    -11.351783
  H       3.109967     -1.709788    -10.394258
  H       3.404718     -0.142054     -9.569793
  C       1.118568      0.898016      2.070376
  H       2.048941      0.943628      2.683015
  H       0.935066      1.933340      1.695072
  C       1.329621     -0.052200      0.863559
  H       0.373776     -0.140890      0.291790
  H       1.567662     -1.078401      1.236005
  C       2.452957      0.421931     -0.092129
  H       3.412702      0.499928      0.477587
  H       2.214944      1.457808     -0.434067
  C       2.651224     -0.501858     -1.320603
  H       2.851232     -1.541501     -0.962874
  H       1.697777     -0.561220     -1.898919
  C       3.801236     -0.082681     -2.278803
  H       4.783270     -0.201061     -1.759371
  H       3.814787     -0.788969     -3.144148
  C       3.716255      1.376504     -2.840715
  H       4.558829      1.526976     -3.553479
  H       3.896129      2.097394     -2.006900
  C       2.384614      1.715582     -3.496686
  H       1.550732      1.926568     -2.797839
  C       2.122725      1.771174     -4.826342
  H       1.096047      2.050590     -5.141465
  C       3.102556      1.535394     -5.964792
  H       2.623849      0.861311     -6.716578
  H       4.010780      1.000477     -5.604233
  C       3.533497      2.853054     -6.678583
  H       4.069485      3.497845     -5.939582
  H       2.622055      3.423513     -6.976491
  C       4.440395      2.611060     -7.914465
  H       5.279878      1.936026     -7.617677
  H       3.863683      2.050548     -8.691946
  C       5.035460      3.897203     -8.549757
  H       5.634987      4.447075     -7.782891
  H       5.758684      3.602753     -9.349011
  C       3.986002      4.864206     -9.159579
  H       3.276933      5.200548     -8.365239
  H       3.366522      4.310271     -9.907946
  C       4.617014      6.112226     -9.828294
  H       5.253752      6.648139     -9.081058
  H       5.314841      5.787084    -10.640314
  C       3.577440      7.101779    -10.414505
  H       2.940609      6.565847    -11.160532
  H       2.881620      7.425902     -9.601628
  C       4.218814      8.346866    -11.075304
  H       3.447667      9.039191    -11.484525
  H       4.832682      8.922033    -10.342451
  H       4.892642      8.057840    -11.916282
138
Coordinates from ORCA-job /wrk/rja7/qm_final_3_replicates/qm_final_1.1/qm/4/freq E -2722.584877459982
  N      -2.454930     -4.412934     13.542951
  C      -1.786284     -5.256240     12.381899
  H      -1.740584     -6.302043     12.756119
  H      -0.749353     -4.884670     12.262019
  C      -3.171876     -5.362470     14.488174
  H      -3.640193     -4.777546     15.306733
  H      -3.956427     -5.909682     13.924997
  H      -2.442845     -6.082000     14.914994
  C      -3.467214     -3.354545     13.059959
  H      -2.927035     -2.625239     12.420901
  H      -4.278038     -3.859060     12.500952
  H      -3.879710     -2.869733     13.970490
  C      -1.336045     -3.676398     14.290423
  H      -0.880284     -2.961529     13.569397
  H      -0.597415     -4.423490     14.648655
  H      -1.781767     -3.141091     15.155653
  C      -2.465622     -5.228679     10.987809
  H      -1.868012     -5.977738     10.399938
  H      -3.512523     -5.622023     11.047177
  P      -0.997949     -3.032139     10.359633
  O       0.134025     -4.040562     10.176944
  O      -1.106149     -2.084175     11.560763
  O      -2.503569     -3.962438     10.362688
  O      -1.314091     -2.136896      8.983040
  C      -1.227188     -2.806365      7.709365
  H      -2.125896     -3.456274      7.551957
  H      -0.321612     -3.459788      7.666513
  C      -1.135264     -1.749113      6.597050
  H      -0.303118     -1.044493      6.813487
  O      -2.402740     -1.000236      6.571029
  C      -2.351130      0.356296      6.353450
  O      -1.319722      1.002478      6.213763
  C      -3.762150      0.962813      6.256492
  H      -3.849877      1.724145      7.067008
  H      -4.532155      0.181265      6.440192
  C      -0.926101     -2.408639      5.210305
  H      -1.764842     -3.103569      4.980939
  H       0.037376     -2.965883      5.198893
  O      -0.949730     -1.409670      4.148610
  C       0.246402     -0.780874      3.831272
  O       1.335204     -1.152464      4.240739
  C      -0.013646      0.447629      2.952157
  H      -0.948062      0.299510      2.366355
  H      -0.227093      1.273820      3.673602
  C      -3.972207      1.649286      4.872610
  H      -3.143359      2.379437      4.717341
  H      -4.916164      2.244612      4.898963
  C      -4.011750      0.641908      3.692302
  H      -4.942527      0.025539      3.760611
  H      -3.166041     -0.075645      3.791027
  C      -3.927150      1.305688      2.294335
  H      -3.003867      1.934697      2.247471
  H      -4.782384      2.011553      2.147532
  C      -3.894265      0.272387      1.138033
  H      -4.843076     -0.320309      1.143804
  H      -3.078464     -0.461632      1.341130
  C      -3.691708      0.904469     -0.262869
  H      -2.737881      1.487028     -0.275283
  H      -4.508918      1.642970     -0.450659
  C      -3.672925     -0.124427     -1.440062
  H      -3.651352      0.430902     -2.404474
  H      -4.642595     -0.684132     -1.427406
  C      -2.529418     -1.125471     -1.370047
  H      -2.555307     -1.812818     -0.501089
  C      -1.489586     -1.255544     -2.232563
  H      -0.745993     -2.051423     -2.018678
  C      -1.229089     -0.482929     -3.515884
  H      -0.169614     -0.129800     -3.518511
  H      -1.862050      0.432489     -3.573858
  C      -1.459253     -1.358554     -4.786192
  H      -2.547050     -1.600580     -4.868805
  H      -0.945045     -2.342221     -4.649074
  C      -0.959542     -0.708556     -6.101211
  H       0.137356     -0.522887     -6.013967
  H      -1.427184      0.300800     -6.225193
  C      -1.264397     -1.566707     -7.357619
  H      -2.371320     -1.692669     -7.442176
  H      -0.854769     -2.597353     -7.209977
  C      -0.717689     -0.990284     -8.693415
  H      -1.043253      0.075277     -8.798069
  H      -1.194243     -1.534908     -9.544745
  C       0.822411     -1.079242     -8.851498
  H       1.136429     -2.149925     -8.765913
  H       1.325078     -0.551284     -8.005956
  C       1.347101     -0.497070    -10.189058
  H       1.059923      0.581975    -10.256874
  H       0.826257     -1.001119    -11.040403
  C       2.879460     -0.637743    -10.362592
  H       3.226289     -0.196502    -11.325419
  H       3.192406     -1.708444    -10.351183
  H       3.429974     -0.123284     -9.540964
  C       1.171001      0.825485      2.029480
  H       2.108598      0.862296      2.631495
  H       0.999026      1.859783      1.645914
  C       1.353692     -0.137981      0.827478
  H       0.389432     -0.216700      0.267733
  H       1.579861     -1.165244      1.204191
  C       2.470116      0.312429     -0.148581
  H       3.447082      0.352008      0.394909
  H       2.258583      1.361440     -0.468125
  C       2.603082     -0.598054     -1.396151
  H       2.774853     -1.649987     -1.060820
  H       1.630608     -0.613584     -1.943711
  C       3.740676     -0.205123     -2.379747
  H       4.730462     -0.364046     -1.885807
  H       3.712204     -0.901057     -3.252789
  C       3.694682      1.264143     -2.918722
  H       4.521373      1.394213     -3.653652
  H       3.925704      1.964115     -2.079674
  C       2.359448      1.667202     -3.528372
  H       1.551149      1.882290     -2.801286
  C       2.061703      1.779535     -4.847097
  H       1.036701      2.106788     -5.118033
  C       2.995964      1.548330     -6.023932
  H       2.456528      0.944874     -6.794424
  H       3.879341      0.940032     -5.721659
  C       3.484400      2.872428     -6.686371
  H       4.094314      3.442438     -5.943312
  H       2.599775      3.514700     -6.910738
  C       4.312112      2.637058     -7.977612
  H       5.120048      1.897316     -7.756824
  H       3.660687      2.151831     -8.746361
  C       4.954291      3.913226     -8.586084
  H       5.650151      4.371134     -7.839660
  H       5.593514      3.613907     -9.452542
  C       3.941930      4.989071     -9.060477
  H       3.333208      5.343690     -8.193993
  H       3.215274      4.523199     -9.772336
  C       4.614002      6.212314     -9.734309
  H       5.360321      6.657383     -9.029549
  H       5.204831      5.870862    -10.621077
  C       3.614104      7.311125    -10.177449
  H       2.866774      6.866712    -10.880326
  H       3.026622      7.651591     -9.289110
  C       4.295734      8.530338    -10.845834
  H       3.551536      9.300362    -11.153921
  H       5.018989      9.020194    -10.151868
  H       4.864499      8.228113    -11.756820
138
Coordinates from ORCA-job /wrk/rja7/qm_final_3_replicates/qm_final_1.1/qm/4/freq E -2722.584916185361
  N      -2.452299     -4.426440     13.540917
  C      -1.783782     -5.266645     12.377673
  H      -1.738201     -6.313373     12.749263
  H      -0.747015     -4.894516     12.258334
  C      -3.168144     -5.378422     14.484531
  H      -3.635193     -4.795495     15.305230
  H      -3.953701     -5.923601     13.920832
  H      -2.438879     -6.099366     14.908540
  C      -3.465246     -3.367461     13.060700
  H      -2.925538     -2.636389     12.423009
  H      -4.275616     -3.871081     12.500265
  H      -3.878149     -2.885183     13.972393
  C      -1.333302     -3.690900     14.289360
  H      -0.878482     -2.973862     13.569896
  H      -0.594111     -4.438465     14.645381
  H      -1.778751     -3.157879     15.156172
  C      -2.463679     -5.235805     10.983760
  H      -1.865620     -5.982806     10.393702
  H      -3.510212     -5.630159     11.042437
  P      -0.998315     -3.036457     10.359091
  O       0.134239     -4.043343     10.172131
  O      -1.105827     -2.092224     11.563253
  O      -2.503131     -3.968132     10.361289
  O      -1.316707     -2.137508      8.985449
  C      -1.230823     -2.804036      7.710042
  H      -2.129030     -3.454558      7.552425
  H      -0.324728     -3.456600      7.665007
  C      -1.140867     -1.744595      6.599697
  H      -0.310525     -1.038405      6.818137
  O      -2.410127     -0.998652      6.573700
  C      -2.360426      0.358133      6.357562
  O      -1.329666      1.005655      6.219526
  C      -3.772008      0.963234      6.259490
  H      -3.861190      1.724337      7.070056
  H      -4.541553      0.181012      6.442220
  C      -0.928981     -2.401058      5.211938
  H      -1.765800     -3.097542      4.980292
  H       0.035831     -2.956052      5.200507
  O      -0.953541     -1.400201      4.152055
  C       0.242310     -0.770229      3.835996
  O       1.330895     -1.141195      4.246471
  C      -0.017935      0.458851      2.957615
  H      -0.951438      0.309900      2.370590
  H      -0.233590      1.284154      3.679399
  C      -3.981254      1.649898      4.875412
  H      -3.152391      2.380261      4.721154
  H      -4.925189      2.245283      4.901199
  C      -4.020082      0.642802      3.694699
  H      -4.950739      0.026219      3.762610
  H      -3.174153     -0.074516      3.793525
  C      -3.934625      1.306658      2.296684
  H      -3.011940      1.936697      2.251024
  H      -4.790459      2.011566      2.148825
  C      -3.899311      0.273366      1.140390
  H      -4.847260     -0.320702      1.145493
  H      -3.082831     -0.459664      1.344498
  C      -3.695225      0.905139     -0.260524
  H      -2.742025      1.488310     -0.271776
  H      -4.512538      1.643173     -0.450119
  C      -3.673777     -0.123759     -1.437540
  H      -3.651130      0.431816     -2.401785
  H      -4.643064     -0.684191     -1.426755
  C      -2.529677     -1.123953     -1.365924
  H      -2.555806     -1.810916     -0.496661
  C      -1.489377     -1.254194     -2.227809
  H      -0.745961     -2.050126     -2.013503
  C      -1.228178     -0.481252     -3.510721
  H      -0.167807     -0.130591     -3.513647
  H      -1.859122      0.435635     -3.567285
  C      -1.461514     -1.354528     -4.781925
  H      -2.549669     -1.595500     -4.862958
  H      -0.947887     -2.338892     -4.647704
  C      -0.963878     -0.701991     -6.096415
  H       0.133322     -0.517730     -6.010839
  H      -1.430595      0.308220     -6.216826
  C      -1.272189     -1.556062     -7.354663
  H      -2.379282     -1.682336     -7.436341
  H      -0.861594     -2.586999     -7.211763
  C      -0.729761     -0.974558     -8.689984
  H      -1.056912      0.090916     -8.790472
  H      -1.207859     -1.517067     -9.541805
  C       0.810040     -1.060818     -8.852394
  H       1.125859     -2.131251     -8.770000
  H       1.314253     -0.533965     -8.007068
  C       1.330106     -0.474829    -10.190043
  H       1.041301      0.603987    -10.254595
  H       0.807443     -0.977586    -11.041028
  C       2.862060     -0.613285    -10.368510
  H       3.205645     -0.168671    -11.330947
  H       3.176194     -1.683683    -10.361286
  H       3.414259     -0.100886     -9.546868
  C       1.167223      0.838892      2.036644
  H       2.103497      0.879018      2.640507
  H       0.993166      1.872248      1.651447
  C       1.354853     -0.125763      0.836504
  H       0.391498     -0.208740      0.275777
  H       1.584233     -1.151656      1.214989
  C       2.470977      0.327259     -0.138658
  H       3.446398      0.373459      0.407060
  H       2.254815      1.374135     -0.462163
  C       2.611847     -0.586503     -1.382985
  H       2.787593     -1.636523     -1.043756
  H       1.641288     -0.608126     -1.933829
  C       3.751385     -0.191096     -2.363337
  H       4.739684     -0.340271     -1.863486
  H       3.731813     -0.891738     -3.232820
  C       3.697223      1.274714     -2.910679
  H       4.528126      1.407622     -3.640367
  H       3.916018      1.981500     -2.074086
  C       2.363403      1.662066     -3.533332
  H       1.546483      1.872310     -2.814512
  C       2.076567      1.764939     -4.855261
  H       1.050491      2.079729     -5.137322
  C       3.024540      1.537913     -6.022147
  H       2.500008      0.923015     -6.793732
  H       3.912659      0.942835     -5.707776
  C       3.502925      2.863799     -6.688704
  H       4.096903      3.447368     -5.943251
  H       2.612349      3.492385     -6.927573
  C       4.348391      2.630636     -7.969032
  H       5.163763      1.903619     -7.733925
  H       3.712350      2.131365     -8.741587
  C       4.979953      3.911303     -8.579722
  H       5.660351      4.384491     -7.828619
  H       5.633460      3.615196     -9.436477
  C       3.957559      4.968864     -9.073697
  H       3.332815      5.319313     -8.217114
  H       3.247235      4.487498     -9.791799
  C       4.619215      6.198040     -9.746839
  H       5.347956      6.660518     -9.034984
  H       5.227770      5.860112    -10.622879
  C       3.607409      7.276782    -10.212119
  H       2.878125      6.814915    -10.922599
  H       3.001620      7.613173     -9.334628
  C       4.278271      8.502806    -10.878940
  H       3.526131      9.259360    -11.200759
  H       4.985053      9.007708    -10.178789
  H       4.863049      8.204430    -11.781008
138
Coordinates from ORCA-job /wrk/rja7/qm_final_3_replicates/qm_final_1.1/qm/4/freq E -2722.584897793150
  N      -2.447384     -4.481849     13.522030
  C      -1.776958     -5.306067     12.348605
  H      -1.725842     -6.356531     12.708568
  H      -0.742721     -4.926271     12.231356
  C      -3.154308     -5.447070     14.459048
  H      -3.617676     -4.874792     15.289220
  H      -3.942016     -5.987670     13.894031
  H      -2.420472     -6.170795     14.870273
  C      -3.468074     -3.424600     13.054782
  H      -2.934209     -2.683348     12.423617
  H      -4.275110     -3.927415     12.488965
  H      -3.883890     -2.955097     13.971846
  C      -1.330497     -3.746648     14.274048
  H      -0.881781     -3.019836     13.560612
  H      -0.586282     -4.493459     14.620964
  H      -1.776463     -3.224263     15.147157
  C      -2.459521     -5.264611     10.955776
  H      -1.857230     -6.001312     10.357152
  H      -3.503325     -5.666482     11.011597
  P      -1.009150     -3.050107     10.351110
  O       0.128821     -4.048337     10.151491
  O      -1.120063     -2.119937     11.565865
  O      -2.508409     -3.990840     10.346135
  O      -1.334536     -2.138484      8.987701
  C      -1.245788     -2.791077      7.705053
  H      -2.142148     -3.442134      7.539549
  H      -0.338212     -3.441185      7.654831
  C      -1.156262     -1.719762      6.606210
  H      -0.331346     -1.011242      6.837394
  O      -2.430173     -0.981167      6.580616
  C      -2.387236      0.377311      6.374034
  O      -1.359282      1.031318      6.246417
  C      -3.801536      0.975439      6.271425
  H      -3.897473      1.735251      7.082379
  H      -4.568148      0.189391      6.450135
  C      -0.931526     -2.360012      5.212937
  H      -1.761247     -3.060805      4.968929
  H       0.037719     -2.907323      5.201799
  O      -0.957016     -1.349172      4.162558
  C       0.237114     -0.709870      3.858540
  O       1.324881     -1.077008      4.274400
  C      -0.023837      0.522606      2.984849
  H      -0.957235      0.374727      2.397343
  H      -0.239834      1.345770      3.708857
  C      -4.008593      1.661946      4.886741
  H      -3.179865      2.392786      4.734020
  H      -4.952717      2.257149      4.910740
  C      -4.045204      0.654661      3.705915
  H      -4.976056      0.038215      3.772417
  H      -3.199553     -0.062835      3.806512
  C      -3.955762      1.317226      2.307262
  H      -3.034283      1.949224      2.264414
  H      -4.812626      2.019902      2.154865
  C      -3.913248      0.281713      1.153077
  H      -4.859239     -0.315484      1.156304
  H      -3.095645     -0.448805      1.362316
  C      -3.703647      0.909247     -0.249023
  H      -2.751798      1.493787     -0.257975
  H      -4.520365      1.645786     -0.446354
  C      -3.674497     -0.123486     -1.422297
  H      -3.649392      0.429722     -2.387892
  H      -4.642329     -0.686517     -1.414489
  C      -2.527971     -1.120234     -1.343457
  H      -2.553964     -1.803560     -0.471294
  C      -1.486631     -1.253215     -2.203837
  H      -0.742603     -2.047552     -1.985447
  C      -1.225651     -0.483930     -3.488802
  H      -0.163264     -0.139186     -3.496000
  H      -1.851496      0.436518     -3.544092
  C      -1.470572     -1.355208     -4.758972
  H      -2.559434     -1.596136     -4.830022
  H      -0.955514     -2.339739     -4.631761
  C      -0.985718     -0.698825     -6.076277
  H       0.112301     -0.516296     -6.000711
  H      -1.452527      0.312294     -6.188269
  C      -1.306909     -1.547500     -7.334890
  H      -2.414296     -1.679891     -7.401749
  H      -0.888506     -2.576846     -7.203259
  C      -0.787071     -0.955637     -8.674563
  H      -1.128765      0.105708     -8.769309
  H      -1.267604     -1.502604     -9.522215
  C       0.751844     -1.020269     -8.855350
  H       1.084251     -2.085652     -8.772363
  H       1.258564     -0.482248     -8.018431
  C       1.246383     -0.431602    -10.201475
  H       0.938826      0.641910    -10.267516
  H       0.722372     -0.946734    -11.044192
  C       2.778017     -0.545733    -10.397471
  H       3.103817     -0.095729    -11.363567
  H       3.109270     -1.610971    -10.393638
  H       3.330782     -0.025095     -9.581605
  C       1.161069      0.905359      2.064661
  H       2.095273      0.955473      2.671035
  H       0.980846      1.935247      1.672927
  C       1.358984     -0.065668      0.871420
  H       0.397650     -0.159464      0.308940
  H       1.594674     -1.087423      1.257053
  C       2.474510      0.388895     -0.103478
  H       3.445503      0.456365      0.447772
  H       2.246131      1.427930     -0.443813
  C       2.636988     -0.540913     -1.333426
  H       2.820039     -1.583901     -0.977025
  H       1.672783     -0.579825     -1.894567
  C       3.785223     -0.147325     -2.304305
  H       4.766560     -0.263232     -1.782636
  H       3.794949     -0.869281     -3.156138
  C       3.710195      1.302370     -2.889915
  H       4.557952      1.438417     -3.599417
  H       3.886326      2.036500     -2.066942
  C       2.386209      1.635503     -3.562222
  H       1.537233      1.825478     -2.875763
  C       2.142293      1.709266     -4.894805
  H       1.115274      1.980955     -5.216809
  C       3.139705      1.502525     -6.024377
  H       2.669930      0.853078     -6.802499
  H       4.040984      0.952014     -5.669131
  C       3.584032      2.836256     -6.699301
  H       4.119380      3.463193     -5.944745
  H       2.675001      3.415681     -6.987422
  C       4.490938      2.619829     -7.940707
  H       5.331647      1.939885     -7.658822
  H       3.911583      2.075189     -8.726747
  C       5.079922      3.920014     -8.553920
  H       5.704812      4.441495     -7.786861
  H       5.780694      3.644368     -9.379254
  C       4.022138      4.911893     -9.107239
  H       3.346060      5.240856     -8.282191
  H       3.368904      4.380016     -9.844126
  C       4.640271      6.164717     -9.777665
  H       5.304714      6.686616     -9.044487
  H       5.307291      5.846680    -10.617728
  C       3.585857      7.167839    -10.314136
  H       2.921330      6.645396    -11.045628
  H       2.921054      7.483673     -9.472629
  C       4.210360      8.419127    -10.979055
  H       3.429180      9.125258    -11.343353
  H       4.860017      8.975800    -10.262909
  H       4.845101      8.139364    -11.852840
138
Coordinates from ORCA-job /wrk/rja7/qm_final_3_replicates/qm_final_1.1/qm/4/freq E -2722.584979899155
  N      -2.456988     -4.441923     13.534020
  C      -1.787866     -5.277420     12.367887
  H      -1.743284     -6.325775     12.734859
  H      -0.751146     -4.904427     12.251051
  C      -3.172818     -5.397326     14.474235
  H      -3.637568     -4.817486     15.298405
  H      -3.960254     -5.938334     13.909178
  H      -2.444192     -6.121607     14.893612
  C      -3.469713     -3.381591     13.056801
  H      -2.929242     -2.647637     12.422829
  H      -4.278592     -3.883143     12.492466
  H      -3.885037     -2.903501     13.969637
  C      -1.338283     -3.708817     14.285233
  H      -0.883020     -2.989127     13.568720
  H      -0.599278     -4.457697     14.638797
  H      -1.784007     -3.178783     15.153791
  C      -2.466461     -5.240963     10.973095
  H      -1.867379     -5.985505     10.380958
  H      -3.512867     -5.636051     11.029153
  P      -1.001216     -3.039186     10.356809
  O       0.131438     -4.045123     10.165635
  O      -1.109056     -2.100632     11.565373
  O      -2.506153     -3.971086     10.354782
  O      -1.318464     -2.134300      8.986981
  C      -1.231545     -2.795528      7.708688
  H      -2.129112     -3.446091      7.547909
  H      -0.324995     -3.447348      7.661922
  C      -1.141340     -1.731249      6.602966
  H      -0.313713     -1.023682      6.827407
  O      -2.412995     -0.989173      6.576472
  C      -2.366755      0.368300      6.364095
  O      -1.337431      1.018802      6.229917
  C      -3.779805      0.969692      6.264205
  H      -3.871611      1.731473      7.073807
  H      -4.547639      0.185778      6.446832
  C      -0.922715     -2.380546      5.212965
  H      -1.755985     -3.079234      4.975106
  H       0.044317     -2.931752      5.202140
  O      -0.946884     -1.374989      4.157408
  C       0.249371     -0.743624      3.845685
  O       1.337039     -1.115639      4.257493
  C      -0.008689      0.488370      2.970503
  H      -0.944392      0.343968      2.385822
  H      -0.218855      1.313406      3.694166
  C      -3.989513      1.654008      4.878905
  H      -3.161474      2.385131      4.723697
  H      -4.934034      2.248511      4.903840
  C      -4.027400      0.645281      3.699395
  H      -4.956933      0.027196      3.768944
  H      -3.180165     -0.070593      3.798255
  C      -3.944216      1.307087      2.300014
  H      -3.023716      1.940300      2.253047
  H      -4.802507      2.008742      2.150961
  C      -3.905768      0.271244      1.146063
  H      -4.851388     -0.326516      1.153342
  H      -3.086651     -0.458503      1.351743
  C      -3.703686      0.898875     -0.257053
  H      -2.751443      1.483046     -0.271205
  H      -4.521602      1.635685     -0.449227
  C      -3.681309     -0.133907     -1.430658
  H      -3.659569      0.418963     -2.396537
  H      -4.649897     -0.695484     -1.418314
  C      -2.535922     -1.132326     -1.356132
  H      -2.562125     -1.818422     -0.486173
  C      -1.494446     -1.262644     -2.216699
  H      -0.750497     -2.057572     -2.000391
  C      -1.232898     -0.490626     -3.499958
  H      -0.171792     -0.142000     -3.503992
  H      -1.861650      0.427776     -3.556183
  C      -1.470325     -1.362341     -4.771408
  H      -2.558797     -1.603102     -4.848872
  H      -0.956367     -2.346956     -4.640385
  C      -0.976783     -0.707449     -6.086235
  H       0.121036     -0.525859     -6.004288
  H      -1.441917      0.304012     -6.202045
  C      -1.291108     -1.556991     -7.345986
  H      -2.398358     -1.686152     -7.421016
  H      -0.876695     -2.587356     -7.209941
  C      -0.759212     -0.968450     -8.682369
  H      -1.095489      0.094384     -8.779883
  H      -1.236433     -1.513660     -9.533011
  C       0.780614     -1.040772     -8.852469
  H       1.106924     -2.107926     -8.768216
  H       1.284498     -0.506100     -8.011754
  C       1.287312     -0.453845    -10.194863
  H       0.985884      0.621340    -10.262067
  H       0.766203     -0.965590    -11.041428
  C       2.819686     -0.575592    -10.380859
  H       3.153725     -0.128325    -11.345411
  H       3.145781     -1.642411    -10.373779
  H       3.369989     -0.056497     -9.562210
  C       1.175249      0.865061      2.046523
  H       2.111877      0.909554      2.649544
  H       0.999080      1.896210      1.656317
  C       1.363609     -0.105126      0.850969
  H       0.399643     -0.193006      0.291816
  H       1.595568     -1.128841      1.233659
  C       2.477482      0.346064     -0.127580
  H       3.452666      0.401161      0.417618
  H       2.256270      1.389571     -0.458886
  C       2.623292     -0.576097     -1.365370
  H       2.800769     -1.623235     -1.018325
  H       1.654041     -0.603359     -1.918146
  C       3.765940     -0.184183     -2.343430
  H       4.751138     -0.315219     -1.832582
  H       3.760823     -0.898072     -3.202144
  C       3.700711      1.272261     -2.913636
  H       4.540615      1.405648     -3.632884
  H       3.896711      1.995219     -2.085220
  C       2.372098      1.630036     -3.563853
  H       1.536018      1.825337     -2.863201
  C       2.109646      1.721889     -4.891756
  H       1.082415      2.012811     -5.195132
  C       3.085796      1.512373     -6.038827
  H       2.590653      0.884910     -6.819411
  H       3.980373      0.937464     -5.705772
  C       3.547893      2.846812     -6.700260
  H       4.113392      3.447671     -5.946469
  H       2.647440      3.452696     -6.959563
  C       4.423116      2.629518     -7.963770
  H       5.252174      1.924385     -7.710765
  H       3.813765      2.112091     -8.745703
  C       5.032132      3.924178     -8.568645
  H       5.689424      4.415364     -7.808596
  H       5.705398      3.643579     -9.415118
  C       3.989982      4.954289     -9.079673
  H       3.345510      5.290863     -8.232507
  H       3.301976      4.452815     -9.805977
  C       4.627669      6.198087     -9.748744
  H       5.331187      6.685293     -9.028156
  H       5.258501      5.873259    -10.613834
  C       3.591638      7.244447    -10.235409
  H       2.887243      6.757115    -10.953836
  H       2.963889      7.567712     -9.368569
  C       4.236620      8.485613    -10.899728
  H       3.468269      9.221344    -11.231317
  H       4.923390      9.010742    -10.194511
  H       4.837525      8.199586    -11.795144
138
Coordinates from ORCA-job /wrk/rja7/qm_final_3_replicates/qm_final_1.1/qm/4/freq E -2722.585000772395
  N      -2.458262     -4.439157     13.529421
  C      -1.790232     -5.274567     12.362531
  H      -1.747269     -6.323403     12.728305
  H      -0.752939     -4.902982     12.246382
  C      -3.174937     -5.394452     14.469065
  H      -3.638757     -4.814763     15.293883
  H      -3.963212     -5.934150     13.903903
  H      -2.447011     -6.119973     14.887512
  C      -3.470130     -3.377650     13.053260
  H      -2.929066     -2.643173     12.420464
  H      -4.279429     -3.877883     12.488341
  H      -3.885336     -2.900340     13.966570
  C      -1.338750     -3.707714     14.280989
  H      -0.882566     -2.988212     13.564887
  H      -0.600529     -4.457585     14.634083
  H      -1.783928     -3.177652     15.149810
  C      -2.468167     -5.235678     10.967486
  H      -1.870269     -5.981070     10.375219
  H      -3.515363     -5.628829     11.022825
  P      -0.998232     -3.036086     10.355131
  O       0.132929     -4.044072     10.165622
  O      -1.106568     -2.097713     11.563738
  O      -2.505035     -3.965216     10.350368
  O      -1.311103     -2.130355      8.984967
  C      -1.223388     -2.791438      7.706673
  H      -2.120385     -3.442668      7.545557
  H      -0.316270     -3.442460      7.659798
  C      -1.134267     -1.726475      6.601486
  H      -0.306731     -1.018689      6.825534
  O      -2.406364     -0.985101      6.577302
  C      -2.361675      0.372475      6.365284
  O      -1.333205      1.023786      6.228582
  C      -3.775531      0.972563      6.269088
  H      -3.865583      1.735363      7.077915
  H      -4.542116      0.188208      6.455028
  C      -0.916617     -2.374929      5.210967
  H      -1.749480     -3.074391      4.973905
  H       0.050986     -2.925094      5.198752
  O      -0.942856     -1.369163      4.155583
  C       0.252896     -0.738146      3.841220
  O       1.341391     -1.110443      4.250613
  C      -0.006404      0.493394      2.965727
  H      -0.943931      0.349634      2.383782
  H      -0.213361      1.319280      3.689378
  C      -3.989879      1.654498      4.883423
  H      -3.163275      2.386544      4.724913
  H      -4.935267      2.247550      4.909925
  C      -4.029185      0.643910      3.705651
  H      -4.957538      0.024414      3.778389
  H      -3.180648     -0.070569      3.803329
  C      -3.950532      1.303798      2.305133
  H      -3.031321      1.938632      2.254995
  H      -4.810430      2.003696      2.157080
  C      -3.913048      0.266119      1.152897
  H      -4.857924     -0.332799      1.162822
  H      -3.092722     -0.462403      1.358069
  C      -3.714187      0.891665     -0.251479
  H      -2.762150      1.476119     -0.268112
  H      -4.532823      1.627851     -0.443284
  C      -3.693293     -0.143060     -1.423496
  H      -3.673032      0.408173     -2.390363
  H      -4.661685     -0.704874     -1.408772
  C      -2.547470     -1.140952     -1.348788
  H      -2.574092     -1.827810     -0.479444
  C      -1.504953     -1.269912     -2.208384
  H      -0.760473     -2.064210     -1.991533
  C      -1.243135     -0.497600     -3.491448
  H      -0.182537     -0.147504     -3.494635
  H      -1.872968      0.420003     -3.548606
  C      -1.478242     -1.369878     -4.763027
  H      -2.566605     -1.610605     -4.842163
  H      -0.964584     -2.354454     -4.630559
  C      -0.982015     -0.715806     -6.077249
  H       0.115884     -0.535649     -5.993695
  H      -1.445710      0.296210     -6.193989
  C      -1.295413     -1.565307     -7.337311
  H      -2.402701     -1.693434     -7.413834
  H      -0.882126     -2.596020     -7.200482
  C      -0.761363     -0.977612     -8.673194
  H      -1.097382      0.085178     -8.771805
  H      -1.237372     -1.523337     -9.524205
  C       0.778730     -1.050111     -8.841514
  H       1.104884     -2.117225     -8.756256
  H       1.281862     -0.514841     -8.000727
  C       1.286624     -0.463935    -10.183844
  H       0.985075      0.611152    -10.251966
  H       0.766477     -0.976280    -11.030638
  C       2.819218     -0.585282    -10.368337
  H       3.154138     -0.137773    -11.332464
  H       3.145652     -1.652001    -10.361040
  H       3.368669     -0.066263     -9.548984
  C       1.175302      0.868129      2.038028
  H       2.113255      0.914825      2.638800
  H       0.997310      1.898081      1.645499
  C       1.362039     -0.104882      0.844381
  H       0.397273     -0.194647      0.286764
  H       1.594986     -1.127628      1.229023
  C       2.474260      0.344615     -0.136913
  H       3.450441      0.401041      0.406324
  H       2.252351      1.387527     -0.469816
  C       2.618554     -0.580006     -1.373225
  H       2.794943     -1.626718     -1.024406
  H       1.648900     -0.607053     -1.925180
  C       3.761558     -0.190785     -2.351967
  H       4.746095     -0.317631     -1.838751
  H       3.759380     -0.908836     -3.207188
  C       3.694661      1.262811     -2.929092
  H       4.537118      1.395577     -3.645456
  H       3.884997      1.990200     -2.103207
  C       2.367924      1.613662     -3.586650
  H       1.526310      1.802633     -2.890977
  C       2.112631      1.707045     -4.915915
  H       1.085417      1.992587     -5.224360
  C       3.096354      1.506908     -6.058174
  H       2.608148      0.881892     -6.845001
  H       3.991157      0.933373     -5.723309
  C       3.557047      2.846346     -6.710697
  H       4.118823      3.445024     -5.952423
  H       2.655584      3.450904     -6.969639
  C       4.436062      2.637848     -7.973162
  H       5.266377      1.933636     -7.721708
  H       3.829581      2.123005     -8.759047
  C       5.043127      3.937195     -8.570051
  H       5.699215      4.425186     -7.806834
  H       5.717604      3.662602     -9.417580
  C       3.999756      4.968489     -9.076220
  H       3.355967      5.301644     -8.227185
  H       3.311263      4.469337     -9.803694
  C       4.635892      6.214993     -9.741716
  H       5.340395      6.699919     -9.020508
  H       5.265351      5.893509    -10.609033
  C       3.598565      7.262754    -10.222706
  H       2.892619      6.777532    -10.941086
  H       2.972818      7.583228     -9.353383
  C       4.241842      8.505958    -10.884850
  H       3.472708      9.242818    -11.212102
  H       4.930599      9.028802    -10.179873
  H       4.840362      8.222519    -11.782667
138
Coordinates from ORCA-job /wrk/rja7/qm_final_3_replicates/qm_final_1.1/qm/4/freq E -2722.585023869306
  N      -2.478674     -4.427752     13.522980
  C      -1.813042     -5.266290     12.356824
  H      -1.778760     -6.316047     12.720841
  H      -0.772812     -4.901689     12.244643
  C      -3.207124     -5.378461     14.458265
  H      -3.667768     -4.796275     15.283088
  H      -3.998752     -5.909471     13.889557
  H      -2.487213     -6.111867     14.876865
  C      -3.479614     -3.357353     13.043928
  H      -2.929771     -2.627594     12.413396
  H      -4.291738     -3.850040     12.476381
  H      -3.893589     -2.876436     13.955950
  C      -1.356110     -3.706795     14.279972
  H      -0.891518     -2.990163     13.566505
  H      -0.625183     -4.463273     14.634167
  H      -1.800157     -3.174265     15.147825
  C      -2.485336     -5.220660     10.959008
  H      -1.891055     -5.970674     10.368962
  H      -3.535854     -5.605527     11.010043
  P      -0.994635     -3.032976     10.353761
  O       0.129149     -4.050516     10.170699
  O      -1.101956     -2.093403     11.561504
  O      -2.509665     -3.949570     10.342451
  O      -1.291028     -2.125160      8.981405
  C      -1.201831     -2.786171      7.703003
  H      -2.099383     -3.436169      7.540076
  H      -0.295451     -3.438308      7.657414
  C      -1.110002     -1.719770      6.599005
  H      -0.281740     -1.013439      6.824913
  O      -2.381215     -0.976880      6.576065
  C      -2.336346      0.381530      6.368248
  O      -1.308173      1.033204      6.231275
  C      -3.750609      0.981106      6.275719
  H      -3.836719      1.748556      7.080425
  H      -4.516177      0.197579      6.469099
  C      -0.891856     -2.365942      5.207518
  H      -1.724548     -3.065135      4.969052
  H       0.075875     -2.915818      5.194639
  O      -0.917450     -1.357746      4.154176
  C       0.278666     -0.727181      3.840200
  O       1.367506     -1.102412      4.246102
  C       0.020380      0.508081      2.969425
  H      -0.922409      0.372017      2.394185
  H      -0.174946      1.333902      3.696428
  C      -3.971792      1.655908      4.887393
  H      -3.146373      2.387709      4.721576
  H      -4.917695      2.248074      4.915597
  C      -4.015533      0.640185      3.714435
  H      -4.941448      0.018082      3.795667
  H      -3.164493     -0.071585      3.809390
  C      -3.948926      1.294739      2.310728
  H      -3.031969      1.931961      2.250989
  H      -4.811829      1.991704      2.166295
  C      -3.916943      0.252319      1.162722
  H      -4.861222     -0.347405      1.180056
  H      -3.094966     -0.474790      1.366440
  C      -3.726551      0.872022     -0.245336
  H      -2.773601      1.455094     -0.269893
  H      -4.545298      1.608482     -0.435509
  C      -3.713518     -0.168017     -1.412845
  H      -3.696405      0.378719     -2.382348
  H      -4.682826     -0.727907     -1.390984
  C      -2.569092     -1.167660     -1.338963
  H      -2.596922     -1.855887     -0.470727
  C      -1.525410     -1.295215     -2.197486
  H      -0.780695     -2.089339     -1.980957
  C      -1.263113     -0.520752     -3.479190
  H      -0.202637     -0.170802     -3.481221
  H      -1.892911      0.396947     -3.534990
  C      -1.497398     -1.391008     -4.752502
  H      -2.586378     -1.627864     -4.834748
  H      -0.987278     -2.377344     -4.619513
  C      -0.994379     -0.737104     -6.064184
  H       0.104098     -0.562914     -5.976868
  H      -1.452619      0.277479     -6.180606
  C      -1.308229     -1.582962     -7.326625
  H      -2.415832     -1.707196     -7.405446
  H      -0.898483     -2.615280     -7.191075
  C      -0.770279     -0.994448     -8.660493
  H      -1.106152      0.068321     -8.759575
  H      -1.243547     -1.539984     -9.513172
  C       0.770365     -1.066003     -8.825436
  H       1.096944     -2.132972     -8.740239
  H       1.271692     -0.530749     -7.983526
  C       1.280421     -0.478443    -10.166467
  H       0.977029      0.596019    -10.235016
  H       0.763668     -0.991647    -11.014836
  C       2.813763     -0.596547    -10.346694
  H       3.150859     -0.146422    -11.308805
  H       3.142121     -1.662662    -10.340397
  H       3.359990     -0.078493     -9.524322
  C       1.197384      0.876625      2.032896
  H       2.139242      0.923849      2.627485
  H       1.018135      1.905344      1.637649
  C       1.374635     -0.100647      0.841083
  H       0.405808     -0.191656      0.290520
  H       1.608969     -1.122474      1.227294
  C       2.480625      0.343230     -0.149939
  H       3.460909      0.401360      0.385587
  H       2.257741      1.384739     -0.486940
  C       2.615422     -0.588821     -1.382259
  H       2.789793     -1.634176     -1.028381
  H       1.642224     -0.615341     -1.927724
  C       3.755235     -0.209243     -2.368432
  H       4.740142     -0.322923     -1.852796
  H       3.756890     -0.940841     -3.212039
  C       3.681964      1.234466     -2.968729
  H       4.528703      1.362890     -3.680791
  H       3.859984      1.976597     -2.153189
  C       2.358183      1.564646     -3.641944
  H       1.503678      1.735271     -2.957578
  C       2.117522      1.661065     -4.973884
  H       1.089151      1.930075     -5.292601
  C       3.117307      1.487654     -6.106429
  H       2.646129      0.869193     -6.908530
  H       4.014666      0.919144     -5.769630
  C       3.570419      2.840947     -6.735697
  H       4.120503      3.435192     -5.965596
  H       2.664948      3.439587     -6.994606
  C       4.461212      2.658023     -7.994186
  H       5.296735      1.958794     -7.746001
  H       3.865193      2.148841     -8.791645
  C       5.059505      3.971792     -8.567406
  H       5.706039      4.454105     -7.792519
  H       5.742470      3.716718     -9.414363
  C       4.009907      5.000736     -9.065336
  H       3.361636      5.320617     -8.214583
  H       3.326810      4.504328     -9.799769
  C       4.638457      6.258339     -9.717159
  H       5.337599      6.741860     -8.989770
  H       5.271918      5.949644    -10.586156
  C       3.594106      7.302849    -10.190248
  H       2.891413      6.817977    -10.912080
  H       2.966699      7.612930     -9.318395
  C       4.229250      8.554530    -10.844235
  H       3.455681      9.289844    -11.164382
  H       4.916865      9.075609    -10.136787
  H       4.827627      8.280602    -11.745060
138
Coordinates from ORCA-job /wrk/rja7/qm_final_3_replicates/qm_final_1.1/qm/4/freq E -2722.585033192635
  N      -2.475223     -4.427676     13.517655
  C      -1.812297     -5.265473     12.349376
  H      -1.778371     -6.315682     12.712100
  H      -0.771775     -4.902060     12.235894
  C      -3.199859     -5.379678     14.454543
  H      -3.659279     -4.798363     15.280658
  H      -3.992081     -5.911861     13.887794
  H      -2.477641     -6.111942     14.871170
  C      -3.479082     -3.358247     13.042629
  H      -2.932383     -2.626475     12.411710
  H      -4.292116     -3.851699     12.476985
  H      -3.891178     -2.879158     13.956447
  C      -1.351168     -3.705797     14.271933
  H      -0.889549     -2.988297     13.557323
  H      -0.618468     -4.461737     14.623555
  H      -1.793428     -3.174368     15.141350
  C      -2.486592     -5.217235     10.952728
  H      -1.894114     -5.967064     10.360622
  H      -3.537487     -5.600952     11.004604
  P      -0.995180     -3.028788     10.350538
  O       0.128700     -4.046328     10.167819
  O      -1.103144     -2.089015     11.558075
  O      -2.510091     -3.945228     10.338318
  O      -1.291716     -2.121268      8.978193
  C      -1.200874     -2.782483      7.700186
  H      -2.096893     -3.434670      7.537440
  H      -0.292988     -3.432522      7.654867
  C      -1.111329     -1.716519      6.595850
  H      -0.283410     -1.009314      6.820231
  O      -2.382929     -0.974617      6.573620
  C      -2.338621      0.383813      6.366031
  O      -1.310717      1.036046      6.229699
  C      -3.753059      0.982550      6.272712
  H      -3.840044      1.750371      7.076965
  H      -4.518408      0.198781      6.466025
  C      -0.894239     -2.363004      5.204384
  H      -1.727896     -3.061064      4.966065
  H       0.072769     -2.914169      5.191438
  O      -0.919365     -1.354966      4.150917
  C       0.276188     -0.721901      3.840092
  O       1.364762     -1.095028      4.248636
  C       0.017684      0.512312      2.968035
  H      -0.924194      0.375119      2.391573
  H      -0.178811      1.338809      3.693901
  C      -3.973444      1.656282      4.883822
  H      -3.148135      2.388210      4.718057
  H      -4.919559      2.248145      4.910773
  C      -4.015799      0.639155      3.712122
  H      -4.941426      0.016633      3.793542
  H      -3.164379     -0.071940      3.808623
  C      -3.948626      1.291885      2.307735
  H      -3.031752      1.929216      2.247469
  H      -4.811632      1.988464      2.162122
  C      -3.915669      0.248338      1.160883
  H      -4.860215     -0.350993      1.177361
  H      -3.094229     -0.478885      1.366298
  C      -3.723788      0.867523     -0.247018
  H      -2.771581      1.452066     -0.270055
  H      -4.543526      1.602672     -0.438493
  C      -3.707078     -0.172668     -1.414349
  H      -3.690428      0.373836     -2.383960
  H      -4.675038     -0.734912     -1.393296
  C      -2.560149     -1.169365     -1.339150
  H      -2.586946     -1.857361     -0.470699
  C      -1.515751     -1.294910     -2.197142
  H      -0.769480     -2.087421     -1.980097
  C      -1.255153     -0.521300     -3.479895
  H      -0.193961     -0.173507     -3.484567
  H      -1.883531      0.397430     -3.534597
  C      -1.494000     -1.391985     -4.752172
  H      -2.583435     -1.627806     -4.831151
  H      -0.984569     -2.378765     -4.619992
  C      -0.994356     -0.739541     -6.065967
  H       0.104518     -0.565728     -5.982242
  H      -1.452480      0.275127     -6.182102
  C      -1.312408     -1.586629     -7.326531
  H      -2.420296     -1.710278     -7.402149
  H      -0.902858     -2.619015     -7.190964
  C      -0.777746     -0.999862     -8.662455
  H      -1.114090      0.062709     -8.762075
  H      -1.252760     -1.546593     -9.513399
  C       0.762518     -1.071018     -8.830146
  H       1.089839     -2.137645     -8.743835
  H       1.264922     -0.534127     -7.989930
  C       1.270138     -0.485269    -10.172909
  H       0.964824      0.588549    -10.243236
  H       0.753440     -1.001076    -11.019721
  C       2.803617     -0.601049    -10.354087
  H       3.139077     -0.153453    -11.317955
  H       3.133881     -1.666550    -10.344614
  H       3.349681     -0.079237     -9.533924
  C       1.196065      0.880140      2.032961
  H       2.136903      0.928253      2.629066
  H       1.017403      1.908368      1.636178
  C       1.375340     -0.098838      0.842885
  H       0.406942     -0.191915      0.291786
  H       1.610774     -1.119684      1.231033
  C       2.482084      0.344328     -0.147670
  H       3.462074      0.402392      0.388388
  H       2.259778      1.385741     -0.485223
  C       2.617778     -0.588341     -1.379463
  H       2.793184     -1.633332     -1.025145
  H       1.644543     -0.616147     -1.924854
  C       3.757017     -0.208013     -2.365878
  H       4.742383     -0.323468     -1.851441
  H       3.757381     -0.938044     -3.210835
  C       3.684831      1.236872     -2.963275
  H       4.529183      1.364653     -3.678236
  H       3.867706      1.976932     -2.146907
  C       2.359241      1.571704     -3.630632
  H       1.508386      1.745824     -2.942530
  C       2.113373      1.667890     -4.961658
  H       1.084966      1.940417     -5.276685
  C       3.108418      1.490376     -6.097551
  H       2.632118      0.874135     -6.898437
  H       4.004423      0.918032     -5.763691
  C       3.565039      2.842378     -6.726756
  H       4.116605      3.434595     -5.956159
  H       2.661375      3.443843     -6.985460
  C       4.456217      2.657853     -7.984544
  H       5.290443      1.957298     -7.735625
  H       3.860345      2.149440     -8.782642
  C       5.056854      3.971021     -8.556486
  H       5.700897      4.453641     -7.779608
  H       5.742611      3.715043     -9.400930
  C       4.009545      5.000120     -9.058881
  H       3.358579      5.321373     -8.210641
  H       3.328486      4.503231     -9.794876
  C       4.641231      6.256453     -9.710107
  H       5.339581      6.739319     -8.981487
  H       5.276355      5.946192    -10.577342
  C       3.599807      7.302353    -10.186468
  H       2.898073      6.818253    -10.909794
  H       2.970559      7.614078     -9.316522
  C       4.238634      8.552579    -10.839647
  H       3.466993      9.288397    -11.163298
  H       4.924351      9.073740    -10.130432
  H       4.839835      8.277016    -11.738099
138
Coordinates from ORCA-job /wrk/rja7/qm_final_3_replicates/qm_final_1.1/qm/4/freq E -2722.585038495360
  N      -2.475745     -4.421241     13.516036
  C      -1.816004     -5.261728     12.347985
  H      -1.784975     -6.311772     12.711429
  H      -0.774383     -4.901753     12.233501
  C      -3.202460     -5.370698     14.453911
  H      -3.660723     -4.787612     15.279424
  H      -3.995633     -5.901828     13.887541
  H      -2.481721     -6.103991     14.871280
  C      -3.476889     -3.349279     13.041035
  H      -2.928668     -2.619575     12.409041
  H      -4.292047     -3.841104     12.477068
  H      -3.886468     -2.868074     13.954879
  C      -1.348880     -3.701904     14.268764
  H      -0.886468     -2.986037     13.552978
  H      -0.617666     -4.459660     14.619495
  H      -1.788662     -3.169085     15.138563
  C      -2.491179     -5.211913     10.951882
  H      -1.901943     -5.964056     10.359446
  H      -3.543365     -5.591944     11.004713
  P      -0.993672     -3.027717     10.347818
  O       0.127519     -4.048212     10.164964
  O      -1.098293     -2.086931     11.554953
  O      -2.510967     -3.940049     10.336963
  O      -1.288654     -2.120174      8.975228
  C      -1.199377     -2.782478      7.697735
  H      -2.095461     -3.434964      7.536564
  H      -0.291425     -3.432390      7.651811
  C      -1.111077     -1.717497      6.592433
  H      -0.282386     -1.010607      6.814935
  O      -2.382138     -0.974847      6.570821
  C      -2.337080      0.383668      6.363637
  O      -1.308799      1.035343      6.227594
  C      -3.751191      0.983101      6.269895
  H      -3.837500      1.752263      7.072936
  H      -4.516996      0.200097      6.464367
  C      -0.896306     -2.365099      5.201135
  H      -1.731621     -3.061438      4.963670
  H       0.069490     -2.918400      5.187731
  O      -0.920187     -1.357323      4.147427
  C       0.275938     -0.724436      3.838589
  O       1.363731     -1.098137      4.248690
  C       0.019405      0.510395      2.966887
  H      -0.921743      0.374387      2.388991
  H      -0.177202      1.336640      3.692994
  C      -3.971378      1.655051      4.879973
  H      -3.145901      2.386643      4.713505
  H      -4.917381      2.247119      4.906213
  C      -4.014025      0.636463      3.709558
  H      -4.939392      0.013718      3.792280
  H      -3.162362     -0.074241      3.806600
  C      -3.947850      1.287379      2.304312
  H      -3.030946      1.924460      2.242396
  H      -4.810795      1.984001      2.158593
  C      -3.915741      0.242770      1.158372
  H      -4.861147     -0.355220      1.174733
  H      -3.095335     -0.485304      1.364751
  C      -3.722640      0.861037     -0.249795
  H      -2.770373      1.445492     -0.272245
  H      -4.542308      1.596057     -0.442234
  C      -3.704596     -0.179836     -1.416468
  H      -3.688335      0.365891     -2.386509
  H      -4.671802     -0.743324     -1.395144
  C      -2.556092     -1.174699     -1.340199
  H      -2.582440     -1.862827     -0.471845
  C      -1.510560     -1.297579     -2.197119
  H      -0.762664     -2.088507     -1.979911
  C      -1.251096     -0.523031     -3.479703
  H      -0.189489     -0.176630     -3.485741
  H      -1.878662      0.396346     -3.532753
  C      -1.492601     -1.392680     -4.752269
  H      -2.582360     -1.627418     -4.829905
  H      -0.983932     -2.379994     -4.621325
  C      -0.994421     -0.739860     -6.066487
  H       0.104760     -0.567063     -5.984508
  H      -1.451932      0.275238     -6.181224
  C      -1.315453     -1.585900     -7.326993
  H      -2.423552     -1.708987     -7.400444
  H      -0.906121     -2.618572     -7.193063
  C      -0.783377     -0.998115     -8.663479
  H      -1.119990      0.064527     -8.761524
  H      -1.260001     -1.544115     -9.513989
  C       0.756556     -1.068953     -8.833833
  H       1.084180     -2.135619     -8.749232
  H       1.260242     -0.532918     -7.993910
  C       1.262101     -0.481667    -10.176688
  H       0.955261      0.591788    -10.245995
  H       0.745371     -0.997629    -11.023360
  C       2.795645     -0.595224    -10.359090
  H       3.129668     -0.147833    -11.323559
  H       3.127449     -1.660239    -10.349107
  H       3.341586     -0.071965     -9.539796
  C       1.199593      0.877686      2.033857
  H       2.139697      0.923896      2.631211
  H       1.022940      1.906510      1.637706
  C       1.378830     -0.100730      0.843406
  H       0.410578     -0.193142      0.292097
  H       1.613971     -1.121778      1.231248
  C       2.486197      0.342140     -0.146479
  H       3.465650      0.401279      0.390446
  H       2.263735      1.383079     -0.485353
  C       2.623730     -0.591867     -1.377021
  H       2.801368     -1.636021     -1.021438
  H       1.650500     -0.622493     -1.922341
  C       3.761677     -0.210155     -2.364164
  H       4.747641     -0.323322     -1.850330
  H       3.763073     -0.940737     -3.208640
  C       3.686549      1.234292     -2.962241
  H       4.530141      1.363054     -3.677866
  H       3.868849      1.974996     -2.146246
  C       2.359712      1.566879     -3.628263
  H       1.509179      1.739042     -2.939265
  C       2.112429      1.662844     -4.959041
  H       1.083111      1.932979     -5.273224
  C       3.107296      1.487555     -6.095457
  H       2.631365      0.872105     -6.897148
  H       4.003688      0.915452     -5.762254
  C       3.563278      2.840852     -6.722376
  H       4.112293      3.432821     -5.949761
  H       2.659511      3.441554     -6.982450
  C       4.457985      2.659121     -7.978084
  H       5.293130      1.960292     -7.727509
  H       3.865406      2.149866     -8.778133
  C       5.057169      3.974115     -8.547369
  H       5.697674      4.457882     -7.768200
  H       5.746191      3.720458     -9.389865
  C       4.008847      5.001040     -9.051997
  H       3.355546      5.321267     -8.205146
  H       3.330109      4.502601     -9.789108
  C       4.639509      6.258312     -9.702394
  H       5.336658      6.741882     -8.973068
  H       5.275951      5.948856    -10.568954
  C       3.597469      7.303051    -10.179770
  H       2.896738      6.818165    -10.903555
  H       2.967165      7.614366     -9.310447
  C       4.235576      8.553774    -10.832703
  H       3.463418      9.288493    -11.157602
  H       4.919813      9.076159    -10.122947
  H       4.838162      8.278560    -11.730341
138
Coordinates from ORCA-job /wrk/rja7/qm_final_3_replicates/qm_final_1.1/qm/4/freq E -2722.585042465470
  N      -2.477073     -4.410295     13.515524
  C      -1.823100     -5.255088     12.347339
  H      -1.796950     -6.304965     12.711597
  H      -0.779771     -4.900575     12.231160
  C      -3.207083     -5.355489     14.455228
  H      -3.662041     -4.769471     15.280481
  H      -4.002978     -5.883837     13.890100
  H      -2.489079     -6.091339     14.872809
  C      -3.473756     -3.333923     13.041382
  H      -2.923247     -2.607033     12.408205
  H      -4.292217     -3.822287     12.479214
  H      -3.879429     -2.850039     13.955572
  C      -1.345407     -3.695920     14.266055
  H      -0.881305     -2.982072     13.549295
  H      -0.616978     -4.457141     14.614989
  H      -1.781040     -3.161391     15.136881
  C      -2.499873     -5.202676     10.952119
  H      -1.915628     -5.958317     10.359163
  H      -3.553975     -5.577147     11.006448
  P      -0.992381     -3.025796     10.345436
  O       0.124007     -4.051756     10.163656
  O      -1.092091     -2.082621     11.551137
  O      -2.513837     -3.930989     10.336715
  O      -1.283531     -2.119002      8.971650
  C      -1.196507     -2.783282      7.695044
  H      -2.093305     -3.435238      7.535776
  H      -0.289156     -3.434011      7.648769
  C      -1.108459     -1.719767      6.588325
  H      -0.278469     -1.013838      6.808985
  O      -2.378389     -0.975418      6.566907
  C      -2.331756      0.383274      6.360802
  O      -1.302753      1.033917      6.225307
  C      -3.745253      0.984054      6.266900
  H      -3.830346      1.754854      7.068455
  H      -4.511774      0.202163      6.462955
  C      -0.896527     -2.368813      5.197253
  H      -1.733798     -3.063194      4.960985
  H       0.067858     -2.924525      5.182998
  O      -0.919428     -1.361233      4.143307
  C       0.277126     -0.728761      3.835507
  O       1.364494     -1.103398      4.245975
  C       0.022076      0.507102      2.964876
  H      -0.918687      0.372659      2.386002
  H      -0.174468      1.332663      3.691817
  C      -3.965324      1.653919      4.875772
  H      -3.139293      2.384623      4.708067
  H      -4.910829      2.246817      4.901414
  C      -4.008970      0.633604      3.706952
  H      -4.934317      0.011026      3.791249
  H      -3.157387     -0.077058      3.804621
  C      -3.943779      1.282480      2.300783
  H      -3.026307      1.918505      2.236703
  H      -4.806113      1.979895      2.155284
  C      -3.913655      0.236840      1.155676
  H      -4.860518     -0.358849      1.171813
  H      -3.095008     -0.492956      1.362857
  C      -3.719013      0.854587     -0.252637
  H      -2.765264      1.436655     -0.274853
  H      -4.537033      1.591512     -0.444732
  C      -3.703170     -0.186338     -1.419202
  H      -3.686214      0.359074     -2.389402
  H      -4.671232     -0.748300     -1.397359
  C      -2.555920     -1.182693     -1.342840
  H      -2.583347     -1.870989     -0.474643
  C      -1.509965     -1.305885     -2.199168
  H      -0.762611     -2.097314     -1.981947
  C      -1.249516     -0.530727     -3.481285
  H      -0.187135     -0.187020     -3.487815
  H      -1.875057      0.390080     -3.533145
  C      -1.493655     -1.398770     -4.754552
  H      -2.583928     -1.631137     -4.831991
  H      -0.986800     -2.387142     -4.624753
  C      -0.994912     -0.745462     -6.068412
  H       0.104659     -0.575186     -5.986985
  H      -1.450379      0.270728     -6.181532
  C      -1.318606     -1.589328     -7.329696
  H      -2.426933     -1.711101     -7.401846
  H      -0.910126     -2.622588     -7.197784
  C      -0.788029     -0.999918     -8.666124
  H      -1.125054      0.062748     -8.762541
  H      -1.265458     -1.545043     -9.516740
  C       0.751737     -1.069875     -8.838152
  H       1.079838     -2.136592     -8.756032
  H       1.256021     -0.535352     -7.997647
  C       1.256005     -0.479915    -10.180340
  H       0.947612      0.593198    -10.247962
  H       0.739829     -0.995444    -11.027598
  C       2.789716     -0.590924    -10.363114
  H       3.122756     -0.143306    -11.327818
  H       3.123181     -1.655408    -10.352848
  H       3.334974     -0.066382     -9.544162
  C       1.203581      0.874179      2.033422
  H       2.143132      0.918593      2.631760
  H       1.028756      1.903590      1.637995
  C       1.382130     -0.103822      0.842593
  H       0.413709     -0.195398      0.291564
  H       1.616745     -1.125049      1.230297
  C       2.489880      0.337738     -0.147316
  H       3.469181      0.397134      0.389866
  H       2.268046      1.378272     -0.487783
  C       2.627611     -0.598247     -1.376330
  H       2.807085     -1.641487     -1.019004
  H       1.653876     -0.631309     -1.920735
  C       3.763971     -0.216858     -2.365298
  H       4.750683     -0.326783     -1.852175
  H       3.766052     -0.949511     -3.207989
  C       3.685808      1.226018     -2.966727
  H       4.528861      1.354590     -3.682972
  H       3.867045      1.968806     -2.152363
  C       2.357781      1.554687     -3.632131
  H       1.506764      1.722828     -2.942737
  C       2.110043      1.651636     -4.962734
  H       1.079687      1.918165     -5.276567
  C       3.106120      1.482290     -6.098995
  H       2.632190      0.869240     -6.903637
  H       4.003070      0.910488     -5.766783
  C       3.560857      2.838806     -6.719721
  H       4.105969      3.429074     -5.943062
  H       2.656684      3.438554     -6.980573
  C       4.460472      2.663917     -7.972835
  H       5.296974      1.967013     -7.721431
  H       3.872582      2.155224     -8.776726
  C       5.057377      3.982862     -8.535138
  H       5.692894      4.466157     -7.751567
  H       5.750930      3.734732     -9.375552
  C       4.007584      5.008026     -9.040273
  H       3.351466      5.325004     -8.194388
  H       3.331695      4.509175     -9.779745
  C       4.636661      6.267936     -9.687050
  H       5.331855      6.751403     -8.955783
  H       5.275200      5.961305    -10.553083
  C       3.593545      7.311567    -10.164253
  H       2.894275      6.826551    -10.889352
  H       2.961751      7.620866     -9.295283
  C       4.230397      8.564080    -10.814978
  H       3.457384      9.297628    -11.140484
  H       4.912498      9.087193    -10.103696
  H       4.834956      8.290813    -11.711884
138
Coordinates from ORCA-job /wrk/rja7/qm_final_3_replicates/qm_final_1.1/qm/4/freq E -2722.585044327595
  N      -2.473828     -4.400897     13.519388
  C      -1.824035     -5.249414     12.351600
  H      -1.800829     -6.298880     12.717235
  H      -0.779736     -4.898331     12.233687
  C      -3.205302     -5.342558     14.461595
  H      -3.657874     -4.753964     15.286316
  H      -4.003112     -5.869851     13.898193
  H      -2.488726     -6.079503     14.879687
  C      -3.467923     -3.322314     13.045106
  H      -2.916254     -2.597650     12.410381
  H      -4.288515     -3.808977     12.484569
  H      -3.871021     -2.836046     13.959181
  C      -1.338883     -3.688911     14.267340
  H      -0.874081     -2.976779     13.549335
  H      -0.611951     -4.451934     14.615414
  H      -1.771548     -3.152742     15.138639
  C      -2.502420     -5.196488     10.957190
  H      -1.921523     -5.954715     10.364232
  H      -3.557644     -5.567532     11.013298
  P      -0.989426     -3.024432     10.345756
  O       0.123986     -4.053691     10.164182
  O      -1.084970     -2.078951     11.549953
  O      -2.513263     -3.925426     10.340450
  O      -1.279708     -2.119077      8.970838
  C      -1.195384     -2.785533      7.695200
  H      -2.092648     -3.437484      7.538647
  H      -0.288303     -3.436601      7.648171
  C      -1.109087     -1.723862      6.586567
  H      -0.278439     -1.017888      6.804625
  O      -2.378747     -0.979170      6.565905
  C      -2.331866      0.379380      6.358816
  O      -1.302762      1.029517      6.221696
  C      -3.745260      0.980510      6.265846
  H      -3.829659      1.751442      7.067342
  H      -4.511804      0.198792      6.462465
  C      -0.900045     -2.375105      5.196101
  H      -1.738527     -3.068778      4.962035
  H       0.063602     -2.932057      5.180878
  O      -0.923586     -1.368759      4.140966
  C       0.273197     -0.738245      3.830194
  O       1.360816     -1.113749      4.239241
  C       0.018006      0.497100      2.958883
  H      -0.921893      0.361558      2.378822
  H      -0.180702      1.322388      3.685571
  C      -3.966181      1.650291      4.874767
  H      -3.140406      2.381209      4.706681
  H      -4.911766      2.243041      4.900885
  C      -4.010133      0.629890      3.705994
  H      -4.935304      0.007106      3.790691
  H      -3.158379     -0.080590      3.803495
  C      -3.945670      1.278595      2.299750
  H      -3.028251      1.914650      2.235035
  H      -4.808085      1.975992      2.154633
  C      -3.916121      0.233019      1.154526
  H      -4.863324     -0.362120      1.170504
  H      -3.097833     -0.497193      1.361551
  C      -3.721429      0.851110     -0.253734
  H      -2.767346      1.432608     -0.276059
  H      -4.539170      1.588525     -0.445097
  C      -3.706543     -0.189563     -1.420543
  H      -3.689830      0.355966     -2.390682
  H      -4.674768     -0.751205     -1.398304
  C      -2.559475     -1.186188     -1.344664
  H      -2.587141     -1.874955     -0.476858
  C      -1.513278     -1.308777     -2.200742
  H      -0.765961     -2.100314     -1.983793
  C      -1.252449     -0.532834     -3.482285
  H      -0.190098     -0.189057     -3.488265
  H      -1.878026      0.387953     -3.534050
  C      -1.495856     -1.400316     -4.756119
  H      -2.586025     -1.632957     -4.834218
  H      -0.988689     -2.388553     -4.626574
  C      -0.996829     -0.746124     -6.069468
  H       0.102653     -0.575589     -5.987520
  H      -1.452592      0.269983     -6.182154
  C      -1.319734     -1.589421     -7.331341
  H      -2.427972     -1.711778     -7.403913
  H      -0.910667     -2.622500     -7.199862
  C      -0.789169     -0.998920     -8.667340
  H      -1.127042      0.063520     -8.763312
  H      -1.265997     -1.543986     -9.518331
  C       0.750697     -1.067581     -8.839034
  H       1.079554     -2.134119     -8.757525
  H       1.254367     -0.533262     -7.998050
  C       1.254789     -0.476546    -10.180831
  H       0.945167      0.596234    -10.248216
  H       0.739479     -0.992391    -11.028421
  C       2.788694     -0.585610    -10.363217
  H       3.121210     -0.138727    -11.328444
  H       3.123647     -1.649611    -10.351606
  H       3.333059     -0.059197     -9.544883
  C       1.200383      0.865449      2.029126
  H       2.139269      0.909360      2.628529
  H       1.025938      1.895247      1.634572
  C       1.380151     -0.111404      0.837557
  H       0.412170     -0.202396      0.285676
  H       1.614497     -1.132913      1.224648
  C       2.488802      0.330981     -0.150946
  H       3.467535      0.390103      0.387296
  H       2.267230      1.371707     -0.491009
  C       2.627910     -0.604257     -1.380362
  H       2.808356     -1.647451     -1.023379
  H       1.654475     -0.638069     -1.925217
  C       3.764299     -0.221449     -2.368785
  H       4.750983     -0.330287     -1.855380
  H       3.767536     -0.954036     -3.211535
  C       3.684755      1.221425     -2.970198
  H       4.528558      1.351209     -3.685325
  H       3.863966      1.964270     -2.155438
  C       2.356993      1.548287     -3.637000
  H       1.504872      1.713820     -2.948362
  C       2.110958      1.646698     -4.967795
  H       1.080491      1.911401     -5.282803
  C       3.109395      1.481216     -6.102574
  H       2.638103      0.869012     -6.909380
  H       4.006559      0.910182     -5.769620
  C       3.563238      2.839679     -6.719540
  H       4.105185      3.429390     -5.940241
  H       2.658706      3.438365     -6.981611
  C       4.466500      2.668727     -7.970495
  H       5.303825      1.973268     -7.717831
  H       3.881911      2.159873     -8.776688
  C       5.062128      3.989772     -8.529120
  H       5.695172      4.472787     -7.743358
  H       5.757932      3.744480     -9.368500
  C       4.011526      5.014056     -9.034433
  H       3.354325      5.329601     -8.188859
  H       3.336759      4.514944     -9.774765
  C       4.639674      6.275100     -9.679865
  H       5.334036      6.758729     -8.947911
  H       5.279095      5.969634    -10.545674
  C       3.595874      7.317971    -10.157095
  H       2.897256      6.832648    -10.882612
  H       2.963416      7.626413     -9.288285
  C       4.231832      8.571313    -10.807088
  H       3.458213      9.304005    -11.133097
  H       4.912765      9.095134    -10.095213
  H       4.837350      8.298900    -11.703604
138
Coordinates from ORCA-job /wrk/rja7/qm_final_3_replicates/qm_final_1.1/qm/4/freq E -2722.585046344333
  N      -2.470255     -4.388711     13.526849
  C      -1.826731     -5.242297     12.359229
  H      -1.807134     -6.291166     12.726787
  H      -0.781298     -4.895568     12.238480
  C      -3.202850     -5.325621     14.473076
  H      -3.651236     -4.733606     15.297617
  H      -4.003919     -5.851361     13.912850
  H      -2.487881     -6.064200     14.891022
  C      -3.461378     -3.307370     13.052997
  H      -2.908736     -2.585626     12.415791
  H      -4.284944     -3.791729     12.494829
  H      -3.860686     -2.818060     13.967121
  C      -1.330658     -3.679831     14.270668
  H      -0.865301     -2.969888     13.550891
  H      -0.605491     -4.445159     14.617329
  H      -1.758944     -3.141501     15.142805
  C      -2.507953     -5.189143     10.966208
  H      -1.931258     -5.950523     10.373183
  H      -3.564421     -5.556199     11.025151
  P      -0.988531     -3.023571     10.347691
  O       0.120818     -4.057305     10.166370
  O      -1.078185     -2.074685     11.549555
  O      -2.515419     -3.918993     10.347660
  O      -1.277975     -2.120444      8.971095
  C      -1.196935     -2.789497      7.696617
  H      -2.095625     -3.440073      7.542542
  H      -0.291131     -3.442337      7.649287
  C      -1.110463     -1.729933      6.585926
  H      -0.278787     -1.024620      6.802223
  O      -2.379273     -0.983826      6.564867
  C      -2.331047      0.374470      6.356371
  O      -1.301315      1.023411      6.218278
  C      -3.743883      0.976916      6.263308
  H      -3.827932      1.747403      7.065279
  H      -4.511079      0.195675      6.459292
  C      -0.903506     -2.383718      5.196336
  H      -1.742764     -3.077153      4.964299
  H       0.059648     -2.941482      5.180632
  O      -0.927568     -1.378844      4.139773
  C       0.269562     -0.751032      3.825115
  O       1.357522     -1.127827      4.232107
  C       0.014150      0.483617      2.952846
  H      -0.924910      0.346580      2.371724
  H      -0.187117      1.308771      3.679004
  C      -3.964005      1.647713      4.872595
  H      -3.137598      2.378023      4.704956
  H      -4.909012      2.241383      4.898876
  C      -4.008575      0.627986      3.703177
  H      -4.934345      0.006003      3.787223
  H      -3.157534     -0.083339      3.800722
  C      -3.942975      1.277351      2.297335
  H      -3.024596      1.912063      2.233044
  H      -4.804367      1.976057      2.152424
  C      -3.914701      0.232584      1.151264
  H      -4.862786     -0.361146      1.166443
  H      -3.097480     -0.498927      1.357833
  C      -3.718975      0.851855     -0.256483
  H      -2.763512      1.431051     -0.278597
  H      -4.535077      1.591462     -0.446313
  C      -3.707381     -0.187467     -1.424558
  H      -3.689668      0.359238     -2.394027
  H      -4.677131     -0.746491     -1.402557
  C      -2.563052     -1.187378     -1.350271
  H      -2.592003     -1.876416     -0.482730
  C      -1.517981     -1.312862     -2.207305
  H      -0.772894     -2.106703     -1.991047
  C      -1.255294     -0.537012     -3.488365
  H      -0.192809     -0.193591     -3.493028
  H      -1.880301      0.384119     -3.540852
  C      -1.497435     -1.403958     -4.762785
  H      -2.587503     -1.636624     -4.842216
  H      -0.990165     -2.392152     -4.633295
  C      -0.997044     -0.748754     -6.075134
  H       0.102348     -0.578392     -5.991844
  H      -1.452683      0.267453     -6.187406
  C      -1.318344     -1.590943     -7.338125
  H      -2.426434     -1.713911     -7.411876
  H      -0.908713     -2.623876     -7.207224
  C      -0.786962     -0.998812     -8.673129
  H      -1.125945      0.063308     -8.768720
  H      -1.262357     -1.543817     -9.524955
  C       0.753172     -1.065575     -8.843469
  H       1.083104     -2.131807     -8.762158
  H       1.255478     -0.531097     -8.001748
  C       1.257563     -0.473646    -10.184760
  H       0.946867      0.598819    -10.252168
  H       0.743279     -0.989872    -11.032746
  C       2.791657     -0.580959    -10.366454
  H       3.123800     -0.135134    -11.332299
  H       3.128023     -1.644488    -10.353149
  H       3.335049     -0.052483     -9.548803
  C       1.197169      0.853143      2.024507
  H       2.135577      0.896284      2.624726
  H       1.023300      1.883442      1.631018
  C       1.377453     -0.122439      0.832001
  H       0.409801     -0.211764      0.279333
  H       1.610465     -1.144547      1.218273
  C       2.487268      0.320018     -0.155092
  H       3.465545      0.377700      0.384130
  H       2.266851      1.361250     -0.494352
  C       2.626466     -0.614151     -1.385266
  H       2.807224     -1.657572     -1.029027
  H       1.653099     -0.647798     -1.930250
  C       3.762905     -0.230668     -2.373472
  H       4.749667     -0.339685     -1.860304
  H       3.765949     -0.962825     -3.216608
  C       3.683131      1.212580     -2.974159
  H       4.527307      1.342940     -3.688729
  H       3.861827      1.954910     -2.158824
  C       2.355507      1.539309     -3.641254
  H       1.502939      1.702452     -2.952621
  C       2.110362      1.640495     -4.971996
  H       1.079793      1.904512     -5.287220
  C       3.110365      1.479494     -6.106099
  H       2.641102      0.868984     -6.915338
  H       4.007752      0.908641     -5.773453
  C       3.563273      2.840377     -6.718266
  H       4.102362      3.428743     -5.935978
  H       2.658273      3.438270     -6.980583
  C       4.469636      2.674606     -7.967566
  H       5.307853      1.980260     -7.714714
  H       3.887989      2.166516     -8.776352
  C       5.063765      3.998360     -8.521253
  H       5.694362      4.480240     -7.732839
  H       5.761676      3.756935     -9.360003
  C       4.012056      5.022096     -9.025492
  H       3.353673      5.334860     -8.179815
  H       3.338621      4.523461     -9.767358
  C       4.638745      6.285381     -9.667922
  H       5.331457      6.768971     -8.934390
  H       5.279708      5.982487    -10.533505
  C       3.593597      7.327099    -10.144626
  H       2.896521      6.841607    -10.871500
  H       2.959714      7.633122     -9.275988
  C       4.227904      8.582575    -10.792100
  H       3.453201      9.314107    -11.118160
  H       4.906840      9.106842    -10.078654
  H       4.835069      8.312601    -11.688237
138
Coordinates from ORCA-job /wrk/rja7/qm_final_3_replicates/qm_final_1.1/qm/4/freq E -2722.585047863137
  N      -2.464523     -4.377897     13.534802
  C      -1.826202     -5.235437     12.367161
  H      -1.808892     -6.283728     12.736477
  H      -0.780064     -4.891831     12.243674
  C      -3.197150     -5.311306     14.484550
  H      -3.642136     -4.716790     15.309123
  H      -4.000827     -5.836215     13.927279
  H      -2.482939     -6.050886     14.902012
  C      -3.453949     -3.294812     13.061755
  H      -2.901067     -2.574990     12.422546
  H      -4.279849     -3.777602     12.505649
  H      -3.850238     -2.803503     13.976128
  C      -1.321273     -3.670981     14.274795
  H      -0.856026     -2.962672     13.553376
  H      -0.596977     -4.437728     14.620112
  H      -1.745936     -3.130999     15.147683
  C      -2.510292     -5.182637     10.975564
  H      -1.936903     -5.946468     10.382483
  H      -3.567590     -5.546844     11.037337
  P      -0.986692     -3.022000     10.350289
  O       0.119700     -4.058903     10.168646
  O      -1.071373     -2.070289     11.550166
  O      -2.515684     -3.913445     10.355194
  O      -1.276645     -2.121020      8.972352
  C      -1.198274     -2.792457      7.699020
  H      -2.097802     -3.442475      7.547440
  H      -0.293154     -3.446224      7.651382
  C      -1.112765     -1.734998      6.586251
  H      -0.280602     -1.029549      6.800231
  O      -2.381353     -0.988469      6.565374
  C      -2.332772      0.369296      6.353700
  O      -1.302896      1.017460      6.213008
  C      -3.745433      0.972257      6.261144
  H      -3.829339      1.741907      7.063964
  H      -4.512819      0.191031      6.456492
  C      -0.907793     -2.391472      5.197691
  H      -1.747470     -3.085193      4.967979
  H       0.055233     -2.949423      5.181625
  O      -0.932979     -1.388498      4.139329
  C       0.264270     -0.763566      3.819554
  O       1.352879     -1.141254      4.223958
  C       0.007623      0.469615      2.945537
  H      -0.930572      0.329798      2.363620
  H      -0.196618      1.295119      3.670471
  C      -3.965470      1.644393      4.871181
  H      -3.139122      2.374916      4.704211
  H      -4.910480      2.238033      4.897883
  C      -4.009857      0.625675      3.700824
  H      -4.935981      0.004081      3.783825
  H      -3.159172     -0.086104      3.798268
  C      -3.943077      1.276171      2.295583
  H      -3.024194      1.910281      2.232365
  H      -4.803965      1.975505      2.150714
  C      -3.915171      0.232337      1.148635
  H      -4.863482     -0.361023      1.163277
  H      -3.098239     -0.499684      1.354551
  C      -3.719153      0.852699     -0.258587
  H      -2.763011      1.430783     -0.280555
  H      -4.534467      1.593467     -0.447340
  C      -3.709545     -0.185396     -1.427814
  H      -3.691396      0.362488     -2.396611
  H      -4.680202     -0.742884     -1.406158
  C      -2.567001     -1.187430     -1.355247
  H      -2.596505     -1.876890     -0.488062
  C      -1.523127     -1.314875     -2.213473
  H      -0.779653     -2.110514     -1.998220
  C      -1.259485     -0.538927     -3.494161
  H      -0.197051     -0.195144     -3.497718
  H      -1.884557      0.382136     -3.547142
  C      -1.500202     -1.405580     -4.769016
  H      -2.590116     -1.638652     -4.849411
  H      -0.992634     -2.393620     -4.639446
  C      -0.998837     -0.749768     -6.080669
  H       0.100391     -0.578898     -5.996156
  H      -1.454858      0.266249     -6.193161
  C      -1.318125     -1.591728     -7.344309
  H      -2.426032     -1.715538     -7.419421
  H      -0.907837     -2.624387     -7.213260
  C      -0.785559     -0.998818     -8.678488
  H      -1.125681      0.062890     -8.774517
  H      -1.259087     -1.544377     -9.531003
  C       0.754918     -1.063657     -8.846709
  H       1.086116     -2.129399     -8.764149
  H       1.255322     -0.527874     -8.004687
  C       1.260043     -0.472088    -10.187872
  H       0.947865      0.599861    -10.256612
  H       0.747440     -0.989795    -11.035981
  C       2.794480     -0.577182    -10.367926
  H       3.126638     -0.133020    -11.334531
  H       3.132709     -1.640086    -10.351908
  H       3.336274     -0.045883     -9.551027
  C       1.190749      0.840505      2.018039
  H       2.128798      0.884347      2.618780
  H       1.016243      1.870789      1.624792
  C       1.372618     -0.134536      0.825316
  H       0.405552     -0.223418      0.271521
  H       1.605035     -1.156821      1.211436
  C       2.483508      0.308627     -0.160270
  H       3.461306      0.365169      0.379929
  H       2.263788      1.350429     -0.498237
  C       2.623429     -0.623956     -1.391562
  H       2.803835     -1.667843     -1.036503
  H       1.650505     -0.656807     -1.937328
  C       3.760788     -0.239396     -2.378391
  H       4.747103     -0.349426     -1.864610
  H       3.764207     -0.970372     -3.222544
  C       3.681688      1.204692     -2.977189
  H       4.526763      1.336124     -3.690504
  H       3.859454      1.945899     -2.160637
  C       2.354893      1.532040     -3.645663
  H       1.501300      1.693220     -2.957848
  C       2.111794      1.636110     -4.976569
  H       1.081607      1.900252     -5.292856
  C       3.113961      1.478885     -6.109295
  H       2.647081      0.869787     -6.920965
  H       4.011382      0.908216     -5.776455
  C       3.566131      2.841946     -6.717114
  H       4.102418      3.429300     -5.932146
  H       2.660686      3.438938     -6.980004
  C       4.475576      2.680709     -7.964688
  H       5.314638      1.987528     -7.711384
  H       3.896722      2.173137     -8.775794
  C       5.068295      4.006837     -8.514193
  H       5.696645      4.487959     -7.723514
  H       5.768171      3.768566     -9.352222
  C       4.015658      5.029811     -9.018147
  H       3.355861      5.340271     -8.172719
  H       3.343790      4.531281     -9.761509
  C       4.641049      6.294978     -9.658100
  H       5.332076      6.778774     -8.923105
  H       5.283523      5.994303    -10.523333
  C       3.594620      7.335517    -10.134613
  H       2.899150      6.849691    -10.862821
  H       2.959277      7.639349     -9.266270
  C       4.227374      8.592901    -10.779887
  H       3.451692      9.323353    -11.106055
  H       4.904490      9.117602    -10.065037
  H       4.836068      8.325064    -11.675624
138
Coordinates from ORCA-job /wrk/rja7/qm_final_3_replicates/qm_final_1.1/qm/4/freq E -2722.585049014787
  N      -2.461292     -4.368533     13.543037
  C      -1.826801     -5.229526     12.375769
  H      -1.810967     -6.277192     12.746931
  H      -0.780169     -4.888221     12.250055
  C      -3.193983     -5.298900     14.495777
  H      -3.636488     -4.702196     15.320106
  H      -3.999553     -5.823493     13.940936
  H      -2.480326     -6.039063     14.913167
  C      -3.449453     -3.284431     13.069850
  H      -2.896433     -2.566658     12.428438
  H      -4.277166     -3.766493     12.515796
  H      -3.843382     -2.790907     13.984056
  C      -1.315425     -3.662629     14.279797
  H      -0.850280     -2.956058     13.556617
  H      -0.591672     -4.430129     14.624588
  H      -1.737424     -3.120851     15.152855
  C      -2.513117     -5.177801     10.985261
  H      -1.942017     -5.943652     10.392571
  H      -3.570971     -5.539986     11.049364
  P      -0.986547     -3.021322     10.353686
  O       0.117540     -4.060739     10.171948
  O      -1.067213     -2.067039     11.551727
  O      -2.517146     -3.909654     10.362875
  O      -1.277085     -2.122329      8.974483
  C      -1.200276     -2.795584      7.702075
  H      -2.100692     -3.444719      7.551815
  H      -0.295990     -3.450526      7.654801
  C      -1.114359     -1.739788      6.587745
  H      -0.281808     -1.034432      6.800540
  O      -2.382597     -0.992569      6.566187
  C      -2.333471      0.364660      6.351344
  O      -1.303387      1.012187      6.209197
  C      -3.745939      0.968050      6.258113
  H      -3.830433      1.736668      7.061904
  H      -4.513608      0.186745      6.452077
  C      -0.910028     -2.398529      5.200183
  H      -1.749531     -3.092993      4.972047
  H       0.053224     -2.956092      5.184494
  O      -0.936005     -1.397262      4.140246
  C       0.261334     -0.774431      3.816751
  O       1.350365     -1.152635      4.219489
  C       0.003853      0.457392      2.941010
  H      -0.933685      0.315250      2.358554
  H      -0.202425      1.283558      3.664571
  C      -3.964853      1.641845      4.868900
  H      -3.138243      2.372334      4.703150
  H      -4.909738      2.235682      4.895639
  C      -4.008829      0.624443      3.697319
  H      -4.935458      0.003402      3.778811
  H      -3.158654     -0.087977      3.794683
  C      -3.940436      1.276492      2.292855
  H      -3.020893      1.909789      2.231162
  H      -4.800619      1.976707      2.148060
  C      -3.912862      0.233856      1.144779
  H      -4.861413     -0.359128      1.158787
  H      -3.096249     -0.498738      1.349968
  C      -3.716414      0.855362     -0.261823
  H      -2.759557      1.432340     -0.283538
  H      -4.530826      1.597311     -0.449822
  C      -3.708535     -0.181497     -1.432181
  H      -3.689647      0.367600     -2.400279
  H      -4.680136     -0.737399     -1.411135
  C      -2.567903     -1.185795     -1.361182
  H      -2.597871     -1.875445     -0.494159
  C      -1.525413     -1.315506     -2.220770
  H      -0.783546     -2.112939     -2.006548
  C      -1.261054     -0.539672     -3.501301
  H      -0.198545     -0.195993     -3.504154
  H      -1.885872      0.381552     -3.554473
  C      -1.501179     -1.405947     -4.776461
  H      -2.591075     -1.638981     -4.857320
  H      -0.993732     -2.394075     -4.647007
  C      -0.999082     -0.749767     -6.087602
  H       0.100056     -0.578701     -6.002237
  H      -1.455251      0.266167     -6.200266
  C      -1.317082     -1.591454     -7.351735
  H      -2.424872     -1.715876     -7.427639
  H      -0.906368     -2.623963     -7.220759
  C      -0.783833     -0.997865     -8.685301
  H      -1.124904      0.063504     -8.781646
  H      -1.255953     -1.543872     -9.538310
  C       0.756909     -1.061097     -8.852086
  H       1.089282     -2.126336     -8.767849
  H       1.255920     -0.523584     -8.010341
  C       1.262271     -0.470579    -10.193600
  H       0.948795      0.600877    -10.263980
  H       0.750910     -0.990020    -11.041401
  C       2.796958     -0.573914    -10.372542
  H       3.129020     -0.131309    -11.339891
  H       3.136680     -1.636306    -10.354130
  H       3.337612     -0.040259     -9.556408
  C       1.187048      0.828733      2.013861
  H       2.125007      0.873057      2.614716
  H       1.012154      1.858950      1.620590
  C       1.369653     -0.146040      0.821016
  H       0.402893     -0.234436      0.266611
  H       1.601535     -1.168527      1.206903
  C       2.481122      0.297516     -0.163749
  H       3.458726      0.353237      0.376883
  H       2.261818      1.339738     -0.500686
  C       2.621069     -0.633848     -1.395952
  H       2.800928     -1.678183     -1.041933
  H       1.648289     -0.665773     -1.942034
  C       3.758952     -0.248664     -2.381975
  H       4.745008     -0.360124     -1.868020
  H       3.762037     -0.978465     -3.227138
  C       3.681058      1.196309     -2.978728
  H       4.526406      1.328211     -3.691652
  H       3.859275      1.936309     -2.161173
  C       2.354766      1.525586     -3.647285
  H       1.500799      1.685450     -2.959627
  C       2.112450      1.632734     -4.978092
  H       1.082514      1.897801     -5.294344
  C       3.115282      1.478300     -6.110558
  H       2.649491      0.870506     -6.923833
  H       4.012914      0.907562     -5.778419
  C       3.566627      2.843057     -6.715171
  H       4.100837      3.429717     -5.928284
  H       2.660727      3.439198     -6.978446
  C       4.478330      2.685403     -7.961542
  H       5.318189      1.993240     -7.708111
  H       3.901560      2.178344     -8.774452
  C       5.069613      4.013568     -8.507666
  H       5.695744      4.494318     -7.715010
  H       5.771363      3.778022     -9.344917
  C       4.015951      5.035414     -9.011762
  H       3.354252      5.343401     -8.166914
  H       3.346193      4.536748     -9.756943
  C       4.639908      6.302719     -9.648895
  H       5.328564      6.787000     -8.911987
  H       5.284473      6.004579    -10.513431
  C       3.592022      7.341680    -10.125741
  H       2.898866      6.855260    -10.855772
  H       2.954611      7.642953     -9.258033
  C       4.223106      8.601259    -10.768356
  H       3.446405      9.330558    -11.094678
  H       4.898112      9.126351    -10.051792
  H       4.833660      8.335856    -11.663548
138
Coordinates from ORCA-job /wrk/rja7/qm_final_3_replicates/qm_final_1.1/qm/4/freq E -2722.585049734398
  N      -2.459028     -4.361480     13.548735
  C      -1.826442     -5.224377     12.381804
  H      -1.811058     -6.271598     12.754241
  H      -0.779618     -4.884180     12.254719
  C      -3.191611     -5.290301     14.503039
  H      -3.632987     -4.692495     15.327182
  H      -3.998058     -5.814895     13.949468
  H      -2.478126     -6.030633     14.920429
  C      -3.446763     -3.277034     13.075491
  H      -2.893784     -2.560166     12.433022
  H      -4.275354     -3.758904     12.522575
  H      -3.839567     -2.782514     13.989644
  C      -1.311891     -3.655811     14.283652
  H      -0.846862     -2.950371     13.559276
  H      -0.588298     -4.423494     14.628370
  H      -1.732560     -3.112859     15.156609
  C      -2.514134     -5.173766     10.991979
  H      -1.944184     -5.940774     10.399663
  H      -3.572201     -5.535051     11.057572
  P      -0.986418     -3.019538     10.356264
  O       0.116577     -4.060152     10.174540
  O      -1.064917     -2.063598     11.553097
  O      -2.517739     -3.906397     10.368075
  O      -1.277661     -2.122055      8.976194
  C      -1.201530     -2.796783      7.704585
  H      -2.102355     -3.445572      7.555183
  H      -0.297638     -3.452298      7.657853
  C      -1.115407     -1.742381      6.588977
  H      -0.282655     -1.036924      6.800660
  O      -2.383467     -0.994786      6.566826
  C      -2.333966      0.361892      6.348874
  O      -1.303704      1.008793      6.205122
  C      -3.746252      0.965715      6.255016
  H      -3.831023      1.733836      7.059291
  H      -4.514241      0.184542      6.448267
  C      -0.911440     -2.403043      5.202285
  H      -1.750856     -3.098030      4.975415
  H       0.051982     -2.960326      5.187181
  O      -0.937855     -1.403310      4.140968
  C       0.259487     -0.781682      3.815090
  O       1.348813     -1.159915      4.216959
  C       0.001280      0.449001      2.937959
  H      -0.935858      0.305070      2.355289
  H      -0.206149      1.275882      3.660342
  C      -3.964215      1.640320      4.866154
  H      -3.137373      2.370713      4.701220
  H      -4.909042      2.234257      4.892667
  C      -4.007882      0.623590      3.693982
  H      -4.934944      0.003066      3.774460
  H      -3.158147     -0.089352      3.791439
  C      -3.938122      1.276524      2.289956
  H      -3.018023      1.909122      2.229415
  H      -4.797690      1.977465      2.145077
  C      -3.910878      0.234552      1.141274
  H      -4.859657     -0.358084      1.155030
  H      -3.094600     -0.498545      1.346017
  C      -3.713996      0.856567     -0.264942
  H      -2.756535      1.432568     -0.286388
  H      -4.527597      1.599453     -0.452766
  C      -3.707376     -0.179506     -1.435993
  H      -3.687641      0.370347     -2.403639
  H      -4.679778     -0.734062     -1.415482
  C      -2.568353     -1.185652     -1.366019
  H      -2.598933     -1.875651     -0.499290
  C      -1.526711     -1.316831     -2.226430
  H      -0.786085     -2.115681     -2.013173
  C      -1.261708     -0.540648     -3.506657
  H      -0.198920     -0.197801     -3.509193
  H      -1.885869      0.381045     -3.559308
  C      -1.502363     -1.406040     -4.782289
  H      -2.592441     -1.638207     -4.863263
  H      -0.995774     -2.394679     -4.653325
  C      -0.999588     -0.749637     -6.093026
  H       0.099619     -0.579154     -6.007285
  H      -1.455207      0.266564     -6.205518
  C      -1.317635     -1.590663     -7.357588
  H      -2.425444     -1.714900     -7.433628
  H      -0.907132     -2.623321     -7.227118
  C      -0.784191     -0.996467     -8.690755
  H      -1.125736      0.064750     -8.787008
  H      -1.255626     -1.542534     -9.544111
  C       0.756675     -1.058725     -8.856907
  H       1.089848     -2.123624     -8.771651
  H       1.254926     -0.520074     -8.015447
  C       1.262062     -0.468741    -10.198644
  H       0.947359      0.602280    -10.270079
  H       0.751811     -0.989491    -11.046309
  C       2.796985     -0.570378    -10.376598
  H       3.129097     -0.128344    -11.344187
  H       3.137985     -1.632342    -10.356890
  H       3.336567     -0.035344     -9.560641
  C       1.184348      0.820448      2.010720
  H       2.122299      0.865715      2.611508
  H       1.008781      1.850320      1.616829
  C       1.367765     -0.154837      0.818414
  H       0.401280     -0.243852      0.263634
  H       1.599871     -1.177097      1.204775
  C       2.479351      0.288921     -0.166138
  H       3.456882      0.344801      0.374617
  H       2.259894      1.331170     -0.502884
  C       2.619763     -0.642240     -1.398446
  H       2.799041     -1.686725     -1.044621
  H       1.647247     -0.673767     -1.945064
  C       3.758327     -0.256877     -2.383576
  H       4.743965     -0.369039     -1.868961
  H       3.761788     -0.986107     -3.229218
  C       3.681267      1.188476     -2.979308
  H       4.526982      1.320731     -3.691736
  H       3.859299      1.927962     -2.161229
  C       2.355474      1.518570     -3.648452
  H       1.500733      1.676984     -2.961417
  C       2.114264      1.628095     -4.979287
  H       1.084529      1.893563     -5.295889
  C       3.118106      1.476506     -6.111195
  H       2.653809      0.869499     -6.925918
  H       4.016205      0.906348     -5.779359
  C       3.568151      2.842914     -6.713157
  H       4.100259      3.429327     -5.924675
  H       2.661619      3.437867     -6.976945
  C       4.481994      2.688709     -7.958429
  H       5.322907      1.997931     -7.704770
  H       3.907340      2.181711     -8.772885
  C       5.071330      4.018917     -8.501793
  H       5.695208      4.499855     -7.707455
  H       5.774936      3.785999     -9.338237
  C       4.016309      5.039164     -9.006227
  H       3.352549      5.344664     -8.162091
  H       3.348850      4.539979     -9.753137
  C       4.638486      6.308626     -9.640804
  H       5.325056      6.793409     -8.902265
  H       5.284861      6.013032    -10.504845
  C       3.589028      7.346050    -10.117630
  H       2.897836      6.859110    -10.849193
  H       2.949933      7.644869     -9.250326
  C       4.218323      8.607694    -10.757942
  H       3.440582      9.335939    -11.084134
  H       4.891600      9.133146    -10.040005
  H       4.830370      8.344574    -11.652784
138
Coordinates from ORCA-job /wrk/rja7/qm_final_3_replicates/qm_final_1.1/qm/4/freq E -2722.585050181747
  N      -2.459703     -4.356661     13.552137
  C      -1.827110     -5.220789     12.386105
  H      -1.811802     -6.267649     12.759573
  H      -0.780188     -4.880954     12.258795
  C      -3.192456     -5.284494     14.507247
  H      -3.633918     -4.685890     15.330772
  H      -3.998865     -5.809599     13.954103
  H      -2.479027     -6.024464     14.925388
  C      -3.447358     -3.272640     13.077664
  H      -2.894336     -2.556517     12.434434
  H      -4.275992     -3.755152     12.525378
  H      -3.840141     -2.777115     13.991282
  C      -1.312599     -3.650265     14.286398
  H      -0.847449     -2.945752     13.561162
  H      -0.589029     -4.417574     14.632017
  H      -1.733340     -3.106312     15.158684
  C      -2.514731     -5.171479     10.996232
  H      -1.944800     -5.939108     10.404697
  H      -3.572835     -5.532591     11.062117
  P      -0.986705     -3.018212     10.358454
  O       0.116111     -4.059187     10.177606
  O      -1.064972     -2.061075     11.554361
  O      -2.518191     -3.904711     10.371118
  O      -1.277926     -2.121942      8.977555
  C      -1.201480     -2.797684      7.706532
  H      -2.102422     -3.446360      7.557284
  H      -0.297738     -3.453466      7.660641
  C      -1.114799     -1.744252      6.590055
  H      -0.281901     -1.038803      6.801196
  O      -2.382652     -0.996307      6.567134
  C      -2.332895      0.360041      6.347360
  O      -1.302543      1.006663      6.202933
  C      -3.745114      0.963983      6.252969
  H      -3.830218      1.731760      7.057562
  H      -4.513193      0.182772      6.445714
  C      -0.910865     -2.406274      5.203977
  H      -1.750157     -3.101686      4.977955
  H       0.052700     -2.963324      5.189427
  O      -0.937612     -1.407613      4.141729
  C       0.259635     -0.786316      3.814783
  O       1.349115     -1.164215      4.216537
  C       0.001054      0.443535      2.936617
  H      -0.935807      0.298584      2.353754
  H      -0.206900      1.270982      3.658171
  C      -3.962547      1.639083      4.864320
  H      -3.135651      2.369514      4.699876
  H      -4.907429      2.232936      4.890719
  C      -4.005881      0.622727      3.691816
  H      -4.933004      0.002231      3.771785
  H      -3.156178     -0.090271      3.789244
  C      -3.935847      1.276188      2.288010
  H      -3.015666      1.908710      2.227930
  H      -4.795312      1.977288      2.143316
  C      -3.908678      0.234564      1.139011
  H      -4.857401     -0.358171      1.152869
  H      -3.092318     -0.498544      1.343396
  C      -3.712100      0.856801     -0.267092
  H      -2.754428      1.432514     -0.288717
  H      -4.525475      1.599962     -0.454726
  C      -3.706143     -0.179035     -1.438333
  H      -3.686239      0.371026     -2.405851
  H      -4.678843     -0.733080     -1.417796
  C      -2.567681     -1.185851     -1.368902
  H      -2.598350     -1.876079     -0.502356
  C      -1.526361     -1.317248     -2.229660
  H      -0.786034     -2.116534     -2.017011
  C      -1.261368     -0.540647     -3.509696
  H      -0.198428     -0.198334     -3.512304
  H      -1.885212      0.381280     -3.561786
  C      -1.502571     -1.405467     -4.785607
  H      -2.592758     -1.637192     -4.866450
  H      -0.996403     -2.394376     -4.657066
  C      -0.999773     -0.748832     -6.096206
  H       0.099466     -0.578555     -6.010485
  H      -1.455245      0.267461     -6.208475
  C      -1.318119     -1.589512     -7.360926
  H      -2.425944     -1.713829     -7.436641
  H      -0.907522     -2.622187     -7.230898
  C      -0.785179     -0.994855     -8.694064
  H      -1.127260      0.066203     -8.790164
  H      -1.256447     -1.541056     -9.547429
  C       0.755691     -1.056263     -8.860487
  H       1.089603     -2.120868     -8.774503
  H       1.253816     -0.516609     -8.019594
  C       1.260444     -0.466875    -10.202732
  H       0.944766      0.603800    -10.274964
  H       0.750655     -0.988750    -11.049978
  C       2.795463     -0.567319    -10.380599
  H       3.127290     -0.125481    -11.348374
  H       3.137304     -1.629001    -10.360326
  H       3.334606     -0.031506     -9.564852
  C       1.184208      0.814808      2.009384
  H       2.122111      0.860615      2.610195
  H       1.008339      1.844430      1.614970
  C       1.368071     -0.160868      0.817468
  H       0.401666     -0.250590      0.262674
  H       1.600724     -1.182902      1.204115
  C       2.479405      0.283083     -0.167283
  H       3.457024      0.339435      0.373270
  H       2.259545      1.325191     -0.504199
  C       2.619897     -0.648195     -1.399502
  H       2.798862     -1.692715     -1.045642
  H       1.647408     -0.679540     -1.946208
  C       3.758623     -0.262961     -2.384450
  H       4.744131     -0.375454     -1.869642
  H       3.762114     -0.992077     -3.230190
  C       3.682193      1.182493     -2.979875
  H       4.527981      1.314612     -3.692237
  H       3.860411      1.921820     -2.161669
  C       2.356613      1.513435     -3.648991
  H       1.501469      1.670627     -2.962181
  C       2.115744      1.625052     -4.979722
  H       1.086043      1.890845     -5.296122
  C       3.119713      1.475406     -6.111683
  H       2.656141      0.868743     -6.927098
  H       4.018386      0.905887     -5.780328
  C       3.568413      2.842862     -6.712229
  H       4.098956      3.429415     -5.922808
  H       2.661330      3.436733     -6.976557
  C       4.483776      2.690894     -7.956679
  H       5.325487      2.001215     -7.702743
  H       3.910704      2.183774     -8.772180
  C       5.071585      4.022531     -8.498170
  H       5.693566      4.503816     -7.702558
  H       5.776758      3.791510     -9.333824
  C       4.015551      5.041418     -9.003159
  H       3.349987      5.345041     -8.159767
  H       3.350042      4.541735     -9.751487
  C       4.636487      6.312511     -9.635692
  H       5.321159      6.797795     -8.895712
  H       5.284633      6.018779    -10.499036
  C       3.586019      7.348631    -10.113125
  H       2.896578      6.861146    -10.845981
  H       2.945327      7.645798     -9.246437
  C       4.214208      8.611680    -10.751755
  H       3.435818      9.339070    -11.078297
  H       4.885932      9.137565    -10.032670
  H       4.827705      8.350055    -11.646040
138
Coordinates from ORCA-job /wrk/rja7/qm_final_3_replicates/qm_final_1.1/qm/4/freq E -2722.585050513228
  N      -2.460456     -4.352640     13.554778
  C      -1.826720     -5.217286     12.389791
  H      -1.810776     -6.263824     12.764148
  H      -0.779964     -4.876898     12.262614
  C      -3.192966     -5.280194     14.510316
  H      -3.635175     -4.681242     15.333192
  H      -3.998802     -5.806255     13.957246
  H      -2.479205     -6.019330     14.929353
  C      -3.448730     -3.269734     13.078931
  H      -2.895914     -2.553688     12.435450
  H      -4.276721     -3.753403     12.526708
  H      -3.842315     -2.773807     13.991981
  C      -1.314213     -3.644706     14.288930
  H      -0.849072     -2.940768     13.563110
  H      -0.590373     -4.411159     14.635898
  H      -1.735849     -3.100034     15.160327
  C      -2.513840     -5.169665     10.999624
  H      -1.943189     -5.937410     10.408934
  H      -3.571721     -5.531438     11.065428
  P      -0.987014     -3.016018     10.360447
  O       0.116478     -4.056464     10.180801
  O      -1.066191     -2.057906     11.555538
  O      -2.517974     -3.903419     10.373415
  O      -1.278423     -2.121082      8.978721
  C      -1.201300     -2.797939      7.708336
  H      -2.102049     -3.446918      7.559253
  H      -0.297402     -3.453573      7.663374
  C      -1.114353     -1.745504      6.590939
  H      -0.281461     -1.039885      6.801533
  O      -2.382164     -0.997525      6.567133
  C      -2.332264      0.358580      6.346131
  O      -1.301805      1.004956      6.201295
  C      -3.744385      0.962699      6.251097
  H      -3.829766      1.730310      7.055834
  H      -4.512630      0.181550      6.443430
  C      -0.910256     -2.408848      5.205470
  H      -1.749441     -3.104637      4.980216
  H       0.053417     -2.965732      5.191551
  O      -0.937222     -1.411299      4.142252
  C       0.259851     -0.789913      3.814754
  O       1.349448     -1.167154      4.216811
  C       0.000870      0.439118      2.935609
  H      -0.935801      0.293296      2.352670
  H      -0.207504      1.267052      3.656476
  C      -3.961101      1.638056      4.862479
  H      -3.133924      2.368253      4.698444
  H      -4.905854      2.232123      4.888621
  C      -4.004382      0.621879      3.689833
  H      -4.931734      0.001673      3.769386
  H      -3.154947     -0.091422      3.787397
  C      -3.933729      1.275611      2.286155
  H      -3.013224      1.907703      2.226466
  H      -4.792814      1.977182      2.141513
  C      -3.906924      0.234237      1.136928
  H      -4.855865     -0.358161      1.150762
  H      -3.090855     -0.499246      1.341103
  C      -3.710119      0.856675     -0.269042
  H      -2.752003      1.431628     -0.290587
  H      -4.522932      1.600498     -0.456454
  C      -3.705162     -0.178827     -1.440568
  H      -3.684697      0.371467     -2.407936
  H      -4.678412     -0.731909     -1.420140
  C      -2.567663     -1.186763     -1.371547
  H      -2.599015     -1.877463     -0.505403
  C      -1.526376     -1.318489     -2.232292
  H      -0.786675     -2.118490     -2.020170
  C      -1.260748     -0.541258     -3.511886
  H      -0.197469     -0.200087     -3.514416
  H      -1.883791      0.381233     -3.563297
  C      -1.502863     -1.405103     -4.788309
  H      -2.593242     -1.635931     -4.869149
  H      -0.997457     -2.394482     -4.660427
  C      -0.999823     -0.748052     -6.098633
  H       0.099545     -0.578574     -6.013027
  H      -1.454645      0.268602     -6.210252
  C      -1.319087     -1.587835     -7.363722
  H      -2.426996     -1.711716     -7.438937
  H      -0.908776     -2.620724     -7.234528
  C      -0.786740     -0.992520     -8.696800
  H      -1.129050      0.068513     -8.792346
  H      -1.258228     -1.538459     -9.550215
  C       0.754064     -1.053477     -8.863877
  H       1.088381     -2.117958     -8.777924
  H       1.252421     -0.513541     -8.023294
  C       1.258134     -0.464063    -10.206397
  H       0.941808      0.606409    -10.278746
  H       0.748488     -0.986419    -11.053429
  C       2.793181     -0.563701    -10.384521
  H       3.124711     -0.121441    -11.352203
  H       3.135495     -1.625234    -10.364545
  H       3.332172     -0.027851     -9.568689
  C       1.183999      0.810353      2.008292
  H       2.121823      0.856830      2.609162
  H       1.007717      1.839682      1.613306
  C       1.368431     -0.165854      0.816917
  H       0.402119     -0.256634      0.262154
  H       1.601897     -1.187506      1.204098
  C       2.479409      0.278307     -0.168132
  H       3.457088      0.335402      0.372239
  H       2.258995      1.320150     -0.505507
  C       2.620311     -0.653375     -1.400009
  H       2.799061     -1.697813     -1.045814
  H       1.647999     -0.684826     -1.947054
  C       3.759366     -0.268338     -2.384611
  H       4.744682     -0.380833     -1.869420
  H       3.763220     -0.997543     -3.230272
  C       3.683253      1.177065     -2.980142
  H       4.529280      1.309110     -3.692221
  H       3.861136      1.916461     -2.161908
  C       2.357923      1.508098     -3.649651
  H       1.502222      1.664127     -2.963278
  C       2.117690      1.621284     -4.980377
  H       1.088001      1.887041     -5.296926
  C       3.122240      1.473639     -6.112064
  H       2.659810      0.866867     -6.928062
  H       4.021587      0.905229     -5.780660
  C       3.569367      2.842093     -6.711544
  H       4.098344      3.428990     -5.921331
  H       2.661636      3.434759     -6.976358
  C       4.486065      2.692304     -7.955298
  H       5.328652      2.003815     -7.701062
  H       3.914502      2.184819     -8.771633
  C       5.072236      4.025264     -8.495372
  H       5.692648      4.507026     -7.698804
  H       5.778664      3.795977     -9.330443
  C       4.015091      5.042844     -9.000623
  H       3.347990      5.344611     -8.157783
  H       3.351255      4.542726     -9.750161
  C       4.634692      6.315499     -9.631306
  H       5.317894      6.801107     -8.890176
  H       5.284230      6.023557    -10.494214
  C       3.583221      7.350511    -10.108883
  H       2.895172      6.862716    -10.842842
  H       2.941252      7.646031     -9.242576
  C       4.210269      8.614962    -10.745861
  H       3.431206      9.341542    -11.072593
  H       4.880563      9.141229    -10.025715
  H       4.825059      8.354881    -11.639707
138
Coordinates from ORCA-job /wrk/rja7/qm_final_3_replicates/qm_final_1.1/qm/4/freq E -2722.585050774676
  N      -2.462687     -4.349611     13.556188
  C      -1.826895     -5.214479     12.392527
  H      -1.810230     -6.260740     12.767640
  H      -0.780357     -4.873150     12.266091
  C      -3.194878     -5.277185     14.511942
  H      -3.638260     -4.678042     15.334052
  H      -3.999800     -5.804488     13.958724
  H      -2.480626     -6.015199     14.932107
  C      -3.451890     -3.268292     13.078540
  H      -2.899353     -2.552074     12.435036
  H      -4.278739     -3.753508     12.525980
  H      -3.846898     -2.772137     13.990843
  C      -1.317973     -3.639593     14.290768
  H      -0.852810     -2.935968     13.564651
  H      -0.593732     -4.404865     14.639526
  H      -1.741204     -3.094402     15.161066
  C      -2.512706     -5.168618     11.001664
  H      -1.940673     -5.936120     10.412010
  H      -3.570251     -5.531511     11.066708
  P      -0.987620     -3.013752     10.362377
  O       0.117121     -4.053149     10.184559
  O      -1.068905     -2.054822     11.556695
  O      -2.517680     -3.902772     10.374615
  O      -1.278815     -2.120159      8.979750
  C      -1.200514     -2.798042      7.709979
  H      -2.100927     -3.447454      7.560796
  H      -0.296329     -3.453369      7.666163
  C      -1.113155     -1.746500      6.591772
  H      -0.280245     -1.040796      6.802001
  O      -2.380868     -0.998444      6.567014
  C      -2.330782      0.357518      6.345371
  O      -1.300220      1.003686      6.200265
  C      -3.742810      0.961810      6.250140
  H      -3.828251      1.729272      7.055017
  H      -4.511144      0.180693      6.442253
  C      -0.908889     -2.410946      5.206827
  H      -1.748034     -3.106981      4.982172
  H       0.054813     -2.967790      5.193389
  O      -0.935987     -1.414244      4.142872
  C       0.260957     -0.792837      3.814916
  O       1.350645     -1.169560      4.217224
  C       0.001689      0.435522      2.934970
  H      -0.934841      0.289097      2.351958
  H      -0.207093      1.263774      3.655367
  C      -3.959252      1.637356      4.861586
  H      -3.132026      2.367542      4.697764
  H      -4.903996      2.231440      4.887622
  C      -4.002329      0.621226      3.688905
  H      -4.929629      0.000928      3.768324
  H      -3.152844     -0.092014      3.786572
  C      -3.931678      1.275006      2.285251
  H      -3.011202      1.907153      2.225572
  H      -4.790783      1.976572      2.140713
  C      -3.904938      0.233665      1.135997
  H      -4.853801     -0.358853      1.150050
  H      -3.088740     -0.499724      1.339987
  C      -3.708561      0.856181     -0.270017
  H      -2.750285      1.430853     -0.291895
  H      -4.521271      1.600224     -0.456958
  C      -3.704465     -0.179246     -1.441602
  H      -3.684101      0.371061     -2.408965
  H      -4.677950     -0.731888     -1.420816
  C      -2.567319     -1.187612     -1.372994
  H      -2.598870     -1.878652     -0.507130
  C      -1.526054     -1.319217     -2.233772
  H      -0.786536     -2.119487     -2.022044
  C      -1.260286     -0.541507     -3.513063
  H      -0.196868     -0.200825     -3.515640
  H      -1.883021      0.381203     -3.564072
  C      -1.502846     -1.404827     -4.789779
  H      -2.593273     -1.635438     -4.870568
  H      -0.997540     -2.394310     -4.662358
  C      -1.000012     -0.747300     -6.099973
  H       0.099409     -0.578093     -6.014599
  H      -1.454682      0.269483     -6.211019
  C      -1.319873     -1.586538     -7.365270
  H      -2.427812     -1.710462     -7.439944
  H      -0.909385     -2.619433     -7.236702
  C      -0.788398     -0.990631     -8.698436
  H      -1.131226      0.070272     -8.793576
  H      -1.260089     -1.536575     -9.551737
  C       0.752320     -1.050839     -8.866366
  H       1.087221     -2.115146     -8.780469
  H       1.250945     -0.510526     -8.026171
  C       1.255340     -0.461457    -10.209312
  H       0.938397      0.608825    -10.281754
  H       0.745531     -0.984315    -11.055934
  C       2.790341     -0.560387    -10.388232
  H       3.121228     -0.117750    -11.355961
  H       3.133076     -1.621785    -10.368669
  H       3.329491     -0.024463     -9.572546
  C       1.184854      0.806783      2.007688
  H       2.122555      0.853657      2.608715
  H       1.008365      1.835946      1.612371
  C       1.369704     -0.169731      0.816645
  H       0.403433     -0.261261      0.261943
  H       1.603808     -1.191111      1.204172
  C       2.480390      0.274588     -0.168655
  H       3.458144      0.332109      0.371534
  H       2.259632      1.316252     -0.506359
  C       2.621364     -0.657344     -1.400347
  H       2.799929     -1.701752     -1.045963
  H       1.649134     -0.688733     -1.947538
  C       3.760562     -0.272611     -2.384895
  H       4.745837     -0.385184     -1.869641
  H       3.764393     -1.001943     -3.230454
  C       3.684754      1.172733     -2.980628
  H       4.530967      1.304550     -3.692516
  H       3.862461      1.912188     -2.162399
  C       2.359600      1.503906     -3.650358
  H       1.503562      1.658954     -2.964191
  C       2.119720      1.618469     -4.981038
  H       1.090020      1.884221     -5.297548
  C       3.124511      1.472309     -6.112675
  H       2.662885      0.865230     -6.928919
  H       4.024493      0.904936     -5.781249
  C       3.570097      2.841485     -6.711578
  H       4.097870      3.428791     -5.920864
  H       2.661739      3.433081     -6.976666
  C       4.487631      2.693383     -7.954885
  H       5.330937      2.005830     -7.700490
  H       3.917178      2.185541     -8.771772
  C       5.072423      4.027348     -8.493921
  H       5.691753      4.509428     -7.696705
  H       5.779674      3.799427     -9.328666
  C       4.014359      5.043967     -8.999166
  H       3.346194      5.344214     -8.156626
  H       3.351685      4.543594     -9.749571
  C       4.632856      6.317859     -9.628411
  H       5.314870      6.803771     -8.886381
  H       5.283555      6.027316    -10.490926
  C       3.580566      7.351892    -10.106217
  H       2.893664      6.863768    -10.841031
  H       2.937509      7.646123     -9.240271
  C       4.206643      8.617470    -10.741911
  H       3.426990      9.343251    -11.069008
  H       4.875595      9.144216    -10.020864
  H       4.822629      8.358623    -11.635288
138
Coordinates from ORCA-job /wrk/rja7/qm_final_3_replicates/qm_final_1.1/qm/4/freq E -2722.585050952053
  N      -2.464487     -4.347486     13.557532
  C      -1.826362     -5.212214     12.395097
  H      -1.808565     -6.258223     12.770871
  H      -0.780214     -4.869440     12.269355
  C      -3.196047     -5.275413     14.513431
  H      -3.640729     -4.676319     15.334878
  H      -3.999917     -5.804155     13.960055
  H      -2.481079     -6.012154     14.934603
  C      -3.454945     -3.268019     13.078186
  H      -2.902880     -2.551386     12.434735
  H      -4.280444     -3.754932     12.525107
  H      -3.851593     -2.771892     13.989780
  C      -1.321563     -3.635108     14.292620
  H      -0.856548     -2.931569     13.566336
  H      -0.596709     -4.398984     14.643188
  H      -1.746574     -3.089566     15.161834
  C      -2.510922     -5.168221     11.003548
  H      -1.937271     -5.935248     10.414864
  H      -3.568018     -5.532555     11.067847
  P      -0.988223     -3.011601     10.364278
  O       0.118049     -4.049635     10.188232
  O      -1.071875     -2.051993     11.557903
  O      -2.517124     -3.902726     10.375767
  O      -1.279418     -2.119334      8.980808
  C      -1.199742     -2.798126      7.711590
  H      -2.099612     -3.448253      7.562282
  H      -0.295058     -3.452842      7.668863
  C      -1.112276     -1.747330      6.592677
  H      -0.279535     -1.041356      6.802654
  O      -2.380101     -0.999532      6.567045
  C      -2.330128      0.356386      6.345222
  O      -1.299589      1.002610      6.200147
  C      -3.742169      0.960582      6.249687
  H      -3.827912      1.727801      7.054763
  H      -4.510495      0.179349      6.441364
  C      -0.907591     -2.412666      5.208196
  H      -1.746522     -3.109100      4.983968
  H       0.056248     -2.969286      5.195203
  O      -0.934903     -1.416727      4.143549
  C       0.261869     -0.795233      3.815129
  O       1.351678     -1.171421      4.217619
  C       0.002197      0.432465      2.934406
  H      -0.934268      0.285387      2.351451
  H      -0.207032      1.260976      3.654389
  C      -3.958220      1.636465      4.861240
  H      -3.130857      2.366569      4.697741
  H      -4.902870      2.230701      4.887189
  C      -4.001180      0.620551      3.688360
  H      -4.928584      0.000368      3.767465
  H      -3.151845     -0.092859      3.786154
  C      -3.930094      1.274543      2.284847
  H      -3.009414      1.906418      2.225389
  H      -4.788967      1.976402      2.140330
  C      -3.903589      0.233425      1.135381
  H      -4.852621     -0.358821      1.149270
  H      -3.087603     -0.500234      1.339235
  C      -3.707011      0.856252     -0.270499
  H      -2.748417      1.430359     -0.292305
  H      -4.519366      1.600793     -0.456998
  C      -3.703742     -0.178861     -1.442378
  H      -3.683200      0.371676     -2.409608
  H      -4.677565     -0.730894     -1.421562
  C      -2.567166     -1.187902     -1.374146
  H      -2.599172     -1.879290     -0.508581
  C      -1.525923     -1.319729     -2.234917
  H      -0.786840     -2.120469     -2.023446
  C      -1.259707     -0.541728     -3.513922
  H      -0.196114     -0.201606     -3.516412
  H      -1.881978      0.381302     -3.564729
  C      -1.502674     -1.404562     -4.790910
  H      -2.593154     -1.634915     -4.871657
  H      -0.997482     -2.394152     -4.663914
  C      -0.999977     -0.746630     -6.100991
  H       0.099524     -0.577836     -6.015872
  H      -1.454370      0.270338     -6.211463
  C      -1.320485     -1.585309     -7.366494
  H      -2.428467     -1.709133     -7.440687
  H      -0.909963     -2.618260     -7.238482
  C      -0.789702     -0.988978     -8.699755
  H      -1.132893      0.071837     -8.794573
  H      -1.261620     -1.534922     -9.552932
  C       0.750951     -1.048663     -8.868426
  H       1.086244     -2.112855     -8.782581
  H       1.249825     -0.508080     -8.028541
  C       1.253062     -0.459371    -10.211767
  H       0.935762      0.610797    -10.284283
  H       0.742935     -0.982580    -11.057983
  C       2.787986     -0.557910    -10.391562
  H       3.118220     -0.115105    -11.359438
  H       3.130972     -1.619227    -10.372297
  H       3.327449     -0.021884     -9.576141
  C       1.185244      0.803868      2.007030
  H       2.122891      0.851160      2.608114
  H       1.008463      1.832901      1.611516
  C       1.370453     -0.172827      0.816196
  H       0.404207     -0.264889      0.261541
  H       1.605039     -1.193999      1.203979
  C       2.480925      0.271745     -0.169238
  H       3.458713      0.329492      0.370860
  H       2.259902      1.313334     -0.507003
  C       2.622028     -0.660166     -1.400943
  H       2.800560     -1.704588     -1.046566
  H       1.649900     -0.691523     -1.948305
  C       3.761355     -0.275431     -2.385370
  H       4.746610     -0.388103     -1.870111
  H       3.765168     -1.004707     -3.230983
  C       3.685649      1.169981     -2.981057
  H       4.532063      1.301803     -3.692702
  H       3.863117      1.909350     -2.162699
  C       2.360659      1.501138     -3.651083
  H       1.504409      1.655608     -2.965055
  C       2.121114      1.616466     -4.981759
  H       1.091412      1.882137     -5.298354
  C       3.126242      1.471325     -6.113252
  H       2.665288      0.863908     -6.929640
  H       4.026638      0.904722     -5.781649
  C       3.570747      2.841001     -6.711799
  H       4.097690      3.428593     -5.920739
  H       2.661932      3.431859     -6.976998
  C       4.488796      2.694072     -7.954840
  H       5.332569      2.007118     -7.700343
  H       3.919046      2.185982     -8.772060
  C       5.072737      4.028656     -8.493271
  H       5.691490      4.510917     -7.695711
  H       5.780419      3.801543     -9.327872
  C       4.014108      5.044721     -8.998458
  H       3.345261      5.343908     -8.156082
  H       3.352175      4.544283     -9.749480
  C       4.631910      6.319456     -9.626660
  H       5.313106      6.805520     -8.883974
  H       5.283418      6.029883    -10.488897
  C       3.579074      7.352841    -10.104596
  H       2.893068      6.864564    -10.840150
  H       2.935135      7.646020     -9.238943
  C       4.204462      8.619344    -10.739117
  H       3.424369      9.344478    -11.066608
  H       4.872208      9.146453    -10.017220
  H       4.821527      8.361545    -11.632053
138
Coordinates from ORCA-job /wrk/rja7/qm_final_3_replicates/qm_final_1.1/qm/4/freq E -2722.585051055053
  N      -2.466397     -4.346734     13.557813
  C      -1.826403     -5.211169     12.396209
  H      -1.807828     -6.257046     12.772314
  H      -0.780542     -4.867273     12.271160
  C      -3.197544     -5.275090     14.513612
  H      -3.643180     -4.676177     15.334676
  H      -4.000639     -5.804782     13.960016
  H      -2.482078     -6.011001     14.935387
  C      -3.457779     -3.268587     13.077333
  H      -2.906033     -2.551519     12.434091
  H      -4.282200     -3.756653     12.523666
  H      -3.855752     -2.772680     13.988456
  C      -1.324908     -3.632706     14.293498
  H      -0.859973     -2.929062     13.567276
  H      -0.599586     -4.395555     14.645356
  H      -1.751321     -3.087046     15.161958
  C      -2.509838     -5.168340     11.004059
  H      -1.934818     -5.934855     10.416056
  H      -3.566583     -5.533835     11.067585
  P      -0.988932     -3.010210     10.365423
  O       0.118560     -4.047134     10.190652
  O      -1.074566     -2.050324     11.558689
  O      -2.516927     -3.903005     10.375963
  O      -1.280017     -2.118734      8.981446
  C      -1.199193     -2.798023      7.712557
  H      -2.098660     -3.448641      7.562991
  H      -0.294141     -3.452288      7.670661
  C      -1.111527     -1.747622      6.593285
  H      -0.278856     -1.041546      6.803198
  O      -2.379367     -0.999905      6.567102
  C      -2.329361      0.356004      6.345269
  O      -1.298802      1.002197      6.200183
  C      -3.741377      0.960231      6.249741
  H      -3.827159      1.727331      7.054924
  H      -4.509735      0.178985      6.441237
  C      -0.906559     -2.413371      5.209060
  H      -1.745405     -3.109939      4.984919
  H       0.057319     -2.969931      5.196287
  O      -0.933827     -1.417711      4.144138
  C       0.262965     -0.796454      3.815365
  O       1.352803     -1.172627      4.217786
  C       0.003196      0.431021      2.934355
  H      -0.933272      0.283718      2.351455
  H      -0.206278      1.259596      3.654210
  C      -3.957302      1.636296      4.861375
  H      -3.129968      2.366470      4.698045
  H      -4.901963      2.230517      4.887268
  C      -4.000032      0.620479      3.688399
  H      -4.927403      0.000227      3.767370
  H      -3.150671     -0.092897      3.786301
  C      -3.928792      1.274534      2.284954
  H      -3.008111      1.906422      2.225591
  H      -4.787663      1.976383      2.140370
  C      -3.902229      0.233467      1.135436
  H      -4.851244     -0.358799      1.149254
  H      -3.086217     -0.500172      1.339263
  C      -3.705691      0.856414     -0.270412
  H      -2.747004      1.430359     -0.292276
  H      -4.517990      1.601084     -0.456648
  C      -3.702791     -0.178583     -1.442398
  H      -3.682381      0.372054     -2.409576
  H      -4.676683     -0.730487     -1.421459
  C      -2.566351     -1.187784     -1.374435
  H      -2.598349     -1.879221     -0.508908
  C      -1.525287     -1.319769     -2.235400
  H      -0.786335     -2.120667     -2.024066
  C      -1.259123     -0.541757     -3.514370
  H      -0.195517     -0.201654     -3.516946
  H      -1.881330      0.381323     -3.565132
  C      -1.502283     -1.404507     -4.791376
  H      -2.592755     -1.634953     -4.871919
  H      -0.996919     -2.394036     -4.664598
  C      -0.999944     -0.746377     -6.101505
  H       0.099591     -0.577669     -6.016688
  H      -1.454323      0.270629     -6.211672
  C      -1.320828     -1.584881     -7.367023
  H      -2.428821     -1.708849     -7.440807
  H      -0.910103     -2.617789     -7.239298
  C      -0.790680     -0.988334     -8.700439
  H      -1.134245      0.072368     -8.795139
  H      -1.262737     -1.534440     -9.553436
  C       0.749932     -1.047514     -8.869694
  H       1.085600     -2.111584     -8.783775
  H       1.248937     -0.506595     -8.030098
  C       1.251229     -0.458381    -10.213403
  H       0.933626      0.611687    -10.286048
  H       0.740792     -0.981936    -11.059221
  C       2.786077     -0.556568    -10.394015
  H       3.115642     -0.113884    -11.362175
  H       3.129349     -1.617790    -10.374737
  H       3.325851     -0.020213     -9.579010
  C       1.186181      0.802488      2.006955
  H       2.123813      0.849858      2.608065
  H       1.009355      1.831524      1.611465
  C       1.371461     -0.174200      0.816117
  H       0.405220     -0.266246      0.261445
  H       1.606033     -1.195362      1.203934
  C       2.481950      0.270423     -0.169279
  H       3.459739      0.328004      0.370829
  H       2.260992      1.312076     -0.506885
  C       2.622955     -0.661318     -1.401126
  H       2.801498     -1.705791     -1.046898
  H       1.650827     -0.692560     -1.948475
  C       3.762249     -0.276520     -2.385597
  H       4.747562     -0.389332     -1.870493
  H       3.765848     -1.005665     -3.231324
  C       3.686539      1.168983     -2.981125
  H       4.533003      1.300852     -3.692706
  H       3.864000      1.908231     -2.162662
  C       2.361572      1.500123     -3.651192
  H       1.505358      1.654456     -2.965084
  C       2.122025      1.615583     -4.981854
  H       1.092309      1.881211     -5.298412
  C       3.127178      1.470737     -6.113375
  H       2.666411      0.863099     -6.929711
  H       4.027758      0.904440     -5.781757
  C       3.571116      2.840599     -6.711884
  H       4.097844      3.428336     -5.920786
  H       2.662029      3.431118     -6.976926
  C       4.489110      2.694163     -7.954989
  H       5.333128      2.007458     -7.700609
  H       3.919489      2.185950     -8.772221
  C       5.072574      4.028993     -8.493298
  H       5.691296      4.511298     -7.695747
  H       5.780204      3.802199     -9.328030
  C       4.013588      5.044821     -8.998224
  H       3.344622      5.343491     -8.155759
  H       3.351839      4.544374     -9.749405
  C       4.630903      6.319971     -9.626059
  H       5.311779      6.806171     -8.883164
  H       5.282668      6.030893    -10.488266
  C       3.577626      7.352949    -10.103885
  H       2.892024      6.864531    -10.839727
  H       2.933333      7.645504     -9.238282
  C       4.202434      8.620011    -10.737855
  H       3.421979      9.344706    -11.065466
  H       4.869556      9.147381    -10.015573
  H       4.819984      8.362858    -11.630641
138
Coordinates from ORCA-job /wrk/rja7/qm_final_3_replicates/qm_final_1.1/qm/4/freq E -2722.585051113941
  N      -2.467590     -4.346876     13.557795
  C      -1.826305     -5.210934     12.396626
  H      -1.807080     -6.256751     12.772858
  H      -0.780679     -4.866160     12.272016
  C      -3.198402     -5.275678     14.513411
  H      -3.644704     -4.677018     15.334300
  H      -4.000945     -5.806002     13.959616
  H      -2.482559     -6.011063     14.935468
  C      -3.459666     -3.269637     13.076658
  H      -2.908198     -2.552204     12.433581
  H      -4.283344     -3.758482     12.522567
  H      -3.858559     -2.773982     13.987507
  C      -1.327117     -3.631740     14.293922
  H      -0.862282     -2.927959     13.567771
  H      -0.601406     -4.393852     14.646586
  H      -1.754477     -3.086051     15.161903
  C      -2.509049     -5.168800     11.004100
  H      -1.933065     -5.934894     10.416497
  H      -3.565538     -5.535119     11.067119
  P      -0.989422     -3.009557     10.366065
  O       0.118904     -4.045709     10.192012
  O      -1.076402     -2.049631     11.559201
  O      -2.516797     -3.903526     10.375903
  O      -1.280461     -2.118470      8.981844
  C      -1.198759     -2.797928      7.713093
  H      -2.097874     -3.448970      7.563263
  H      -0.293382     -3.451775      7.671705
  C      -1.111061     -1.747641      6.593714
  H      -0.278493     -1.041449      6.803647
  O      -2.378978     -1.000071      6.567316
  C      -2.329085      0.355870      6.345604
  O      -1.298585      1.002173      6.200606
  C      -3.741152      0.959964      6.250065
  H      -3.827060      1.726968      7.055327
  H      -4.509465      0.178637      6.441404
  C      -0.905835     -2.413498      5.209590
  H      -1.744540     -3.110222      4.985407
  H       0.058137     -2.969897      5.196912
  O      -0.933143     -1.417924      4.144559
  C       0.263646     -0.796796      3.815544
  O       1.353523     -1.173011      4.217814
  C       0.003777      0.430591      2.934415
  H      -0.932707      0.283121      2.351574
  H      -0.205841      1.259186      3.654208
  C      -3.957013      1.636175      4.861769
  H      -3.129704      2.366405      4.698559
  H      -4.901689      2.230375      4.887647
  C      -3.999618      0.620481      3.688672
  H      -4.927020      0.000255      3.767493
  H      -3.150303     -0.092947      3.786626
  C      -3.928137      1.274664      2.285324
  H      -3.007374      1.906443      2.226128
  H      -4.786913      1.976616      2.140668
  C      -3.901574      0.233713      1.135694
  H      -4.850688     -0.358397      1.149281
  H      -3.085701     -0.500073      1.339547
  C      -3.704735      0.856805     -0.270045
  H      -2.745939      1.430570     -0.291713
  H      -4.516897      1.601630     -0.456273
  C      -3.701867     -0.178042     -1.442172
  H      -3.681412      0.372735     -2.409270
  H      -4.675787     -0.729905     -1.421350
  C      -2.565510     -1.187336     -1.374303
  H      -2.597514     -1.878741     -0.508751
  C      -1.524558     -1.319497     -2.235384
  H      -0.785699     -2.120484     -2.024057
  C      -1.258440     -0.541597     -3.514412
  H      -0.194825     -0.201511     -3.517080
  H      -1.880572      0.381538     -3.565183
  C      -1.501804     -1.404362     -4.791363
  H      -2.592291     -1.634826     -4.871656
  H      -0.996384     -2.393876     -4.664691
  C      -0.999741     -0.746253     -6.101608
  H       0.099830     -0.577639     -6.017061
  H      -1.454071      0.270786     -6.211671
  C      -1.320955     -1.584758     -7.367044
  H      -2.428965     -1.708792     -7.440492
  H      -0.910150     -2.617648     -7.239424
  C      -0.791243     -0.988235     -8.700636
  H      -1.135004      0.072399     -8.795360
  H      -1.263429     -1.534519     -9.553449
  C       0.749349     -1.047167     -8.870310
  H       1.085225     -2.111151     -8.784163
  H       1.248460     -0.505900     -8.030997
  C       1.250097     -0.458356    -10.214353
  H       0.932324      0.611644    -10.287238
  H       0.739426     -0.982242    -11.059827
  C       2.784893     -0.556347    -10.395515
  H       3.113975     -0.114042    -11.364013
  H       3.128382     -1.617494    -10.375913
  H       3.324898     -0.019541     -9.580959
  C       1.186686      0.802121      2.006964
  H       2.124344      0.849582      2.608031
  H       1.009772      1.831156      1.611505
  C       1.372018     -0.174518      0.816076
  H       0.405788     -0.266490      0.261373
  H       1.606537     -1.195703      1.203860
  C       2.482541      0.270227     -0.169240
  H       3.460310      0.327716      0.370915
  H       2.261579      1.311949     -0.506628
  C       2.623584     -0.661300     -1.401242
  H       2.802355     -1.705790     -1.047179
  H       1.651420     -0.692631     -1.948516
  C       3.762734     -0.276175     -2.385775
  H       4.748118     -0.388902     -1.870794
  H       3.766314     -1.005190     -3.231614
  C       3.686724      1.169401     -2.981124
  H       4.533155      1.301505     -3.692710
  H       3.864128      1.908576     -2.162589
  C       2.361681      1.500317     -3.651167
  H       1.505557      1.654700     -2.964956
  C       2.122035      1.615448     -4.981836
  H       1.092272      1.880876     -5.298399
  C       3.127182      1.470552     -6.113375
  H       2.666409      0.862846     -6.929662
  H       4.027758      0.904238     -5.781769
  C       3.571046      2.840426     -6.711927
  H       4.097811      3.428189     -5.920872
  H       2.661899      3.430902     -6.976863
  C       4.488935      2.694002     -7.955107
  H       5.332969      2.007296     -7.700775
  H       3.919232      2.185780     -8.772278
  C       5.072381      4.028804     -8.493515
  H       5.691202      4.511124     -7.696053
  H       5.779911      3.801930     -9.328316
  C       4.013370      5.044607     -8.998436
  H       3.344399      5.343238     -8.155959
  H       3.351650      4.544163     -9.749642
  C       4.630620      6.319810     -9.626241
  H       5.311376      6.806084     -8.883281
  H       5.282463      6.030801    -10.488407
  C       3.577234      7.352661    -10.104118
  H       2.891833      6.864176    -10.840106
  H       2.932762      7.645012     -9.238581
  C       4.201883      8.619908    -10.737871
  H       3.421318      9.344418    -11.065634
  H       4.868695      9.147399    -10.015394
  H       4.819695      8.362969    -11.630538
138
Coordinates from ORCA-job /wrk/rja7/qm_final_3_replicates/qm_final_1.1/qm/4/freq E -2722.585051143425
  N      -2.468500     -4.347295     13.557539
  C      -1.826486     -5.211086     12.396569
  H      -1.806969     -6.256896     12.772804
  H      -0.780965     -4.865879     12.272277
  C      -3.199257     -5.276374     14.512915
  H      -3.645908     -4.677893     15.333744
  H      -4.001519     -5.806911     13.958915
  H      -2.483296     -6.011590     14.935070
  C      -3.460865     -3.270457     13.076062
  H      -2.909465     -2.552822     12.433157
  H      -4.284143     -3.759642     12.521677
  H      -3.860287     -2.774980     13.986772
  C      -1.328588     -3.631676     14.294016
  H      -0.863733     -2.927809     13.567957
  H      -0.602711     -4.393442     14.647094
  H      -1.756466     -3.085983     15.161741
  C      -2.508786     -5.169209     11.003806
  H      -1.932248     -5.935047     10.416412
  H      -3.565144     -5.535963     11.066468
  P      -0.989754     -3.009387     10.366259
  O       0.118980     -4.045151     10.192484
  O      -1.077444     -2.049563     11.559421
  O      -2.516840     -3.903935     10.375620
  O      -1.280725     -2.118380      8.981989
  C      -1.198573     -2.797835      7.713261
  H      -2.097534     -3.449041      7.563231
  H      -0.293060     -3.451505      7.672116
  C      -1.110789     -1.747534      6.593900
  H      -0.278235     -1.041337      6.803878
  O      -2.378701     -0.999962      6.567451
  C      -2.328791      0.355998      6.345814
  O      -1.298292      1.002308      6.200873
  C      -3.740863      0.960077      6.250278
  H      -3.826785      1.727082      7.055538
  H      -4.509181      0.178750      6.441597
  C      -0.905462     -2.413355      5.209786
  H      -1.744143     -3.110072      4.985493
  H       0.058529     -2.969722      5.197131
  O      -0.932698     -1.417710      4.144796
  C       0.264152     -0.796756      3.815681
  O       1.354022     -1.173161      4.217788
  C       0.004332      0.430744      2.934671
  H      -0.932134      0.283293      2.351791
  H      -0.205344      1.259275      3.654518
  C      -3.956706      1.636306      4.861991
  H      -3.129435      2.366586      4.698820
  H      -4.901417      2.230452      4.887838
  C      -3.999215      0.620644      3.688862
  H      -4.926622      0.000415      3.767620
  H      -3.149906     -0.092789      3.786844
  C      -3.927640      1.274874      2.285548
  H      -3.006866      1.906646      2.226447
  H      -4.786398      1.976835      2.140833
  C      -3.901002      0.233954      1.135889
  H      -4.850146     -0.358111      1.149355
  H      -3.085181     -0.499877      1.339797
  C      -3.704003      0.857070     -0.269808
  H      -2.745177      1.430800     -0.291366
  H      -4.516121      1.601918     -0.456135
  C      -3.701018     -0.177734     -1.441969
  H      -3.680547      0.373088     -2.409040
  H      -4.674904     -0.729666     -1.421228
  C      -2.564630     -1.186989     -1.374109
  H      -2.596522     -1.878277     -0.508458
  C      -1.523782     -1.319243     -2.235307
  H      -0.784897     -2.120203     -2.023967
  C      -1.257835     -0.541457     -3.514441
  H      -0.194226     -0.201347     -3.517269
  H      -1.879970      0.381682     -3.565167
  C      -1.501430     -1.404294     -4.791293
  H      -2.591936     -1.634757     -4.871318
  H      -0.996002     -2.393811     -4.664670
  C      -0.999619     -0.746293     -6.101679
  H       0.099973     -0.577709     -6.017371
  H      -1.453934      0.270753     -6.211742
  C      -1.321102     -1.584885     -7.366993
  H      -2.429125     -1.708980     -7.440156
  H      -0.910237     -2.617757     -7.239414
  C      -0.791741     -0.988426     -8.700744
  H      -1.135613      0.072167     -8.795498
  H      -1.264046     -1.534842     -9.553407
  C       0.748832     -1.047217     -8.870743
  H       1.084846     -2.111143     -8.784436
  H       1.248034     -0.505710     -8.031639
  C       1.249214     -0.458610    -10.215002
  H       0.931282      0.611332    -10.288044
  H       0.738444     -0.982735    -11.060267
  C       2.783988     -0.556396    -10.396466
  H       3.112760     -0.114422    -11.365221
  H       3.127686     -1.617470    -10.376518
  H       3.324089     -0.019187     -9.582238
  C       1.187260      0.802330      2.007281
  H       2.124920      0.849756      2.608349
  H       1.010354      1.831397      1.611897
  C       1.372618     -0.174204      0.816299
  H       0.406416     -0.266039      0.261523
  H       1.607017     -1.195451      1.203988
  C       2.483226      0.270611     -0.168896
  H       3.460960      0.328016      0.371332
  H       2.262303      1.312392     -0.506126
  C       2.624319     -0.660770     -1.400992
  H       2.803296     -1.705258     -1.047032
  H       1.652104     -0.692217     -1.948174
  C       3.763323     -0.275386     -2.385592
  H       4.748759     -0.387965     -1.870679
  H       3.766945     -1.004344     -3.231477
  C       3.687019      1.170199     -2.980864
  H       4.533366      1.302480     -3.692521
  H       3.864403      1.909382     -2.162333
  C       2.361853      1.500886     -3.650791
  H       1.505837      1.655405     -2.964472
  C       2.122027      1.615575     -4.981463
  H       1.092218      1.880840     -5.297993
  C       3.127067      1.470467     -6.113070
  H       2.666160      0.862748     -6.929273
  H       4.027608      0.904056     -5.781531
  C       3.570977      2.840263     -6.711772
  H       4.097945      3.428042     -5.920865
  H       2.661824      3.430786     -6.976580
  C       4.488619      2.693660     -7.955116
  H       5.332647      2.006913     -7.700889
  H       3.918706      2.185431     -8.772138
  C       5.072051      4.028378     -8.493752
  H       5.691056      4.510725     -7.696452
  H       5.779394      3.801368     -9.328675
  C       4.013001      5.044183     -8.998578
  H       3.344187      5.342919     -8.156013
  H       3.351153      4.543705     -9.749647
  C       4.630188      6.319329     -9.626571
  H       5.311071      6.805630     -8.883747
  H       5.281852      6.030261    -10.488850
  C       3.576726      7.352186    -10.104293
  H       2.891215      6.863686    -10.840171
  H       2.932403      7.644547     -9.238650
  C       4.201275      8.619421    -10.738166
  H       3.420658      9.343926    -11.065813
  H       4.868205      9.146915    -10.015799
  H       4.818941      8.362472    -11.630932
138
Coordinates from ORCA-job /wrk/rja7/qm_final_3_replicates/qm_final_1.1/qm/4/freq E -2722.585051156625
  N      -2.468955     -4.347795     13.557242
  C      -1.826606     -5.211391     12.396298
  H      -1.806966     -6.257224     12.772459
  H      -0.781122     -4.866009     12.272186
  C      -3.199637     -5.277075     14.512467
  H      -3.646443     -4.678734     15.333314
  H      -4.001772     -5.807690     13.958358
  H      -2.483595     -6.012226     14.934602
  C      -3.461512     -3.271170     13.075666
  H      -2.910196     -2.553393     12.432854
  H      -4.284602     -3.760542     12.521169
  H      -3.861181     -2.775823     13.986337
  C      -1.329314     -3.631935     14.293884
  H      -0.864477     -2.928010     13.567861
  H      -0.603330     -4.393529     14.647119
  H      -1.757438     -3.086269     15.161504
  C      -2.508696     -5.169534     11.003425
  H      -1.931884     -5.935216     10.416091
  H      -3.564989     -5.536504     11.065888
  P      -0.989938     -3.009405     10.366286
  O       0.118984     -4.044990     10.192606
  O      -1.078007     -2.049703     11.559515
  O      -2.516897     -3.904223     10.375331
  O      -1.280828     -2.118348      8.982041
  C      -1.198470     -2.797727      7.713285
  H      -2.097366     -3.448991      7.563118
  H      -0.292905     -3.451328      7.672216
  C      -1.110640     -1.747355      6.593995
  H      -0.278087     -1.041169      6.804022
  O      -2.378545     -0.999773      6.567584
  C      -2.328627      0.356198      6.345996
  O      -1.298127      1.002511      6.201085
  C      -3.740702      0.960276      6.250483
  H      -3.826606      1.727314      7.055714
  H      -4.509018      0.178960      6.441851
  C      -0.905268     -2.413098      5.209850
  H      -1.743915     -3.109833      4.985491
  H       0.058757     -2.969404      5.197188
  O      -0.932519     -1.417384      4.144916
  C       0.264341     -0.796473      3.815756
  O       1.354218     -1.172958      4.217766
  C       0.004527      0.431086      2.934815
  H      -0.931901      0.283614      2.351877
  H      -0.205197      1.259586      3.654680
  C      -3.956569      1.636455      4.862179
  H      -3.129316      2.366750      4.698980
  H      -4.901303      2.230565      4.888005
  C      -3.999061      0.620762      3.689076
  H      -4.926470      0.000537      3.767833
  H      -3.149751     -0.092666      3.787066
  C      -3.927456      1.274984      2.285759
  H      -3.006678      1.906752      2.226695
  H      -4.786203      1.976952      2.141012
  C      -3.900772      0.234060      1.136107
  H      -4.849936     -0.357977      1.149522
  H      -3.084986     -0.499795      1.340064
  C      -3.703649      0.857165     -0.269565
  H      -2.744814      1.430888     -0.291021
  H      -4.515735      1.602017     -0.456009
  C      -3.700523     -0.177621     -1.441739
  H      -3.680001      0.373218     -2.408798
  H      -4.674383     -0.729608     -1.421085
  C      -2.564093     -1.186826     -1.373833
  H      -2.595935     -1.878059     -0.508136
  C      -1.523246     -1.319067     -2.235035
  H      -0.784316     -2.119978     -2.023667
  C      -1.257378     -0.541325     -3.514226
  H      -0.193762     -0.201256     -3.517147
  H      -1.879488      0.381834     -3.564906
  C      -1.501136     -1.404187     -4.791028
  H      -2.591665     -1.634599     -4.870911
  H      -0.995766     -2.393737     -4.664423
  C      -0.999431     -0.746274     -6.101492
  H       0.100174     -0.577720     -6.017303
  H      -1.453720      0.270782     -6.211576
  C      -1.321090     -1.584917     -7.366731
  H      -2.429124     -1.709025     -7.439717
  H      -0.910212     -2.617787     -7.239179
  C      -0.791941     -0.988499     -8.700579
  H      -1.135831      0.072089     -8.795322
  H      -1.264364     -1.534950     -9.553154
  C       0.748610     -1.047281     -8.870823
  H       1.084663     -2.111186     -8.784424
  H       1.247935     -0.505649     -8.031871
  C       1.248776     -0.458833    -10.215231
  H       0.930783      0.611085    -10.288364
  H       0.737927     -0.983088    -11.060367
  C       2.783532     -0.556558    -10.396874
  H       3.112144     -0.114835    -11.365797
  H       3.127312     -1.617602    -10.376668
  H       3.323709     -0.019101     -9.582861
  C       1.187481      0.802728      2.007480
  H       2.125130      0.850191      2.608560
  H       1.010532      1.831785      1.612089
  C       1.372930     -0.173766      0.816474
  H       0.406758     -0.265635      0.261651
  H       1.607356     -1.195018      1.204131
  C       2.483546      0.271154     -0.168666
  H       3.461254      0.328650      0.371601
  H       2.262540      1.312928     -0.505869
  C       2.624777     -0.660188     -1.400769
  H       2.804005     -1.704636     -1.046820
  H       1.652526     -0.691852     -1.947880
  C       3.763641     -0.274544     -2.385422
  H       4.749112     -0.386837     -1.870508
  H       3.767449     -1.003541     -3.231271
  C       3.686955      1.170989     -2.980751
  H       4.533224      1.303459     -3.692465
  H       3.864208      1.910268     -2.162278
  C       2.361666      1.501333     -3.650621
  H       1.505677      1.655889     -2.964278
  C       2.121740      1.615640     -4.981309
  H       1.091874      1.880664     -5.297862
  C       3.126753      1.470404     -6.112922
  H       2.665801      0.862677     -6.929095
  H       4.027270      0.903951     -5.781384
  C       3.570737      2.840138     -6.711735
  H       4.097800      3.427945     -5.920914
  H       2.661614      3.430696     -6.976555
  C       4.488314      2.693359     -7.955118
  H       5.332305      2.006576     -7.700878
  H       3.918311      2.185124     -8.772073
  C       5.071814      4.027995     -8.493902
  H       5.690866      4.510393     -7.696667
  H       5.779121      3.800857     -9.328820
  C       4.012807      5.043805     -8.998797
  H       3.344039      5.342696     -8.156252
  H       3.350914      4.543281     -9.749795
  C       4.630062      6.318848     -9.626943
  H       5.311003      6.805172     -8.884189
  H       5.281660      6.029651    -10.489228
  C       3.576660      7.351747    -10.104720
  H       2.891077      6.863228    -10.840516
  H       2.932417      7.644258     -9.239070
  C       4.201300      8.618849    -10.738772
  H       3.420741      9.343417    -11.066416
  H       4.868360      9.146331    -10.016515
  H       4.818859      8.361738    -11.631564
138
Coordinates from ORCA-job /wrk/rja7/qm_final_3_replicates/qm_final_1.1/qm/4/freq E -2722.585051161791
  N      -2.469192     -4.347992     13.557192
  C      -1.826705     -5.211529     12.396279
  H      -1.807057     -6.257374     12.772409
  H      -0.781221     -4.866111     12.272272
  C      -3.199920     -5.277320     14.512330
  H      -3.646783     -4.679013     15.333170
  H      -4.002015     -5.807912     13.958143
  H      -2.483899     -6.012484     14.934478
  C      -3.461754     -3.271407     13.075528
  H      -2.910406     -2.553610     12.432770
  H      -4.284782     -3.760824     12.520978
  H      -3.861525     -2.776074     13.986163
  C      -1.329648     -3.632087     14.293935
  H      -0.864762     -2.928163     13.567941
  H      -0.603672     -4.393654     14.647244
  H      -1.757872     -3.086418     15.161503
  C      -2.508680     -5.169665     11.003348
  H      -1.931775     -5.935304     10.416050
  H      -3.564958     -5.536695     11.065715
  P      -0.989962     -3.009473     10.366335
  O       0.118995     -4.045021     10.192663
  O      -1.078138     -2.049828     11.559601
  O      -2.516910     -3.904340     10.375279
  O      -1.280800     -2.118374      8.982108
  C      -1.198428     -2.797717      7.713332
  H      -2.097329     -3.448966      7.563132
  H      -0.292872     -3.451332      7.672262
  C      -1.110566     -1.747321      6.594065
  H      -0.278011     -1.041144      6.804115
  O      -2.378464     -0.999730      6.567653
  C      -2.328547      0.356242      6.346080
  O      -1.298047      1.002563      6.201199
  C      -3.740629      0.960301      6.250528
  H      -3.826560      1.727346      7.055750
  H      -4.508930      0.178971      6.441896
  C      -0.905175     -2.413049      5.209910
  H      -1.743812     -3.109791      4.985541
  H       0.058863     -2.969333      5.197262
  O      -0.932437     -1.417325      4.144989
  C       0.264418     -0.796431      3.815780
  O       1.354311     -1.172943      4.217724
  C       0.004576      0.431160      2.934892
  H      -0.931796      0.283642      2.351875
  H      -0.205234      1.259622      3.654771
  C      -3.956494      1.636467      4.862214
  H      -3.129242      2.366760      4.699013
  H      -4.901236      2.230563      4.888040
  C      -3.998988      0.620773      3.689111
  H      -4.926415      0.000572      3.767836
  H      -3.149697     -0.092675      3.787106
  C      -3.927351      1.275013      2.285797
  H      -3.006558      1.906763      2.226764
  H      -4.786078      1.977006      2.141058
  C      -3.900665      0.234104      1.136133
  H      -4.849853     -0.357896      1.149518
  H      -3.084918     -0.499788      1.340108
  C      -3.703473      0.857219     -0.269523
  H      -2.744618      1.430914     -0.290930
  H      -4.515524      1.602097     -0.456007
  C      -3.700312     -0.177548     -1.441713
  H      -3.679737      0.373304     -2.408763
  H      -4.674178     -0.729525     -1.421102
  C      -2.563883     -1.186756     -1.373791
  H      -2.595705     -1.877960     -0.508069
  C      -1.523037     -1.319002     -2.234995
  H      -0.784090     -2.119894     -2.023618
  C      -1.257198     -0.541281     -3.514216
  H      -0.193570     -0.201257     -3.517194
  H      -1.879295      0.381888     -3.564869
  C      -1.501053     -1.404172     -4.790982
  H      -2.591593     -1.634560     -4.870791
  H      -0.995711     -2.393735     -4.664373
  C      -0.999421     -0.746317     -6.101503
  H       0.100189     -0.577760     -6.017392
  H      -1.453714      0.270735     -6.211608
  C      -1.321178     -1.585010     -7.366688
  H      -2.429218     -1.709129     -7.439569
  H      -0.910281     -2.617872     -7.239138
  C      -0.792154     -0.988626     -8.700600
  H      -1.136064      0.071956     -8.795345
  H      -1.264633     -1.535105     -9.553126
  C       0.748383     -1.047382     -8.870969
  H       1.084475     -2.111272     -8.784544
  H       1.247766     -0.505698     -8.032083
  C       1.248456     -0.458976    -10.215432
  H       0.930381      0.610916    -10.288606
  H       0.737629     -0.983312    -11.060531
  C       2.783217     -0.556596    -10.397101
  H       3.111775     -0.114978    -11.366089
  H       3.127080     -1.617611    -10.376751
  H       3.323366     -0.018989     -9.583167
  C       1.187564      0.802905      2.007634
  H       2.125186      0.850386      2.608751
  H       1.010572      1.831964      1.612268
  C       1.373116     -0.173524      0.816592
  H       0.406980     -0.265436      0.261716
  H       1.607590     -1.194779      1.204212
  C       2.483746      0.271491     -0.168488
  H       3.461429      0.329049      0.371818
  H       2.262692      1.313255     -0.505694
  C       2.625086     -0.659830     -1.400592
  H       2.804416     -1.704258     -1.046639
  H       1.652837     -0.691594     -1.947704
  C       3.763917     -0.274085     -2.385235
  H       4.749386     -0.386234     -1.870283
  H       3.767850     -1.003124     -3.231047
  C       3.687080      1.171408     -2.980626
  H       4.533324      1.303934     -3.692357
  H       3.864254      1.910751     -2.162193
  C       2.361740      1.501602     -3.650473
  H       1.505753      1.656184     -2.964135
  C       2.121769      1.615746     -4.981166
  H       1.091882      1.880683     -5.297725
  C       3.126748      1.470434     -6.112795
  H       2.665762      0.862693     -6.928938
  H       4.027268      0.903986     -5.781258
  C       3.570744      2.840124     -6.711705
  H       4.097895      3.427955     -5.920962
  H       2.661630      3.430702     -6.976505
  C       4.488223      2.693241     -7.955152
  H       5.332212      2.006445     -7.700948
  H       3.918136      2.184992     -8.772041
  C       5.071712      4.027839     -8.494042
  H       5.690831      4.510259     -7.696873
  H       5.778954      3.800652     -9.329000
  C       4.012699      5.043666     -8.998885
  H       3.344029      5.342653     -8.156297
  H       3.350704      4.543132     -9.749786
  C       4.629971      6.318637     -9.627162
  H       5.311065      6.804921     -8.884523
  H       5.281420      6.029352    -10.489530
  C       3.576610      7.351629    -10.104828
  H       2.890850      6.863157    -10.840490
  H       2.932544      7.644268     -9.239089
  C       4.201310      8.618615    -10.739055
  H       3.420795      9.343283    -11.066582
  H       4.868583      9.146035    -10.016950
  H       4.818669      8.361371    -11.631946
