138
Coordinates from ORCA-job /wrk/rja7/qm_final_3_replicates/qm_final_1.1/qm/1/freq E -2722.586051885524
  N           1.99740004997848     -4.58952613037161      8.92786216032336
  C           2.74340279810244     -3.48511199986854      8.09533453422647
  H           3.47743492784848     -4.02813936388479      7.45797045047177
  H           3.25700414776154     -2.84218227223705      8.83827271145895
  C           0.92230767646389     -5.28011432517814      8.09409802211953
  H           1.38033947784998     -5.67778082340384      7.16488911928530
  H           0.49587339736339     -6.11132107104689      8.69339095780223
  H           0.14035019939460     -4.53356850801945      7.85656127976685
  C           1.33945419138097     -4.01051174165908     10.19988291450246
  H           2.06250753383690     -3.33662952066180     10.69825224671997
  H           0.44813114748152     -3.41638059819185      9.92571798884272
  H           1.06040370621649     -4.86852032433595     10.84793868476527
  C           3.04244514146307     -5.60920907400634      9.36086416104116
  H           3.81797986387434     -5.08775628063533      9.95802057636986
  H           3.50375509543656     -6.06837680319575      8.46250994009092
  H           2.55542195551187     -6.39197412087375      9.97868861957564
  C           1.82934872609189     -2.60102511679851      7.20911354912741
  H           2.49622548802738     -1.79156067387188      6.81635462582431
  H           1.46970862061060     -3.16250491730232      6.31456460588283
  P           0.91746668564789     -0.86355377760337      9.14145323940364
  O           2.35678039119135     -0.99578287048801      9.63870382637791
  O          -0.34162557239523     -1.01560110023387      9.98254614629626
  O           0.69089568473346     -2.10794571069527      7.89855155895432
  O           0.86679530815656      0.52668688867187      8.17361598056823
  C          -0.41434060103261      1.03368937860852      7.75939621438087
  H          -0.33854375774655      2.14818359062779      7.73250213949776
  H          -1.20868283862362      0.75034239350955      8.49159422215220
  C          -0.81276275714284      0.51468587781804      6.35617222418912
  H          -0.74627552192639     -0.59341674309984      6.32735865276372
  O           0.13152308070265      1.08028313186017      5.37268292143336
  C           0.87197093094220      0.23785423862765      4.58775657477053
  O           0.82234123069612     -0.98665730801010      4.61918813395810
  C           1.78890620064804      1.03406081533191      3.64264969252633
  H           2.83562713293540      0.88683626367515      4.00741288765547
  H           1.56504478925995      2.11873455856208      3.73030269494483
  C          -2.22175223440145      0.97495920281467      5.94946760519704
  H          -2.29052646366644      2.08568411946843      5.88643267918789
  H          -2.97307723918194      0.62914452275555      6.69899603051662
  O          -2.52157507201319      0.38452254881058      4.64554341254242
  C          -3.60782041686404      0.88318089922348      3.96338618708663
  O          -4.34432821952917      1.75823424076218      4.39600523611015
  C          -3.74449327797372      0.18006386898017      2.60236322990555
  H          -2.75923699964989      0.24680065587486      2.08758808631407
  H          -3.88793874324335     -0.91087503178139      2.79775571667563
  C           1.68530751866646      0.52996547394974      2.17564215769469
  H           0.66336988466040      0.75608264663146      1.78272485763658
  H           1.77282886792462     -0.58090894735554      2.18405188802860
  C           2.75175726091795      1.11798430030314      1.21315085431457
  H           2.65503162044317      0.59004694791697      0.23731785510493
  H           3.77256105418285      0.87334350524985      1.60221507101130
  C           2.64873926752215      2.64938969614659      0.98467431551734
  H           2.75798227647641      3.18209219445414      1.95919632485655
  H           1.62095266355642      2.89501475421635      0.61769998883725
  C           3.69481579528729      3.22986874037681     -0.00811239394822
  H           4.72540055324109      2.99154646285029      0.35667528705474
  H           3.62113763846265      4.34506491614847      0.01125138435536
  C           3.54071310252613      2.74658208951053     -1.47337386094801
  H           2.48792820625141      2.90411976934185     -1.80738785108128
  H           3.71426555886975      1.64738602968145     -1.54177753655136
  C           4.49632377290329      3.47800170600485     -2.46794243032750
  H           5.54737968650432      3.34870298594407     -2.10992097826692
  H           4.28739226692384      4.57247827687867     -2.42560040281150
  C           4.38643025822621      2.95464061454479     -3.89196220846295
  H           4.92580888381469      2.00523122522150     -4.09046947800017
  C           3.67496219815807      3.49350104890233     -4.91469469405440
  H           3.68905270398984      2.95333851047107     -5.88290247377817
  C           2.81982939956356      4.75128582718099     -4.86705194647586
  H           2.97403651515528      5.33955391165215     -5.80523859509641
  H           3.14326208453011      5.41150826695279     -4.03010374002502
  C           1.28920173516662      4.46972974294808     -4.70953076173213
  H           0.76476740870596      5.44369979951135     -4.54914559498362
  H           1.12620218262630      3.87582284497184     -3.77838194239875
  C           0.63601382630538      3.73860373299099     -5.90995276725096
  H           1.14966631746030      2.76248449978216     -6.08810255843944
  H           0.79834785591790      4.34074026429385     -6.83858825258416
  C          -0.88197088512713      3.48115846735588     -5.72051661595938
  H          -1.40027364024545      4.45025785310074     -5.51069519059255
  H          -1.02804146537491      2.85643612326827     -4.80745466783714
  C          -1.55071919529122      2.79655782234489     -6.94133282707939
  H          -1.06098921056592      1.80746282448893     -7.12184351068081
  H          -1.33995404392496      3.40591670605652     -7.85390519046817
  C          -3.08746993441250      2.59496108786937     -6.82113474575076
  H          -3.46786083681401      2.17117665612110     -7.78298702288510
  H          -3.58233399507442      3.59259884561270     -6.71230925569488
  C          -3.54121055114126      1.67662486958624     -5.65449280715699
  H          -3.24466085636606      2.13087822852852     -4.68039587339286
  H          -2.99377178493614      0.70448163142627     -5.71424459559735
  C          -5.06643718418820      1.41102335266285     -5.64215434418810
  H          -5.36273822060189      0.76642555624896     -4.78213800367799
  H          -5.39950643675590      0.90033093791493     -6.57661233696240
  H          -5.64397687389770      2.36230475224275     -5.56217772187986
  C          -4.90156530289034      0.73664174668182      1.73534215930094
  H          -4.77840339836768      1.83876800990179      1.61033688720626
  H          -5.84796249266850      0.61454959829671      2.31074865291156
  C          -5.04909957927124      0.06045925426700      0.33644215981177
  H          -6.12634702411688      0.08180201082194      0.04738153495334
  H          -4.78112795518815     -1.02272719761488      0.41178593875788
  C          -4.24436967002716      0.71922880893416     -0.82094441777328
  H          -4.58072982421468      1.78030335669194     -0.93210034832910
  H          -4.52370342867759      0.21461884800810     -1.77907113152488
  C          -2.70021017058903      0.69416008077291     -0.68149889970777
  H          -2.39017580637512      1.27053543194609      0.22290118127645
  H          -2.36286625369042     -0.35669737616297     -0.51147634812035
  C          -1.96948116485420      1.28796232825977     -1.91409395376686
  H          -2.19292480637932      0.66982801231744     -2.81598753326481
  H          -2.38794896259164      2.30275906094942     -2.12428867270263
  C          -0.42281756304755      1.42301069063608     -1.74504268141415
  H          -0.23133010547791      2.08264114853355     -0.86125778252090
  H          -0.01335914816469      1.96334580736040     -2.62580261511306
  C           0.30029743406168      0.10077022600481     -1.54283265976897
  H           0.03466829527166     -0.44777988136449     -0.61759053352354
  C           1.21905847980113     -0.46897402998925     -2.36353466744040
  H           1.63144808998574     -1.45543559184181     -2.06332644304659
  C           1.76092321016305      0.06947291601298     -3.67749974422172
  H           2.87592307485997      0.09644928704903     -3.61909167908783
  H           1.44484601461662      1.12221381170188     -3.84474666421383
  C           1.35775109253666     -0.79478348335495     -4.91238905847535
  H           1.72174363261526     -1.83933056265801     -4.75821381233894
  H           1.90360398437207     -0.41172800738841     -5.80968723929966
  C          -0.16548510558541     -0.79594463651291     -5.19800599690445
  H          -0.70737315366774     -1.22645253017046     -4.32361895364365
  H          -0.51618638436001      0.26055607986836     -5.27181220024805
  C          -0.57591749801107     -1.54064555966292     -6.50000914479672
  H          -1.68101402527321     -1.44058691888374     -6.63632793992244
  H          -0.11508441007137     -1.01826583126294     -7.37438564992194
  C          -0.19573994294094     -3.04755552306129     -6.56341158039385
  H           0.91425814442349     -3.15897031037279     -6.50762157975589
  H          -0.48277780424670     -3.44577521707947     -7.56738336430427
  C          -0.85324107731433     -3.92662741044143     -5.46851655950906
  H          -0.57155837143554     -3.54994318052802     -4.45505361506398
  H          -1.96566018274741     -3.82175806337883     -5.53049959169884
  C          -0.47292004902595     -5.42661685602279     -5.56723478425576
  H          -0.74863866371159     -5.81299151625195     -6.57964216386033
  H           0.63859497744586     -5.52708812175142     -5.49882951859040
  C          -1.14031495614482     -6.30265059454339     -4.47871107092250
  H          -0.85303170126002     -5.96565497367704     -3.45457378499861
  H          -2.25293212644546     -6.25065154949710     -4.54294363946419
  H          -0.84823743575979     -7.37386013257335     -4.57455773930567
