138
Coordinates from ORCA-job /wrk/rja7/qm_final_3_replicates/qm_final_1.1/qm/8/freq E -2722.314657361183
  N       1.376000     -2.658000      7.545000
  C       1.012000     -1.566000      6.519000
  H       1.611000     -1.812000      5.655000
  H       1.202000     -0.594000      6.951000
  C       0.625000     -2.372000      8.858000
  H       0.899000     -3.147000      9.559000
  H       0.882000     -1.433000      9.327000
  H      -0.404000     -2.212000      8.572000
  C       2.889000     -2.585000      7.747000
  H       3.356000     -3.430000      8.231000
  H       3.554000     -2.516000      6.899000
  H       3.084000     -1.659000      8.268000
  C       0.976000     -3.963000      7.019000
  H       1.002000     -4.721000      7.788000
  H       1.455000     -4.303000      6.113000
  H      -0.070000     -3.928000      6.749000
  C      -0.448000     -1.448000      6.019000
  H      -0.571000     -0.958000      5.030000
  H      -0.965000     -2.428000      5.936000
  P      -2.595000     -0.846000      7.314000
  O      -2.787000      0.010000      8.533000
  O      -3.062000     -2.281000      7.408000
  O      -1.083000     -0.754000      7.010000
  O      -3.158000     -0.062000      6.064000
  C      -4.343000     -0.529000      5.437000
  H      -4.857000      0.274000      4.867000
  H      -5.148000     -0.993000      6.047000
  C      -4.011000     -1.539000      4.324000
  H      -3.523000     -2.437000      4.760000
  O      -3.266000     -0.907000      3.241000
  C      -2.081000     -1.416000      2.892000
  O      -1.617000     -2.462000      3.300000
  C      -1.491000     -0.453000      1.821000
  H      -1.647000      0.626000      2.034000
  H      -2.057000     -0.704000      0.899000
  C      -5.242000     -2.171000      3.605000
  H      -5.809000     -1.278000      3.266000
  H      -5.986000     -2.647000      4.280000
  O      -4.859000     -2.914000      2.459000
  C      -5.932000     -3.233000      1.721000
  O      -7.059000     -3.133000      2.139000
  C      -5.429000     -3.948000      0.477000
  H      -4.977000     -4.922000      0.765000
  H      -6.301000     -4.222000     -0.154000
  C      -0.054000     -0.747000      1.590000
  H       0.314000     -1.783000      1.745000
  H       0.357000     -0.224000      2.480000
  C       0.526000     -0.008000      0.389000
  H       0.034000      0.978000      0.247000
  H       0.185000     -0.650000     -0.451000
  C       2.070000      0.204000      0.449000
  H       2.361000      0.705000      1.398000
  H       2.331000      0.820000     -0.438000
  C       2.946000     -1.046000      0.137000
  H       2.618000     -1.568000     -0.787000
  H       2.684000     -1.789000      0.920000
  C       4.468000     -0.908000      0.135000
  H       4.810000     -1.851000      0.613000
  H       4.681000     -0.041000      0.795000
  C       5.014000     -0.585000     -1.299000
  H       6.054000     -0.208000     -1.198000
  H       4.384000      0.195000     -1.778000
  C       5.046000     -1.817000     -2.144000
  H       5.753000     -2.558000     -1.741000
  C       4.371000     -2.132000     -3.290000
  H       4.586000     -3.151000     -3.642000
  C       3.342000     -1.368000     -4.029000
  H       2.586000     -0.862000     -3.391000
  H       2.721000     -1.974000     -4.722000
  C       4.078000     -0.249000     -4.802000
  H       4.369000      0.497000     -4.031000
  H       3.234000      0.105000     -5.432000
  C       5.275000     -0.696000     -5.708000
  H       4.966000     -1.635000     -6.215000
  H       6.179000     -1.170000     -5.269000
  C       5.685000      0.398000     -6.796000
  H       6.360000      1.139000     -6.317000
  H       4.786000      0.827000     -7.290000
  C       6.575000     -0.062000     -8.008000
  H       6.377000      0.688000     -8.803000
  H       6.279000     -1.080000     -8.340000
  C       8.084000     -0.144000     -7.775000
  H       8.420000      0.626000     -7.049000
  H       8.689000      0.133000     -8.665000
  C       8.407000     -1.585000     -7.406000
  H       8.418000     -2.263000     -8.286000
  H       7.673000     -1.951000     -6.657000
  C       9.790000     -1.678000     -6.761000
  H       9.815000     -1.076000     -5.828000
  H      10.503000     -1.282000     -7.515000
  H       9.940000     -2.679000     -6.302000
  C      -4.387000     -3.255000     -0.472000
  H      -4.256000     -3.875000     -1.384000
  H      -3.399000     -3.117000      0.016000
  C      -4.954000     -1.974000     -1.034000
  H      -5.201000     -1.208000     -0.268000
  H      -5.919000     -2.125000     -1.562000
  C      -4.015000     -1.331000     -2.014000
  H      -3.804000     -1.989000     -2.883000
  H      -3.040000     -1.307000     -1.483000
  C      -4.338000      0.079000     -2.379000
  H      -4.858000      0.586000     -1.538000
  H      -3.453000      0.720000     -2.579000
  C      -5.287000      0.160000     -3.654000
  H      -4.852000     -0.585000     -4.353000
  H      -6.268000     -0.270000     -3.357000
  C      -5.394000      1.625000     -4.110000
  H      -5.953000      1.752000     -5.062000
  H      -4.363000      2.030000     -4.194000
  C      -6.100000      2.373000     -2.990000
  H      -6.887000      1.796000     -2.481000
  C      -6.018000      3.686000     -2.650000
  H      -6.579000      4.093000     -1.796000
  C      -4.896000      4.591000     -3.151000
  H      -5.291000      5.576000     -3.481000
  H      -4.234000      4.103000     -3.898000
  C      -3.854000      4.731000     -2.021000
  H      -3.493000      3.840000     -1.464000
  H      -4.364000      5.366000     -1.266000
  C      -2.592000      5.443000     -2.566000
  H      -1.897000      4.702000     -3.015000
  H      -2.846000      6.181000     -3.357000
  C      -1.775000      6.182000     -1.497000
  H      -0.843000      6.607000     -1.926000
  H      -2.426000      6.965000     -1.053000
  C      -1.139000      5.218000     -0.439000
  H      -0.468000      4.510000     -0.969000
  H      -2.013000      4.671000     -0.026000
  C      -0.377000      6.049000      0.715000
  H       0.613000      6.329000      0.296000
  H      -0.954000      6.978000      0.910000
  C      -0.144000      5.304000      2.043000
  H       0.752000      5.756000      2.520000
  H      -1.094000      5.238000      2.615000
  C       0.287000      3.793000      1.859000
  H       1.382000      3.606000      1.848000
  H      -0.163000      3.154000      2.649000
  H      -0.079000      3.424000      0.877000
138
Coordinates from ORCA-job /wrk/rja7/qm_final_3_replicates/qm_final_1.1/qm/8/freq E -2722.389520966391
  N       1.401007     -2.695482      7.555095
  C       1.086005     -1.548416      6.562969
  H       1.712611     -1.759185      5.694443
  H       1.285248     -0.592868      7.050176
  C       0.615991     -2.461840      8.860519
  H       0.866577     -3.278561      9.538455
  H       0.885616     -1.532967      9.367784
  H      -0.421555     -2.300533      8.566669
  C       2.902114     -2.651731      7.806287
  H       3.327565     -3.542007      8.274286
  H       3.574361     -2.555484      6.949860
  H       3.103301     -1.750786      8.388358
  C       0.997645     -3.986578      6.961072
  H       1.000916     -4.783003      7.707222
  H       1.519566     -4.283251      6.050260
  H      -0.050309     -3.928402      6.658785
  C      -0.370289     -1.407180      6.060436
  H      -0.466747     -0.875850      5.087195
  H      -0.878634     -2.390301      5.925676
  P      -2.589896     -0.859353      7.376535
  O      -2.803468     -0.039565      8.625138
  O      -3.024212     -2.317525      7.396610
  O      -1.038137     -0.743148      7.082379
  O      -3.167884     -0.047756      6.111659
  C      -4.342736     -0.516285      5.461869
  H      -4.857342      0.308487      4.917161
  H      -5.141206     -0.990372      6.075765
  C      -4.016270     -1.516027      4.333044
  H      -3.521718     -2.418843      4.753546
  O      -3.264106     -0.865667      3.261194
  C      -2.070823     -1.373261      2.891417
  O      -1.604424     -2.434140      3.272955
  C      -1.459194     -0.401954      1.842658
  H      -1.611138      0.671402      2.083139
  H      -2.029054     -0.625407      0.912024
  C      -5.271511     -2.117721      3.627158
  H      -5.844876     -1.220710      3.294052
  H      -6.001707     -2.594427      4.317651
  O      -4.906479     -2.892421      2.480760
  C      -5.969702     -3.252304      1.710291
  O      -7.121565     -3.154557      2.083477
  C      -5.440376     -3.990436      0.485131
  H      -4.989603     -4.957694      0.804078
  H      -6.300743     -4.281082     -0.156680
  C      -0.000459     -0.699509      1.606366
  H       0.348846     -1.745197      1.738339
  H       0.430605     -0.198973      2.508909
  C       0.588895      0.040223      0.396951
  H       0.109190      1.035009      0.271080
  H       0.243284     -0.582017     -0.460627
  C       2.132407      0.232385      0.448096
  H       2.437500      0.720965      1.399663
  H       2.396622      0.862972     -0.431991
  C       2.978667     -1.040109      0.142763
  H       2.635519     -1.554080     -0.782849
  H       2.707026     -1.783110      0.928446
  C       4.514270     -0.910817      0.132876
  H       4.867287     -1.852874      0.605351
  H       4.744165     -0.043617      0.791241
  C       5.064260     -0.605840     -1.303017
  H       6.108889     -0.234109     -1.204697
  H       4.440423      0.178732     -1.784058
  C       5.087844     -1.849536     -2.147086
  H       5.788045     -2.603592     -1.746371
  C       4.408586     -2.154507     -3.288755
  H       4.604901     -3.177954     -3.650705
  C       3.384694     -1.357264     -4.026756
  H       2.644026     -0.846939     -3.370228
  H       2.751598     -1.961328     -4.712702
  C       4.105011     -0.229910     -4.830892
  H       4.423019      0.523837     -4.077703
  H       3.258599      0.140047     -5.452096
  C       5.267882     -0.692893     -5.759560
  H       4.933498     -1.632028     -6.261752
  H       6.172381     -1.167770     -5.318270
  C       5.674316      0.381277     -6.850873
  H       6.359658      1.121786     -6.382096
  H       4.771878      0.822518     -7.326956
  C       6.536595     -0.120284     -8.070073
  H       6.343694      0.618205     -8.879316
  H       6.208767     -1.135915     -8.384318
  C       8.057988     -0.228029     -7.842147
  H       8.406739      0.554205     -7.130828
  H       8.647872      0.026589     -8.752511
  C       8.412640     -1.662302     -7.429535
  H       8.408961     -2.360660     -8.295346
  H       7.693837     -2.017312     -6.658932
  C       9.820957     -1.734899     -6.807466
  H       9.865969     -1.109996     -5.886829
  H      10.527976     -1.354992     -7.575598
  H      10.001189     -2.735505     -6.354657
  C      -4.389788     -3.290579     -0.445931
  H      -4.231241     -3.926171     -1.345361
  H      -3.414558     -3.140025      0.065249
  C      -4.943360     -1.996215     -1.026464
  H      -5.206722     -1.234811     -0.257354
  H      -5.900866     -2.155891     -1.572422
  C      -3.976529     -1.334066     -1.996816
  H      -3.747051     -1.991175     -2.865443
  H      -3.005710     -1.301402     -1.450639
  C      -4.315585      0.084566     -2.386974
  H      -4.855032      0.591167     -1.555992
  H      -3.427963      0.730758     -2.574505
  C      -5.242648      0.159234     -3.678293
  H      -4.793733     -0.580116     -4.377455
  H      -6.229443     -0.273571     -3.398167
  C      -5.354168      1.621512     -4.156328
  H      -5.895384      1.727370     -5.123050
  H      -4.323581      2.031094     -4.235019
  C      -6.091236      2.402620     -3.074084
  H      -6.893596      1.838857     -2.565947
  C      -6.005536      3.722367     -2.768660
  H      -6.589907      4.148005     -1.935782
  C      -4.869924      4.617963     -3.259269
  H      -5.252494      5.596682     -3.621728
  H      -4.204425      4.110713     -3.991615
  C      -3.856517      4.796323     -2.096101
  H      -3.530885      3.902168     -1.522346
  H      -4.381942      5.448802     -1.360804
  C      -2.566839      5.500637     -2.595274
  H      -1.860280      4.749924     -3.016318
  H      -2.787255      6.235054     -3.401973
  C      -1.788142      6.236819     -1.486742
  H      -0.836980      6.658853     -1.882732
  H      -2.445709      7.029676     -1.067552
  C      -1.234184      5.263490     -0.387778
  H      -0.549807      4.539041     -0.877960
  H      -2.135414      4.728944     -0.011231
  C      -0.517725      6.072145      0.792937
  H       0.499505      6.333242      0.424327
  H      -1.084595      7.014830      0.955361
  C      -0.371590      5.327257      2.141676
  H       0.499233      5.772147      2.670198
  H      -1.351559      5.292853      2.664201
  C       0.042873      3.806389      1.996066
  H       1.136106      3.608735      2.050423
  H      -0.458853      3.183042      2.768255
  H      -0.276290      3.423049      1.003375
138
Coordinates from ORCA-job /wrk/rja7/qm_final_3_replicates/qm_final_1.1/qm/8/freq E -2722.443288421540
  N       1.383132     -2.773147      7.453676
  C       1.127683     -1.573476      6.494275
  H       1.746724     -1.780491      5.608863
  H       1.387139     -0.643729      7.019511
  C       0.614210     -2.550039      8.772222
  H       0.833386     -3.406564      9.423977
  H       0.944471     -1.640481      9.295132
  H      -0.433609     -2.361365      8.504958
  C       2.879871     -2.811927      7.703228
  H       3.238572     -3.752709      8.147436
  H       3.527030     -2.720772      6.816415
  H       3.138221     -1.944594      8.327076
  C       0.913303     -4.038881      6.821064
  H       0.891603     -4.859644      7.552124
  H       1.440525     -4.318746      5.898268
  H      -0.139125     -3.922644      6.523135
  C      -0.329842     -1.360424      6.031986
  H      -0.409026     -0.794971      5.074638
  H      -0.869064     -2.324917      5.871017
  P      -2.563166     -0.798463      7.402687
  O      -2.765869      0.003086      8.671492
  O      -2.989157     -2.269329      7.360213
  O      -0.970284     -0.694776      7.093300
  O      -3.147511      0.040349      6.115471
  C      -4.318106     -0.428694      5.459622
  H      -4.832597      0.410828      4.932295
  H      -5.107147     -0.902852      6.088702
  C      -3.991129     -1.432754      4.331935
  H      -3.485048     -2.329890      4.752083
  O      -3.232504     -0.774838      3.266265
  C      -2.025858     -1.274241      2.892660
  O      -1.547073     -2.334299      3.272609
  C      -1.404613     -0.309842      1.847955
  H      -1.568038      0.760641      2.093569
  H      -1.972216     -0.531835      0.912941
  C      -5.259531     -2.021617      3.643655
  H      -5.845832     -1.133550      3.297975
  H      -5.974965     -2.497106      4.352249
  O      -4.899679     -2.838420      2.516096
  C      -5.957574     -3.245155      1.739643
  O      -7.121303     -3.141087      2.088425
  C      -5.422039     -4.020580      0.537087
  H      -4.969409     -4.976535      0.891051
  H      -6.281080     -4.333281     -0.097363
  C       0.075808     -0.594233      1.614173
  H       0.418555     -1.642568      1.744028
  H       0.520923     -0.092706      2.514739
  C       0.660347      0.127654      0.381548
  H       0.178199      1.121761      0.253206
  H       0.319201     -0.495374     -0.480374
  C       2.201075      0.322450      0.417200
  H       2.514975      0.822462      1.360727
  H       2.458531      0.953676     -0.467379
  C       3.034952     -0.965430      0.147028
  H       2.684822     -1.495795     -0.768588
  H       2.766372     -1.694353      0.950639
  C       4.579621     -0.820923      0.125954
  H       4.960519     -1.745531      0.612248
  H       4.812621      0.063321      0.763171
  C       5.130963     -0.558935     -1.316849
  H       6.173767     -0.174582     -1.228174
  H       4.503125      0.209240     -1.819603
  C       5.166303     -1.831778     -2.130581
  H       5.868694     -2.579725     -1.714828
  C       4.488509     -2.159910     -3.262541
  H       4.677921     -3.190726     -3.615570
  C       3.463043     -1.356579     -4.014696
  H       2.732871     -0.838833     -3.349461
  H       2.826718     -1.979271     -4.682351
  C       4.154728     -0.233466     -4.867957
  H       4.490653      0.546167     -4.148586
  H       3.304659      0.132389     -5.488839
  C       5.290919     -0.722010     -5.805086
  H       4.941574     -1.672871     -6.283272
  H       6.196645     -1.178373     -5.343527
  C       5.692649      0.310828     -6.920767
  H       6.378109      1.067571     -6.475608
  H       4.786521      0.747910     -7.394229
  C       6.537758     -0.254487     -8.126188
  H       6.351768      0.448468     -8.969196
  H       6.187386     -1.276207     -8.399268
  C       8.066396     -0.371123     -7.890655
  H       8.419031      0.440663     -7.211524
  H       8.644311     -0.159703     -8.822118
  C       8.452783     -1.781137     -7.399552
  H       8.441921     -2.520130     -8.232553
  H       7.745156     -2.107734     -6.604721
  C       9.878802     -1.809604     -6.792490
  H       9.934275     -1.139192     -5.902590
  H      10.585084     -1.462477     -7.577170
  H      10.092912     -2.798155     -6.326311
  C      -4.376036     -3.322136     -0.394428
  H      -4.200063     -3.978875     -1.277305
  H      -3.407814     -3.154100      0.126243
  C      -4.925080     -2.020905     -0.991011
  H      -5.195415     -1.262773     -0.218321
  H      -5.880578     -2.193315     -1.541621
  C      -3.943100     -1.344823     -1.959802
  H      -3.703337     -2.001687     -2.828724
  H      -2.972486     -1.300306     -1.408867
  C      -4.306715      0.077199     -2.371849
  H      -4.858086      0.580727     -1.544801
  H      -3.420103      0.729226     -2.555271
  C      -5.221867      0.142280     -3.668108
  H      -4.764738     -0.586736     -4.375303
  H      -6.210986     -0.295600     -3.398073
  C      -5.345022      1.601258     -4.161324
  H      -5.876260      1.687811     -5.137127
  H      -4.317050      2.019077     -4.242987
  C      -6.107454      2.403918     -3.108395
  H      -6.917986      1.845974     -2.600504
  C      -6.020765      3.727785     -2.827509
  H      -6.625905      4.159598     -2.009397
  C      -4.882328      4.626794     -3.305395
  H      -5.260433      5.599920     -3.688355
  H      -4.215169      4.113377     -4.032912
  C      -3.896903      4.839533     -2.115389
  H      -3.600700      3.936226     -1.539959
  H      -4.437816      5.496438     -1.390954
  C      -2.590265      5.551154     -2.565623
  H      -1.870174      4.801662     -2.971550
  H      -2.787662      6.289128     -3.376930
  C      -1.851618      6.276401     -1.414511
  H      -0.889619      6.707631     -1.778462
  H      -2.517579      7.069421     -1.006078
  C      -1.369716      5.287567     -0.293752
  H      -0.672212      4.556092     -0.755968
  H      -2.289617      4.755721      0.044285
  C      -0.698294      6.063416      0.916430
  H       0.339721      6.316718      0.598451
  H      -1.257303      7.014487      1.064155
  C      -0.628656      5.301992      2.269212
  H       0.212740      5.738695      2.850216
  H      -1.632158      5.287962      2.746567
  C      -0.225166      3.777516      2.134903
  H       0.864301      3.576652      2.245383
  H      -0.768696      3.155719      2.880451
  H      -0.501783      3.391303      1.130191
138
Coordinates from ORCA-job /wrk/rja7/qm_final_3_replicates/qm_final_1.1/qm/8/freq E -2722.495357348780
  N       1.393109     -2.725958      7.326650
  C       1.168874     -1.439292      6.458461
  H       1.815445     -1.566532      5.567975
  H       1.441821     -0.564265      7.078406
  C       0.596963     -2.626071      8.645035
  H       0.814007     -3.542796      9.224555
  H       0.928976     -1.749579      9.233059
  H      -0.466995     -2.471559      8.392884
  C       2.878451     -2.796858      7.612642
  H       3.183914     -3.792026      7.991783
  H       3.503377     -2.633287      6.711588
  H       3.140749     -1.994936      8.328041
  C       0.937497     -3.952758      6.579752
  H       0.925115     -4.830123      7.253945
  H       1.519550     -4.133332      5.656370
  H      -0.116473     -3.818101      6.269264
  C      -0.284648     -1.194590      6.018044
  H      -0.337224     -0.550826      5.108079
  H      -0.802467     -2.149542      5.762739
  P      -2.591605     -0.818734      7.402069
  O      -2.868989     -0.083457      8.699697
  O      -2.896147     -2.321185      7.231122
  O      -0.950092     -0.607576      7.128866
  O      -3.199691      0.043677      6.089061
  C      -4.329002     -0.472725      5.392285
  H      -4.869730      0.375048      4.900641
  H      -5.090973     -0.987090      6.026742
  C      -3.964541     -1.452556      4.249282
  H      -3.416204     -2.332058      4.652354
  O      -3.213667     -0.746801      3.207685
  C      -1.988168     -1.214159      2.828179
  O      -1.490533     -2.275725      3.186857
  C      -1.355497     -0.232186      1.818465
  H      -1.544926      0.826240      2.094332
  H      -1.907174     -0.429887      0.866908
  C      -5.229590     -2.035904      3.563709
  H      -5.851911     -1.171394      3.213670
  H      -5.911835     -2.546300      4.282899
  O      -4.850406     -2.871659      2.447231
  C      -5.890624     -3.340518      1.664681
  O      -7.065817     -3.249902      1.985786
  C      -5.339356     -4.117926      0.467037
  H      -4.867363     -5.060603      0.835739
  H      -6.197521     -4.450868     -0.158968
  C       0.151054     -0.485767      1.605281
  H       0.477084     -1.542691      1.711133
  H       0.608173     -0.002280      2.513721
  C       0.734848      0.224857      0.356528
  H       0.252026      1.220997      0.235629
  H       0.406117     -0.384325     -0.522369
  C       2.273292      0.418812      0.380394
  H       2.593263      0.923796      1.320477
  H       2.530125      1.062177     -0.497894
  C       3.088454     -0.888246      0.158317
  H       2.734310     -1.430212     -0.750688
  H       2.819686     -1.601044      0.978815
  C       4.641328     -0.725996      0.125545
  H       5.062245     -1.628379      0.622720
  H       4.883174      0.174238      0.738995
  C       5.198431     -0.518505     -1.321841
  H       6.239092     -0.121268     -1.244692
  H       4.571655      0.231668     -1.852931
  C       5.243495     -1.825618     -2.094464
  H       5.941914     -2.569513     -1.658512
  C       4.564999     -2.178417     -3.215235
  H       4.736501     -3.217338     -3.560729
  C       3.550678     -1.357679     -3.987079
  H       2.840884     -0.822881     -3.311232
  H       2.905377     -1.999731     -4.628822
  C       4.219806     -0.260150     -4.903565
  H       4.590917      0.550415     -4.235844
  H       3.374857      0.115744     -5.527321
  C       5.318791     -0.803485     -5.844082
  H       4.938832     -1.760400     -6.294211
  H       6.214371     -1.238679     -5.340416
  C       5.743724      0.170219     -6.984780
  H       6.429334      0.941852     -6.562652
  H       4.843721      0.618417     -7.461501
  C       6.568629     -0.486890     -8.157717
  H       6.412279      0.167156     -9.045722
  H       6.172333     -1.505441     -8.381490
  C       8.098526     -0.639732     -7.898039
  H       8.465785      0.200997     -7.259549
  H       8.670055     -0.497964     -8.848594
  C       8.491599     -2.016154     -7.303456
  H       8.456690     -2.805688     -8.090062
  H       7.786176     -2.289860     -6.485319
  C       9.932716     -2.016769     -6.713799
  H      10.012356     -1.290641     -5.869020
  H      10.651561     -1.728435     -7.512001
  H      10.171477     -2.995748     -6.238495
  C      -4.317227     -3.375166     -0.449135
  H      -4.111821     -4.026772     -1.331372
  H      -3.357937     -3.188814      0.083795
  C      -4.882904     -2.053651     -1.011957
  H      -5.163117     -1.337037     -0.201937
  H      -5.837830     -2.236353     -1.564478
  C      -3.903253     -1.315656     -1.960321
  H      -3.657287     -1.938139     -2.855196
  H      -2.927205     -1.260424     -1.417234
  C      -4.326406      0.113872     -2.346542
  H      -4.884190      0.576552     -1.498104
  H      -3.452298      0.789413     -2.515391
  C      -5.250465      0.192416     -3.625914
  H      -4.790380     -0.486862     -4.381752
  H      -6.230658     -0.274582     -3.365651
  C      -5.426129      1.657857     -4.090758
  H      -5.965944      1.735529     -5.064485
  H      -4.412371      2.107569     -4.192673
  C      -6.207205      2.444756     -3.035513
  H      -7.005890      1.868429     -2.523970
  C      -6.124249      3.765846     -2.745757
  H      -6.740900      4.171786     -1.919302
  C      -5.009890      4.698174     -3.212822
  H      -5.409789      5.669598     -3.580214
  H      -4.365115      4.211262     -3.978757
  C      -4.022909      4.936512     -2.021697
  H      -3.732680      4.005219     -1.489423
  H      -4.562177      5.566027     -1.268659
  C      -2.725984      5.685739     -2.445464
  H      -2.001474      4.960376     -2.891326
  H      -2.945533      6.447814     -3.230127
  C      -1.990115      6.373528     -1.260719
  H      -1.045150      6.843656     -1.625638
  H      -2.655578      7.146843     -0.811768
  C      -1.521889      5.351688     -0.164424
  H      -0.822837      4.631795     -0.645467
  H      -2.431264      4.796672      0.168714
  C      -0.847054      6.072634      1.055421
  H       0.191390      6.343727      0.747176
  H      -1.402256      7.021214      1.240280
  C      -0.779107      5.266794      2.390483
  H       0.041197      5.706058      2.999492
  H      -1.781036      5.255863      2.871927
  C      -0.364364      3.751606      2.221809
  H       0.729226      3.571490      2.336199
  H      -0.899080      3.109719      2.957429
  H      -0.640282      3.368681      1.215188
138
Coordinates from ORCA-job /wrk/rja7/qm_final_3_replicates/qm_final_1.1/qm/8/freq E -2722.533293552096
  N       1.169338     -2.789604      6.889648
  C       1.093610     -1.387564      6.173397
  H       1.702647     -1.482387      5.246413
  H       1.527625     -0.650355      6.883441
  C       0.416237     -2.764714      8.237019
  H       0.557934     -3.763112      8.704550
  H       0.858969     -1.981588      8.886439
  H      -0.655306     -2.546401      8.050998
  C       2.637447     -3.084407      7.129018
  H       2.771276     -4.152776      7.406889
  H       3.217727     -2.896691      6.198923
  H       3.022473     -2.414679      7.926084
  C       0.555615     -3.880560      6.024109
  H       0.501235     -4.822484      6.610396
  H       1.131404     -3.999684      5.081702
  H      -0.491231     -3.605699      5.774053
  C      -0.335645     -0.928439      5.868744
  H      -0.333623     -0.178342      5.039209
  H      -0.955638     -1.786859      5.519136
  P      -2.559061     -0.661459      7.393733
  O      -2.834221      0.046223      8.705091
  O      -2.776272     -2.173854      7.136633
  O      -0.886150     -0.396908      7.074859
  O      -3.196689      0.209975      6.055213
  C      -4.290690     -0.359023      5.342070
  H      -4.860845      0.480978      4.868106
  H      -5.014343     -0.904912      5.998114
  C      -3.863363     -1.336376      4.217436
  H      -3.255213     -2.165341      4.637376
  O      -3.109487     -0.587535      3.203062
  C      -1.837745     -0.975715      2.872520
  O      -1.269173     -1.980769      3.290024
  C      -1.241038      0.000979      1.841527
  H      -1.525567      1.046866      2.083719
  H      -1.757813     -0.253342      0.884281
  C      -5.101054     -1.953843      3.526820
  H      -5.765833     -1.143411      3.130218
  H      -5.740110     -2.498406      4.261988
  O      -4.664009     -2.834486      2.457257
  C      -5.659245     -3.413067      1.681065
  O      -6.850685     -3.331674      1.942590
  C      -5.057629     -4.216260      0.520463
  H      -4.555026     -5.120921      0.942410
  H      -5.902154     -4.599460     -0.095222
  C       0.296836     -0.133928      1.659646
  H       0.651049     -1.179544      1.792317
  H       0.758624      0.414150      2.526325
  C       0.816060      0.497390      0.337467
  H       0.283647      1.462090      0.164561
  H       0.513012     -0.171704     -0.507212
  C       2.343934      0.757084      0.293785
  H       2.661376      1.354166      1.181190
  H       2.555754      1.359374     -0.624963
  C       3.198891     -0.538263      0.212063
  H       2.849615     -1.172321     -0.638511
  H       2.986978     -1.173882      1.108619
  C       4.742145     -0.290234      0.101135
  H       5.268463     -1.104050      0.651345
  H       4.974145      0.673869      0.614372
  C       5.253610     -0.216251     -1.374372
  H       6.273998      0.239748     -1.374037
  H       4.584827      0.452263     -1.961297
  C       5.337004     -1.596521     -2.014851
  H       6.068323     -2.279595     -1.532309
  C       4.634985     -2.070032     -3.073438
  H       4.815500     -3.128076     -3.352960
  C       3.591917     -1.315771     -3.891353
  H       2.912858     -0.730726     -3.225237
  H       2.936165     -2.036730     -4.432507
  C       4.189706     -0.319776     -4.961836
  H       4.605657      0.567361     -4.429515
  H       3.330143      0.018937     -5.588827
  C       5.236767     -0.968616     -5.891053
  H       4.831431     -1.953020     -6.253240
  H       6.138367     -1.314617     -5.330092
  C       5.656678     -0.106239     -7.108285
  H       6.318015      0.722006     -6.757536
  H       4.747833      0.316864     -7.594662
  C       6.461148     -0.884738     -8.215207
  H       6.318265     -0.332454     -9.172459
  H       6.027046     -1.905501     -8.344678
  C       7.992451     -1.043292     -7.937396
  H       8.372728     -0.146381     -7.386659
  H       8.545914     -1.018684     -8.909298
  C       8.399581     -2.338846     -7.179247
  H       8.319173     -3.212924     -7.869057
  H       7.707062     -2.514595     -6.322963
  C       9.860407     -2.289874     -6.638072
  H       9.982461     -1.472330     -5.887240
  H      10.580487     -2.106421     -7.467878
  H      10.131271     -3.236780     -6.116731
  C      -4.057441     -3.441709     -0.387604
  H      -3.787463     -4.110876     -1.239976
  H      -3.123247     -3.207124      0.172560
  C      -4.647954     -2.130984     -0.970062
  H      -4.963669     -1.442618     -0.148000
  H      -5.585116     -2.354202     -1.539695
  C      -3.658774     -1.351498     -1.888442
  H      -3.385480     -1.962878     -2.784786
  H      -2.693500     -1.256683     -1.333509
  C      -4.145842      0.063211     -2.301144
  H      -4.732607      0.503608     -1.459058
  H      -3.282846      0.758862     -2.448046
  C      -5.032861      0.111479     -3.592513
  H      -4.537586     -0.515953     -4.372343
  H      -6.007421     -0.391152     -3.376113
  C      -5.269167      1.568072     -4.065471
  H      -5.765888      1.600428     -5.066072
  H      -4.277401      2.068392     -4.159276
  C      -6.141152      2.340661     -3.070517
  H      -6.951578      1.743073     -2.601175
  C      -6.082533      3.659268     -2.764163
  H      -6.776241      4.039709     -1.985230
  C      -4.970267      4.629304     -3.143080
  H      -5.378949      5.593199     -3.525282
  H      -4.301072      4.181391     -3.912324
  C      -4.073256      4.906437     -1.887720
  H      -3.812767      3.947144     -1.388984
  H      -4.671268      5.491524     -1.142495
  C      -2.773838      5.706056     -2.196753
  H      -2.012722      5.020156     -2.647306
  H      -2.980851      6.494169     -2.960018
  C      -2.123573      6.356040     -0.937330
  H      -1.190929      6.888559     -1.245505
  H      -2.827118      7.098095     -0.490009
  C      -1.714213      5.312464      0.156360
  H      -0.977443      4.611423     -0.300409
  H      -2.615961      4.716552      0.436514
  C      -1.108163      5.988264      1.420126
  H      -0.061948      6.301274      1.180816
  H      -1.684179      6.923118      1.620117
  C      -1.095689      5.135924      2.733381
  H      -0.363888      5.609398      3.425173
  H      -2.120647      5.110985      3.165397
  C      -0.614242      3.646794      2.563702
  H       0.479666      3.525049      2.739281
  H      -1.150401      2.975613      3.272642
  H      -0.829491      3.247480      1.547976
138
Coordinates from ORCA-job /wrk/rja7/qm_final_3_replicates/qm_final_1.1/qm/8/freq E -2722.548258374876
  N       1.298373     -2.530230      6.697277
  C       1.150810     -1.017554      6.262403
  H       1.802401     -0.900386      5.365904
  H       1.547734     -0.422931      7.116865
  C       0.503669     -2.854297      7.980175
  H       0.745835     -3.908618      8.245180
  H       0.838220     -2.165302      8.782801
  H      -0.586978     -2.773887      7.778314
  C       2.776400     -2.779263      6.953383
  H       2.943741     -3.875472      7.040282
  H       3.347371     -2.372716      6.089731
  H       3.084993     -2.261952      7.886611
  C       0.809599     -3.473327      5.593459
  H       0.857875     -4.512872      5.983762
  H       1.449836     -3.336342      4.695307
  H      -0.250420     -3.245907      5.357799
  C      -0.294176     -0.591178      6.000665
  H      -0.285957      0.290610      5.301645
  H      -0.828799     -1.406084      5.472712
  P      -2.561912     -0.880977      7.464115
  O      -3.024011     -0.302824      8.781358
  O      -2.470657     -2.385994      7.092738
  O      -0.922265     -0.285150      7.249165
  O      -3.275143     -0.059011      6.106689
  C      -4.344293     -0.679298      5.381514
  H      -4.948414      0.164588      4.960660
  H      -5.029908     -1.256304      6.053191
  C      -3.925705     -1.624968      4.221311
  H      -3.279355     -2.446576      4.589633
  O      -3.204772     -0.819564      3.227565
  C      -1.997207     -1.277204      2.781336
  O      -1.533573     -2.391764      3.011029
  C      -1.295077     -0.220206      1.927858
  H      -1.478914      0.784774      2.360183
  H      -1.813576     -0.222775      0.938655
  C      -5.176462     -2.203401      3.539816
  H      -5.860420     -1.401454      3.165979
  H      -5.770035     -2.797593      4.275360
  O      -4.737464     -3.055621      2.442994
  C      -5.722431     -3.641337      1.663991
  O      -6.916487     -3.559930      1.909223
  C      -5.109936     -4.397490      0.475468
  H      -4.594084     -5.306361      0.871995
  H      -5.957754     -4.762780     -0.145705
  C       0.225466     -0.491582      1.758806
  H       0.409427     -1.586575      1.680392
  H       0.738072     -0.179485      2.709131
  C       0.852618      0.270289      0.557477
  H       0.466135      1.318676      0.559638
  H       0.494187     -0.180362     -0.402207
  C       2.403657      0.306742      0.552684
  H       2.774914      0.699981      1.530409
  H       2.733110      1.031136     -0.232392
  C       3.059803     -1.075832      0.293161
  H       2.657146     -1.498961     -0.659515
  H       2.737975     -1.805967      1.075558
  C       4.624153     -1.020544      0.231365
  H       5.053734     -1.973175      0.622732
  H       4.986431     -0.208053      0.906275
  C       5.192711     -0.767315     -1.202137
  H       6.265476     -0.466454     -1.109576
  H       4.655812      0.092053     -1.663711
  C       5.098179     -2.003099     -2.090441
  H       5.690938     -2.876442     -1.742896
  C       4.375422     -2.141519     -3.228740
  H       4.397560     -3.128595     -3.733676
  C       3.522852     -1.058652     -3.892374
  H       2.930665     -0.513056     -3.119516
  H       2.780773     -1.545292     -4.568577
  C       4.322728     -0.004359     -4.745456
  H       4.879739      0.677732     -4.059538
  H       3.588199      0.626897     -5.302698
  C       5.285370     -0.648615     -5.766559
  H       4.734577     -1.427752     -6.357884
  H       6.061109     -1.233570     -5.215902
  C       5.969900      0.348529     -6.730213
  H       6.699594      0.969406     -6.155105
  H       5.198324      1.040210     -7.144781
  C       6.733349     -0.324567     -7.923559
  H       6.805011      0.418639     -8.751022
  H       6.123510     -1.175598     -8.315501
  C       8.167079     -0.850765     -7.580545
  H       8.640379     -0.179500     -6.819919
  H       8.808946     -0.752693     -8.490746
  C       8.253086     -2.321110     -7.074535
  H       8.053582     -3.006623     -7.934238
  H       7.457882     -2.514733     -6.317559
  C       9.640377     -2.679725     -6.469558
  H       9.859059     -2.067528     -5.562472
  H      10.467232     -2.499244     -7.196382
  H       9.695771     -3.756167     -6.186405
  C      -4.122341     -3.555468     -0.382862
  H      -3.821281     -4.181672     -1.257647
  H      -3.197477     -3.342034      0.202387
  C      -4.719019     -2.211716     -0.887637
  H      -5.032877     -1.589837     -0.014030
  H      -5.655671     -2.418916     -1.463731
  C      -3.734686     -1.373417     -1.760701
  H      -3.477399     -1.941544     -2.690192
  H      -2.762850     -1.282618     -1.218548
  C      -4.269205      0.042768     -2.133916
  H      -4.837352      0.451668     -1.263007
  H      -3.417033      0.752808     -2.283902
  C      -5.192122      0.080450     -3.386677
  H      -4.721061     -0.505514     -4.213123
  H      -6.150248     -0.446048     -3.151443
  C      -5.506308      1.522429     -3.865591
  H      -6.043839      1.500129     -4.846542
  H      -4.541842      2.053170     -4.044084
  C      -6.353737      2.307170     -2.862055
  H      -7.124754      1.708709     -2.331431
  C      -6.284941      3.633123     -2.591417
  H      -6.952534      4.021856     -1.792540
  C      -5.242171      4.623604     -3.087792
  H      -5.725060      5.558944     -3.459765
  H      -4.670713      4.182774     -3.936046
  C      -4.235971      4.993685     -1.946164
  H      -3.894406      4.042825     -1.478142
  H      -4.768810      5.563456     -1.143153
  C      -3.023554      5.843339     -2.422954
  H      -2.304904      5.187591     -2.977233
  H      -3.377898      6.604308     -3.159690
  C      -2.248089      6.554417     -1.272618
  H      -1.424161      7.155510     -1.728866
  H      -2.924625      7.269515     -0.743944
  C      -1.625814      5.587987     -0.217913
  H      -0.913207      4.911598     -0.749082
  H      -2.417377      4.931371      0.218858
  C      -0.886603      6.358245      0.907477
  H       0.079984      6.751131      0.504150
  H      -1.494778      7.258402      1.168714
  C      -0.606022      5.579654      2.237011
  H       0.125340      6.184181      2.820277
  H      -1.550776      5.505929      2.822271
  C       0.013270      4.151875      2.075272
  H       1.127539      4.175187      2.088945
  H      -0.318893      3.485165      2.903749
  H      -0.304404      3.645956      1.136636
138
Coordinates from ORCA-job /wrk/rja7/qm_final_3_replicates/qm_final_1.1/qm/8/freq E -2722.523132039937
  N       1.175172     -2.260797      5.691472
  C       1.067590     -0.687034      5.691698
  H       1.595969     -0.365234      4.766509
  H       1.636087     -0.355209      6.588858
  C       0.537365     -2.898366      6.942745
  H       0.784383     -3.982949      6.906292
  H       0.982381     -2.428112      7.842115
  H      -0.571506     -2.780160      6.902450
  C       2.659445     -2.608640      5.663410
  H       2.770382     -3.697837      5.478943
  H       3.140640     -2.029246      4.847016
  H       3.116105     -2.334837      6.636691
  C       0.496066     -2.856335      4.452115
  H       0.566918     -3.961343      4.526900
  H       1.015507     -2.481136      3.545753
  H      -0.573706     -2.572279      4.442310
  C      -0.365105     -0.143666      5.768379
  H      -0.366236      0.891957      5.324533
  H      -1.019982     -0.758992      5.116668
  P      -2.388569     -0.903907      7.393528
  O      -2.797608     -0.542569      8.799282
  O      -2.239237     -2.333830      6.811149
  O      -0.815844     -0.158492      7.126582
  O      -3.232665      0.033897      6.205917
  C      -4.371831     -0.515459      5.537139
  H      -4.965527      0.348539      5.146240
  H      -5.049025     -1.089163      6.220174
  C      -3.960408     -1.458225      4.380622
  H      -3.315419     -2.272626      4.767315
  O      -3.202251     -0.635508      3.425727
  C      -1.984585     -1.090340      3.021440
  O      -1.514653     -2.193904      3.290555
  C      -1.287509     -0.051067      2.136417
  H      -1.472969      0.965796      2.548016
  H      -1.808145     -0.064439      1.147620
  C      -5.185277     -2.053051      3.664758
  H      -5.852246     -1.263796      3.242074
  H      -5.797686     -2.642536      4.388355
  O      -4.695202     -2.927882      2.606646
  C      -5.635490     -3.537639      1.799371
  O      -6.841360     -3.424355      1.957160
  C      -4.947578     -4.361968      0.698808
  H      -4.472133     -5.249562      1.182866
  H      -5.753389     -4.749458      0.036690
  C       0.228029     -0.328871      1.976169
  H       0.387005     -1.427856      1.903393
  H       0.749754     -0.006554      2.918412
  C       0.856720      0.396341      0.755649
  H       0.496937      1.453085      0.738259
  H       0.478573     -0.066578     -0.189952
  C       2.409841      0.389889      0.731428
  H       2.796436      0.816749      1.690296
  H       2.755145      1.079505     -0.076439
  C       3.034531     -1.015734      0.524051
  H       2.613789     -1.465206     -0.408713
  H       2.712812     -1.703089      1.342373
  C       4.593797     -0.995894      0.432115
  H       5.014626     -1.955609      0.817112
  H       4.994086     -0.194593      1.099356
  C       5.139436     -0.750782     -1.012907
  H       6.227369     -0.503586     -0.943101
  H       4.641924      0.145432     -1.447779
  C       4.955411     -1.959063     -1.921172
  H       5.494653     -2.874885     -1.598376
  C       4.201716     -2.031457     -3.046674
  H       4.163149     -3.003499     -3.577705
  C       3.418370     -0.883483     -3.684594
  H       2.892180     -0.295076     -2.896050
  H       2.621767     -1.310327     -4.338924
  C       4.280297      0.095802     -4.556611
  H       4.934430      0.708018     -3.890149
  H       3.594313      0.814906     -5.067979
  C       5.135542     -0.620097     -5.630273
  H       4.485550     -1.306055     -6.231591
  H       5.862498     -1.289840     -5.112342
  C       5.900206      0.338143     -6.579217
  H       6.683468      0.881172     -5.995259
  H       5.192245      1.117648     -6.952046
  C       6.581800     -0.354540     -7.805441
  H       6.740757      0.413148     -8.597893
  H       5.872876     -1.101156     -8.241098
  C       7.940548     -1.065703     -7.502606
  H       8.495575     -0.490118     -6.719633
  H       8.583659     -1.015538     -8.414818
  C       7.838315     -2.553291     -7.056298
  H       7.507952     -3.165190     -7.931459
  H       7.047375     -2.669826     -6.280251
  C       9.178842     -3.126331     -6.526759
  H       9.517394     -2.590467     -5.608719
  H       9.995383     -3.031460     -7.281916
  H       9.092968     -4.211322     -6.286081
  C      -3.877173     -3.576385     -0.113783
  H      -3.491022     -4.257244     -0.910800
  H      -3.011800     -3.333568      0.546283
  C      -4.407444     -2.268541     -0.760769
  H      -4.798762     -1.592716      0.037569
  H      -5.282389     -2.508504     -1.414355
  C      -3.328551     -1.496362     -1.572276
  H      -2.983849     -2.128661     -2.428610
  H      -2.420836     -1.365761     -0.934971
  C      -3.809481     -0.112850     -2.102312
  H      -4.459243      0.362034     -1.327502
  H      -2.937095      0.577633     -2.213944
  C      -4.587102     -0.168586     -3.445939
  H      -4.008434     -0.767198     -4.190582
  H      -5.550125     -0.717541     -3.299123
  C      -4.896786      1.237952     -4.027439
  H      -5.289854      1.137882     -5.070630
  H      -3.942568      1.808727     -4.113481
  C      -5.915126      2.015940     -3.194632
  H      -6.752322      1.406260     -2.794462
  C      -5.914086      3.342987     -2.917755
  H      -6.736530      3.727928     -2.277860
  C      -4.826011      4.356243     -3.236409
  H      -5.269582      5.269091     -3.703965
  H      -4.106044      3.935897     -3.975226
  C      -4.052743      4.777520     -1.943723
  H      -3.748916      3.843524     -1.416384
  H      -4.747821      5.311837     -1.248952
  C      -2.821056      5.685458     -2.212980
  H      -1.999891      5.072025     -2.662050
  H      -3.090607      6.447135     -2.984386
  C      -2.269109      6.405408     -0.948761
  H      -1.418419      7.059514     -1.260012
  H      -3.053959      7.083182     -0.531107
  C      -1.781831      5.450248      0.178741
  H      -0.976104      4.798777     -0.239719
  H      -2.604698      4.759689      0.484593
  C      -1.246591      6.216446      1.419184
  H      -0.252471      6.666852      1.174196
  H      -1.924629      7.081489      1.620420
  C      -1.128146      5.392963      2.742290
  H      -0.571982      6.023626      3.474547
  H      -2.148184      5.232321      3.162723
  C      -0.381299      4.026929      2.628516
  H       0.717402      4.137026      2.779303
  H      -0.752180      3.309188      3.396870
  H      -0.543464      3.531180      1.645567
138
Coordinates from ORCA-job /wrk/rja7/qm_final_3_replicates/qm_final_1.1/qm/8/freq E -2722.558310961933
  N       1.369390     -2.253816      6.524054
  C       1.164898     -0.730515      6.168669
  H       1.834335     -0.551131      5.299466
  H       1.554861     -0.197250      7.062273
  C       0.561844     -2.678201      7.766469
  H       0.884235     -3.712359      8.017453
  H       0.801820     -1.986348      8.597087
  H      -0.528412     -2.680378      7.522647
  C       2.855765     -2.444266      6.814342
  H       3.073970     -3.527766      6.903447
  H       3.445407     -2.006812      5.982330
  H       3.107626     -1.923261      7.759640
  C       0.973183     -3.162610      5.361441
  H       1.112037     -4.211900      5.691802
  H       1.615315     -2.934646      4.487031
  H      -0.092973     -3.010350      5.121685
  C      -0.276571     -0.243926      5.899773
  H      -0.203827      0.703303      5.294937
  H      -0.819200     -0.975910      5.261710
  P      -2.544429     -0.742593      7.318491
  O      -3.051299     -0.261269      8.653677
  O      -2.428159     -2.218459      6.862730
  O      -0.930554     -0.073932      7.153926
  O      -3.275485      0.148401      6.029532
  C      -4.409504     -0.385911      5.337477
  H      -4.957705      0.483429      4.896720
  H      -5.124950     -0.906875      6.023783
  C      -4.028979     -1.368476      4.207308
  H      -3.419914     -2.201032      4.614504
  O      -3.233377     -0.584012      3.243093
  C      -2.033921     -1.068820      2.825399
  O      -1.600995     -2.190219      3.075444
  C      -1.303955     -0.027018      1.960579
  H      -1.466138      0.986664      2.395804
  H      -1.819200     -0.005295      0.968842
  C      -5.271219     -1.930987      3.490175
  H      -5.899603     -1.121966      3.047711
  H      -5.913689     -2.485021      4.215529
  O      -4.806361     -2.839360      2.449592
  C      -5.761271     -3.422278      1.643427
  O      -6.962825     -3.256809      1.786361
  C      -5.090039     -4.287156      0.563172
  H      -4.652617     -5.183586      1.065590
  H      -5.900123     -4.653181     -0.105964
  C       0.204485     -0.334470      1.798847
  H       0.338117     -1.433937      1.698083
  H       0.727723     -0.047843      2.749974
  C       0.853643      0.407014      0.600829
  H       0.520456      1.471338      0.606889
  H       0.464888     -0.025884     -0.354247
  C       2.407013      0.363583      0.579559
  H       2.798858      0.762553      1.548687
  H       2.772008      1.061547     -0.211720
  C       3.003748     -1.049417      0.340587
  H       2.576842     -1.468823     -0.603181
  H       2.666175     -1.746312      1.143668
  C       4.560553     -1.064068      0.248305
  H       4.956541     -2.044222      0.607331
  H       4.980571     -0.292190      0.937935
  C       5.108429     -0.787034     -1.190778
  H       6.202643     -0.571349     -1.117625
  H       4.635258      0.136202     -1.594895
  C       4.887319     -1.957882     -2.136600
  H       5.400320     -2.897980     -1.843581
  C       4.128142     -1.974808     -3.261423
  H       4.064365     -2.929201     -3.820506
  C       3.375743     -0.790377     -3.865873
  H       2.869250     -0.204984     -3.062447
  H       2.564160     -1.175677     -4.527178
  C       4.267014      0.179457     -4.714866
  H       4.944499      0.750749     -4.035556
  H       3.601536      0.934965     -5.200037
  C       5.093731     -0.532997     -5.815690
  H       4.417849     -1.175589     -6.434423
  H       5.802064     -1.241817     -5.325667
  C       5.883300      0.433437     -6.739845
  H       6.684451      0.934945     -6.143281
  H       5.197320      1.246069     -7.082389
  C       6.539084     -0.231677     -7.993912
  H       6.718779      0.561258     -8.756546
  H       5.805256     -0.937420     -8.455027
  C       7.874549     -0.996883     -7.729972
  H       8.452897     -0.470751     -6.929674
  H       8.515155     -0.935088     -8.642822
  C       7.717966     -2.495236     -7.343587
  H       7.355871     -3.058881     -8.238267
  H       6.929472     -2.613215     -6.565504
  C       9.038525     -3.138820     -6.851763
  H       9.405283     -2.652953     -5.917085
  H       9.848879     -3.042857     -7.613426
  H       8.911090     -4.226831     -6.645408
  C      -3.976203     -3.554464     -0.241085
  H      -3.597660     -4.258469     -1.021277
  H      -3.116400     -3.334753      0.433966
  C      -4.446591     -2.241394     -0.918169
  H      -4.832832     -1.541028     -0.139060
  H      -5.312924     -2.457659     -1.590446
  C      -3.320917     -1.517883     -1.704241
  H      -2.972246     -2.170465     -2.543112
  H      -2.430474     -1.410276     -1.038684
  C      -3.736118     -0.124907     -2.257348
  H      -4.393890      0.377280     -1.507183
  H      -2.837209      0.532697     -2.344419
  C      -4.461865     -0.157970     -3.630518
  H      -3.869446     -0.771751     -4.351231
  H      -5.445937     -0.678546     -3.527991
  C      -4.706195      1.262266     -4.210772
  H      -5.050898      1.181239     -5.272544
  H      -3.735294      1.809591     -4.247363
  C      -5.751135      2.049763     -3.421712
  H      -6.622974      1.451642     -3.084064
  C      -5.740814      3.369889     -3.111361
  H      -6.596041      3.759805     -2.520120
  C      -4.614578      4.366825     -3.333035
  H      -5.010484      5.298737     -3.806173
  H      -3.850574      3.954547     -4.031142
  C      -3.929372      4.738625     -1.978139
  H      -3.676334      3.787557     -1.453632
  H      -4.667786      5.263361     -1.322511
  C      -2.666357      5.629443     -2.128588
  H      -1.825827      5.013592     -2.535387
  H      -2.862150      6.421463     -2.891661
  C      -2.199255      6.295396     -0.803714
  H      -1.314967      6.942518     -1.021729
  H      -3.002079      6.975719     -0.426238
  C      -1.822194      5.288355      0.319425
  H      -1.001502      4.632155     -0.060542
  H      -2.683101      4.609424      0.529626
  C      -1.370515      5.982196      1.635252
  H      -0.349954      6.417057      1.493652
  H      -2.041318      6.854517      1.827931
  C      -1.380339      5.083656      2.911902
  H      -0.877963      5.657203      3.726117
  H      -2.435337      4.925289      3.237242
  C      -0.656525      3.707423      2.774523
  H       0.429855      3.778205      3.012332
  H      -1.099252      2.954670      3.468390
  H      -0.755244      3.277717      1.752783
138
Coordinates from ORCA-job /wrk/rja7/qm_final_3_replicates/qm_final_1.1/qm/8/freq E -2722.563447393235
  N       1.277806     -2.317866      6.598026
  C       1.193469     -0.805771      6.195029
  H       1.875768     -0.695304      5.323841
  H       1.608620     -0.259381      7.068735
  C       0.431235     -2.622723      7.848930
  H       0.662838     -3.667359      8.149310
  H       0.719925     -1.917005      8.651080
  H      -0.653109     -2.528042      7.595222
  C       2.742605     -2.622746      6.899834
  H       2.866166     -3.713719      7.051952
  H       3.371604     -2.289524      6.049142
  H       3.041521     -2.073389      7.814861
  C       0.799490     -3.210814      5.454958
  H       0.863341     -4.264169      5.795554
  H       1.446842     -3.047951      4.570318
  H      -0.255014     -2.975098      5.219605
  C      -0.218545     -0.272838      5.890774
  H      -0.098245      0.676078      5.301817
  H      -0.751081     -0.987577      5.223091
  P      -2.508669     -0.798704      7.243712
  O      -3.036897     -0.369555      8.587799
  O      -2.364743     -2.257536      6.748894
  O      -0.913343     -0.093456      7.112996
  O      -3.240496      0.108186      5.972820
  C      -4.371283     -0.441631      5.290709
  H      -4.946508      0.418950      4.868481
  H      -5.058706     -0.987276      5.987481
  C      -3.992996     -1.408155      4.139537
  H      -3.354451     -2.226294      4.532102
  O      -3.230686     -0.613892      3.148340
  C      -2.019679     -1.062491      2.718478
  O      -1.519846     -2.143993      3.018454
  C      -1.337000     -0.008026      1.823460
  H      -1.567974      1.005329      2.220164
  H      -1.838838     -0.048183      0.828362
  C      -5.236968     -1.994249      3.447439
  H      -5.884543     -1.194205      3.016574
  H      -5.854501     -2.560863      4.184177
  O      -4.783180     -2.889813      2.389177
  C      -5.751670     -3.461419      1.593025
  O      -6.949333     -3.280718      1.750694
  C      -5.103726     -4.325216      0.495180
  H      -4.680205     -5.235527      0.984028
  H      -5.926290     -4.664939     -0.172801
  C       0.189427     -0.229930      1.681411
  H       0.383687     -1.323512      1.617478
  H       0.688882      0.117632      2.620275
  C       0.812260      0.498316      0.462210
  H       0.435369      1.547157      0.420554
  H       0.449459      0.007414     -0.474997
  C       2.366153      0.518452      0.458496
  H       2.725473      1.000461      1.402764
  H       2.716698      1.176762     -0.372289
  C       3.025580     -0.880655      0.327417
  H       2.628884     -1.388332     -0.585512
  H       2.709470     -1.526124      1.180528
  C       4.580285     -0.838584      0.249447
  H       5.008528     -1.785546      0.657540
  H       4.964486     -0.021389      0.907741
  C       5.130600     -0.605899     -1.196194
  H       6.219461     -0.363757     -1.125246
  H       4.643157      0.292208     -1.638752
  C       4.940558     -1.816437     -2.095489
  H       5.463431     -2.735219     -1.756296
  C       4.191044     -1.894976     -3.224179
  H       4.155971     -2.872333     -3.744904
  C       3.424458     -0.753814     -3.888568
  H       2.914873     -0.127609     -3.118858
  H       2.613666     -1.181501     -4.524577
  C       4.310889      0.169746     -4.787466
  H       5.001189      0.762536     -4.140288
  H       3.645038      0.911407     -5.293425
  C       5.124115     -0.594197     -5.865020
  H       4.436215     -1.243771     -6.461279
  H       5.826655     -1.292278     -5.353097
  C       5.920592      0.335948     -6.820586
  H       6.710611      0.866735     -6.233943
  H       5.237066      1.134664     -7.199907
  C       6.594762     -0.366714     -8.040649
  H       6.803123      0.407317     -8.815709
  H       5.861337     -1.069865     -8.507635
  C       7.912828     -1.143118     -7.733167
  H       8.484739     -0.601876     -6.938447
  H       8.570745     -1.119437     -8.635321
  C       7.725205     -2.627019     -7.309569
  H       7.345545     -3.206001     -8.187307
  H       6.936450     -2.709349     -6.527186
  C       9.032489     -3.283751     -6.803506
  H       9.411621     -2.778343     -5.884296
  H       9.840502     -3.224091     -7.570937
  H       8.882674     -4.360878     -6.558920
  C      -3.977539     -3.609066     -0.307884
  H      -3.619465     -4.306830     -1.103289
  H      -3.107976     -3.425515      0.365240
  C      -4.423575     -2.274214     -0.955983
  H      -4.784641     -1.581533     -0.157848
  H      -5.301199     -2.455628     -1.623724
  C      -3.293691     -1.559432     -1.741431
  H      -2.969271     -2.199910     -2.599156
  H      -2.395613     -1.483537     -1.085723
  C      -3.691971     -0.148274     -2.260551
  H      -4.328474      0.353177     -1.491694
  H      -2.784451      0.499177     -2.353933
  C      -4.441722     -0.161101     -3.620309
  H      -3.846757     -0.740704     -4.366587
  H      -5.410009     -0.709421     -3.513481
  C      -4.742184      1.263444     -4.165208
  H      -5.103817      1.185975     -5.221958
  H      -3.792381      1.845364     -4.213122
  C      -5.798681      1.994900     -3.344484
  H      -6.656684      1.364376     -3.030637
  C      -5.817027      3.299479     -2.977204
  H      -6.684109      3.648549     -2.378203
  C      -4.729259      4.339836     -3.188636
  H      -5.173231      5.267730     -3.626894
  H      -3.965922      3.983383     -3.917823
  C      -4.026277      4.705798     -1.843247
  H      -3.690423      3.761293     -1.354875
  H      -4.779095      5.157090     -1.150644
  C      -2.836562      5.689279     -2.007719
  H      -1.973709      5.156416     -2.479774
  H      -3.126516      6.493861     -2.726240
  C      -2.365892      6.344139     -0.679958
  H      -1.562342      7.085662     -0.910579
  H      -3.210368      6.931561     -0.241649
  C      -1.828616      5.349265      0.385529
  H      -0.965633      4.792540     -0.054541
  H      -2.602344      4.575848      0.612933
  C      -1.390304      6.060915      1.699438
  H      -0.441866      6.624428      1.515208
  H      -2.151217      6.838638      1.952528
  C      -1.215938      5.146917      2.951561
  H      -0.794437      5.778641      3.769373
  H      -2.220897      4.815726      3.305987
  C      -0.284605      3.913268      2.765617
  H       0.789610      4.168895      2.918325
  H      -0.539990      3.110560      3.495894
  H      -0.389887      3.459459      1.756654
138
Coordinates from ORCA-job /wrk/rja7/qm_final_3_replicates/qm_final_1.1/qm/8/freq E -2722.566388925396
  N       1.085342     -1.849122      6.560320
  C       0.905836     -0.373270      6.077929
  H       1.550035     -0.289081      5.174554
  H       1.328833      0.256905      6.889531
  C       0.348710     -2.131987      7.882549
  H       0.676647     -3.136218      8.226815
  H       0.633423     -1.358452      8.621062
  H      -0.751728     -2.127998      7.697820
  C       2.578981     -2.066528      6.777489
  H       2.765684     -3.137437      6.994427
  H       3.135985     -1.767671      5.866046
  H       2.910173     -1.442131      7.631667
  C       0.574375     -2.817843      5.495057
  H       0.728013     -3.851213      5.867975
  H       1.142995     -2.660615      4.556521
  H      -0.508449     -2.647584      5.331244
  C      -0.535079      0.066247      5.761162
  H      -0.447425      0.979811      5.116065
  H      -1.023048     -0.711517      5.131041
  P      -2.821755     -0.443328      7.110552
  O      -3.384324      0.032336      8.424382
  O      -2.620756     -1.919933      6.699551
  O      -1.259019      0.316764      6.949469
  O      -3.558400      0.360201      5.780789
  C      -4.665273     -0.271960      5.133902
  H      -5.265820      0.537017      4.649970
  H      -5.338442     -0.794558      5.862308
  C      -4.231184     -1.298540      4.052021
  H      -3.572970     -2.062533      4.515400
  O      -3.470420     -0.547590      3.021891
  C      -2.232349     -0.957075      2.632912
  O      -1.666713     -1.982929      3.006382
  C      -1.614916      0.081417      1.671853
  H      -1.918820      1.096152      2.006493
  H      -2.110658     -0.053317      0.681570
  C      -5.427087     -1.955517      3.348540
  H      -6.065244     -1.192535      2.842827
  H      -6.067977     -2.495587      4.084782
  O      -4.908981     -2.898810      2.362488
  C      -5.834031     -3.504308      1.544588
  O      -7.035473     -3.295322      1.618585
  C      -5.142276     -4.446838      0.540607
  H      -4.780338     -5.339781      1.105190
  H      -5.934892     -4.796246     -0.157933
  C      -0.077420     -0.038260      1.533672
  H       0.190275     -1.118582      1.532709
  H       0.402396      0.399664      2.442213
  C       0.487615      0.656200      0.268085
  H       0.044952      1.676286      0.164328
  H       0.150048      0.084231     -0.632181
  C       2.037167      0.771679      0.248074
  H       2.368487      1.344844      1.151114
  H       2.344361      1.389765     -0.629596
  C       2.785456     -0.587838      0.213034
  H       2.418602     -1.188021     -0.654935
  H       2.517972     -1.182678      1.117843
  C       4.332116     -0.453204      0.115755
  H       4.821733     -1.348017      0.570295
  H       4.670157      0.420029      0.726293
  C       4.856795     -0.264108     -1.345463
  H       5.931610      0.039405     -1.297503
  H       4.321147      0.585807     -1.826479
  C       4.727211     -1.525218     -2.182414
  H       5.297529     -2.398000     -1.800621
  C       3.975855     -1.700149     -3.298690
  H       3.993651     -2.702421     -3.771140
  C       3.144518     -0.638652     -4.013688
  H       2.617924      0.008859     -3.273922
  H       2.344009     -1.141023     -4.607081
  C       3.974729      0.267111     -4.978395
  H       4.657789      0.915743     -4.378749
  H       3.270313      0.959862     -5.501638
  C       4.795481     -0.517709     -6.036103
  H       4.119166     -1.213777     -6.590863
  H       5.534421     -1.163389     -5.508148
  C       5.534080      0.403505     -7.045027
  H       6.300335      1.001637     -6.491592
  H       4.808054      1.152261     -7.447415
  C       6.229482     -0.309932     -8.243443
  H       6.401409      0.448501     -9.042981
  H       5.522554     -1.054433     -8.688356
  C       7.580688     -1.020054     -7.924773
  H       8.136350     -0.426999     -7.155859
  H       8.228523     -1.001896     -8.834396
  C       7.461140     -2.494968     -7.450310
  H       7.081769     -3.117239     -8.298391
  H       6.694220     -2.583049     -6.647004
  C       8.804268     -3.081047     -6.953222
  H       9.182267     -2.527580     -6.061560
  H       9.590847     -3.015105     -7.741698
  H       8.704203     -4.152472     -6.662920
  C      -3.931009     -3.824379     -0.216685
  H      -3.549514     -4.580975     -0.944684
  H      -3.107451     -3.646790      0.513552
  C      -4.239542     -2.496250     -0.949418
  H      -4.619963     -1.753423     -0.207057
  H      -5.066790     -2.642517     -1.686313
  C      -2.995199     -1.893724     -1.651747
  H      -2.647510     -2.586282     -2.458503
  H      -2.157590     -1.862731     -0.916646
  C      -3.217897     -0.467688     -2.230362
  H      -3.882557      0.103815     -1.537871
  H      -2.250180      0.093447     -2.237255
  C      -3.825311     -0.433286     -3.656230
  H      -3.196685     -1.048477     -4.344069
  H      -4.833661     -0.915792     -3.653999
  C      -3.969880      1.013742     -4.209937
  H      -4.207311      0.963636     -5.303334
  H      -2.987835      1.536489     -4.140777
  C      -5.064339      1.801822     -3.504211
  H      -6.005309      1.235859     -3.339053
  C      -5.026378      3.086480     -3.071293
  H      -5.940767      3.489232     -2.587706
  C      -3.836927      4.033604     -3.074209
  H      -4.141582      5.009254     -3.528742
  H      -3.005811      3.643082     -3.705617
  C      -3.302834      4.302101     -1.631641
  H      -3.100762      3.323522     -1.136972
  H      -4.112963      4.783517     -1.029916
  C      -2.037454      5.202132     -1.600985
  H      -1.159961      4.624122     -1.984859
  H      -2.181837      6.048197     -2.315938
  C      -1.692473      5.785303     -0.202244
  H      -0.823234      6.480617     -0.303609
  H      -2.546185      6.417860      0.146989
  C      -1.352893      4.732500      0.887353
  H      -0.476244      4.133224      0.539822
  H      -2.193807      4.004702      0.988450
  C      -1.045766      5.378396      2.270086
  H      -0.055096      5.895931      2.224217
  H      -1.791506      6.189300      2.455190
  C      -1.073439      4.418590      3.497805
  H      -0.759991      5.008687      4.392490
  H      -2.127020      4.109650      3.700567
  C      -0.160373      3.164883      3.398539
  H       0.896420      3.390008      3.673890
  H      -0.516306      2.361584      4.084429
  H      -0.164714      2.727980      2.376255
138
Coordinates from ORCA-job /wrk/rja7/qm_final_3_replicates/qm_final_1.1/qm/8/freq E -2722.566226364236
  N       0.770824     -2.382350      6.685028
  C       0.627732     -0.872942      6.318146
  H       1.214116     -0.765752      5.377516
  H       1.140538     -0.302836      7.123095
  C       0.171708     -2.747281      8.053723
  H       0.515999     -3.775875      8.293061
  H       0.540855     -2.030185      8.812095
  H      -0.937707     -2.719774      7.980333
  C       2.263476     -2.678200      6.729420
  H       2.416111     -3.767655      6.868501
  H       2.740255     -2.353674      5.781911
  H       2.712443     -2.121550      7.577435
  C       0.100088     -3.237469      5.609540
  H       0.255874     -4.305595      5.868252
  H       0.562529     -3.016784      4.625767
  H      -0.988808     -3.015834      5.589925
  C      -0.798934     -0.347907      6.078048
  H      -0.656059      0.592336      5.487222
  H      -1.324690     -1.058425      5.402134
  P      -3.108835     -0.762526      7.396911
  O      -3.642163     -0.336980      8.739741
  O      -2.994922     -2.223482      6.908996
  O      -1.513762     -0.083013      7.262701
  O      -3.791419      0.143182      6.111347
  C      -4.915273     -0.432716      5.443108
  H      -5.504455      0.406818      4.999207
  H      -5.589127     -0.981454      6.152021
  C      -4.488607     -1.414264      4.311670
  H      -3.831234     -2.192668      4.751813
  O      -3.721189     -0.640210      3.300730
  C      -2.488087     -1.055654      2.894791
  O      -1.932526     -2.103779      3.222446
  C      -1.863020      0.013919      1.975683
  H      -2.149935      1.009815      2.370989
  H      -2.373772     -0.059905      0.977866
  C      -5.664718     -2.028039      3.559097
  H      -6.261336     -1.252186      3.023002
  H      -6.347299     -2.564545      4.258997
  O      -5.084192     -2.949093      2.593076
  C      -5.922600     -3.526492      1.678572
  O      -7.121007     -3.297827      1.605698
  C      -5.126199     -4.512483      0.809251
  H      -4.885213     -5.396143      1.448417
  H      -5.811301     -4.862151      0.005114
  C      -0.330422     -0.114314      1.808394
  H      -0.081317     -1.197429      1.737527
  H       0.174854      0.260125      2.728675
  C       0.222811      0.668730      0.593501
  H      -0.203472      1.704616      0.576527
  H      -0.142064      0.170926     -0.340043
  C       1.773642      0.753549      0.547582
  H       2.134736      1.261835      1.477818
  H       2.078196      1.423333     -0.292613
  C       2.495763     -0.613294      0.406835
  H       2.099162     -1.152263     -0.487453
  H       2.239894     -1.255256      1.282175
  C       4.040535     -0.500347      0.281355
  H       4.520720     -1.441336      0.643850
  H       4.412561      0.307752      0.958814
  C       4.536362     -0.192735     -1.169373
  H       5.621256      0.073474     -1.120540
  H       4.020797      0.715952     -1.556304
  C       4.351948     -1.366073     -2.115166
  H       4.899915     -2.287652     -1.826046
  C       3.571880     -1.417062     -3.223661
  H       3.552572     -2.371943     -3.786401
  C       2.755621     -0.274933     -3.820053
  H       2.280231      0.330516     -3.013342
  H       1.915002     -0.700795     -4.418337
  C       3.586990      0.672791     -4.739156
  H       4.328196      1.231663     -4.118307
  H       2.895653      1.443616     -5.161429
  C       4.325571     -0.045640     -5.900412
  H       3.591634     -0.648895     -6.489210
  H       5.054347     -0.769643     -5.470333
  C       5.059716      0.942959     -6.845701
  H       5.860262      1.465588     -6.263537
  H       4.346246      1.750244     -7.144813
  C       5.692267      0.340675     -8.132671
  H       5.875154      1.179232     -8.845751
  H       4.942808     -0.317091     -8.642208
  C       7.021353     -0.449846     -7.941261
  H       7.623610      0.036578     -7.133409
  H       7.640514     -0.357316     -8.866433
  C       6.860955     -1.962575     -7.627615
  H       6.412685     -2.471846     -8.516856
  H       6.129682     -2.113070     -6.800334
  C       8.200186     -2.646915     -7.264306
  H       8.639887     -2.205825     -6.338733
  H       8.950544     -2.521686     -8.079810
  H       8.071299     -3.738223     -7.079219
  C      -3.786228     -3.945881      0.244672
  H      -3.304698     -4.744986     -0.369839
  H      -3.094017     -3.750318      1.096745
  C      -3.931363     -2.657779     -0.606632
  H      -4.427964     -1.867593      0.007356
  H      -4.610822     -2.847268     -1.473153
  C      -2.572976     -2.117871     -1.131136
  H      -2.113037     -2.889045     -1.798470
  H      -1.871057     -2.014926     -0.264270
  C      -2.649392     -0.771035     -1.906453
  H      -3.419801     -0.111137     -1.438233
  H      -1.684379     -0.219546     -1.798369
  C      -3.010126     -0.940365     -3.404174
  H      -2.278982     -1.633317     -3.885810
  H      -4.005880     -1.441703     -3.485362
  C      -3.068015      0.391075     -4.217945
  H      -3.125194      0.126340     -5.305173
  H      -2.114216      0.954051     -4.095371
  C      -4.243813      1.269152     -3.826360
  H      -5.208593      0.729582     -3.715920
  C      -4.246379      2.611382     -3.612362
  H      -5.213318      3.084709     -3.342474
  C      -3.053201      3.557079     -3.639270
  H      -3.310711      4.421822     -4.301475
  H      -2.160655      3.070363     -4.096508
  C      -2.634617      4.122839     -2.247570
  H      -2.447251      3.279325     -1.543155
  H      -3.490956      4.690979     -1.806662
  C      -1.393154      5.052752     -2.365036
  H      -0.487858      4.435255     -2.590656
  H      -1.544993      5.716414     -3.250798
  C      -1.084938      5.941526     -1.128339
  H      -0.248456      6.640681     -1.376645
  H      -1.964971      6.600819     -0.922429
  C      -0.689703      5.156705      0.146555
  H       0.227045      4.561211     -0.084519
  H      -1.484155      4.413232      0.388271
  C      -0.429616      6.058432      1.381165
  H       0.517250      6.635807      1.232803
  H      -1.231346      6.834435      1.436094
  C      -0.369782      5.303068      2.736331
  H      -0.146750      6.050678      3.536224
  H      -1.382222      4.907405      2.994431
  C       0.683935      4.166847      2.806036
  H       1.711778      4.557419      2.994135
  H       0.443035      3.459625      3.630925
  H       0.709639      3.563240      1.867213
138
Coordinates from ORCA-job /wrk/rja7/qm_final_3_replicates/qm_final_1.1/qm/8/freq E -2722.568932479397
  N       0.760484     -2.380620      6.683244
  C       0.630562     -0.857394      6.316499
  H       1.221699     -0.747846      5.378371
  H       1.145439     -0.292297      7.138571
  C       0.143543     -2.726610      8.042283
  H       0.472926     -3.755421      8.293971
  H       0.515626     -2.006983      8.800595
  H      -0.959472     -2.685825      7.950738
  C       2.255897     -2.690772      6.737143
  H       2.403169     -3.780928      6.886699
  H       2.732639     -2.382869      5.786643
  H       2.710099     -2.127165      7.575406
  C       0.090448     -3.242947      5.607872
  H       0.264691     -4.311959      5.871556
  H       0.542898     -3.020173      4.618026
  H      -1.000775     -3.025641      5.602335
  C      -0.790800     -0.305172      6.063971
  H      -0.642870      0.673880      5.486227
  H      -1.322289     -1.009580      5.355999
  P      -3.095730     -0.781226      7.411146
  O      -3.649393     -0.366798      8.760427
  O      -2.946161     -2.256087      6.914652
  O      -1.502061     -0.073566      7.278492
  O      -3.789039      0.129225      6.127581
  C      -4.913849     -0.436752      5.446195
  H      -5.498148      0.412383      5.010543
  H      -5.593560     -0.989709      6.141742
  C      -4.489927     -1.402780      4.305680
  H      -3.834435     -2.187321      4.734039
  O      -3.717485     -0.606456      3.312587
  C      -2.481836     -1.015603      2.914870
  O      -1.948863     -2.082683      3.216157
  C      -1.866404      0.029597      1.972012
  H      -2.150957      1.032330      2.349642
  H      -2.380529     -0.064482      0.989331
  C      -5.671989     -2.021705      3.555169
  H      -6.272088     -1.250074      3.015386
  H      -6.351728     -2.557872      4.258846
  O      -5.094943     -2.962017      2.597424
  C      -5.930004     -3.543775      1.673653
  O      -7.133386     -3.305121      1.590995
  C      -5.129236     -4.519425      0.795147
  H      -4.896649     -5.410956      1.426908
  H      -5.812081     -4.855942     -0.017604
  C      -0.334034     -0.108552      1.804728
  H      -0.084851     -1.190471      1.730892
  H       0.171800      0.260701      2.730978
  C       0.224956      0.672738      0.588743
  H      -0.196404      1.707267      0.577599
  H      -0.139967      0.183414     -0.347139
  C       1.775208      0.756302      0.545406
  H       2.137159      1.269362      1.471884
  H       2.079127      1.419475     -0.298937
  C       2.494490     -0.614067      0.412021
  H       2.093063     -1.163115     -0.474905
  H       2.243705     -1.248459      1.296550
  C       4.040565     -0.499233      0.282534
  H       4.522229     -1.444280      0.636066
  H       4.413640      0.303679      0.965570
  C       4.533679     -0.190138     -1.168360
  H       5.620028      0.072516     -1.120356
  H       4.018569      0.719230     -1.553586
  C       4.348363     -1.366402     -2.112336
  H       4.899359     -2.285609     -1.824230
  C       3.573139     -1.417923     -3.223650
  H       3.559412     -2.370136     -3.789710
  C       2.757266     -0.276368     -3.820045
  H       2.282493      0.330226     -3.012662
  H       1.916230     -0.703756     -4.417601
  C       3.587926      0.673974     -4.740872
  H       4.332149      1.231462     -4.117645
  H       2.896736      1.446422     -5.162153
  C       4.326846     -0.043445     -5.903217
  H       3.589519     -0.646753     -6.494199
  H       5.053573     -0.773064     -5.474198
  C       5.058058      0.944836     -6.848559
  H       5.851226      1.476411     -6.268610
  H       4.340616      1.739723     -7.153061
  C       5.693854      0.342363     -8.134601
  H       5.885309      1.186121     -8.844600
  H       4.942913     -0.313257     -8.651006
  C       7.022214     -0.452411     -7.934263
  H       7.622993      0.034694     -7.124814
  H       7.645852     -0.360945     -8.857387
  C       6.858624     -1.966851     -7.619004
  H       6.401117     -2.478305     -8.508631
  H       6.131769     -2.111979     -6.784485
  C       8.204310     -2.655273     -7.264510
  H       8.654581     -2.210928     -6.338836
  H       8.951940     -2.535273     -8.085443
  H       8.075789     -3.747815     -7.081552
  C      -3.785350     -3.949791      0.237977
  H      -3.302139     -4.744307     -0.382175
  H      -3.091683     -3.756765      1.091244
  C      -3.932994     -2.658816     -0.609849
  H      -4.423962     -1.867154      0.004955
  H      -4.617708     -2.847130     -1.473641
  C      -2.570825     -2.123334     -1.135097
  H      -2.104166     -2.898317     -1.797842
  H      -1.870555     -2.017011     -0.268208
  C      -2.651750     -0.776542     -1.917510
  H      -3.408951     -0.105232     -1.442767
  H      -1.682827     -0.234847     -1.831053
  C      -3.014117     -0.946897     -3.415563
  H      -2.276400     -1.633499     -3.900460
  H      -4.008673     -1.454755     -3.498464
  C      -3.072219      0.386939     -4.218786
  H      -3.138395      0.130962     -5.305431
  H      -2.113851      0.941576     -4.099370
  C      -4.247785      1.268922     -3.821792
  H      -5.225961      0.738057     -3.721359
  C      -4.235917      2.606316     -3.598481
  H      -5.202088      3.084970     -3.323589
  C      -3.050328      3.548889     -3.649727
  H      -3.312311      4.411196     -4.317313
  H      -2.163839      3.055607     -4.109296
  C      -2.628886      4.130008     -2.258437
  H      -2.431342      3.290725     -1.550770
  H      -3.488888      4.700092     -1.818050
  C      -1.388967      5.062553     -2.377173
  H      -0.486602      4.446321     -2.612857
  H      -1.541236      5.732177     -3.256179
  C      -1.082711      5.943946     -1.133447
  H      -0.245181      6.644507     -1.378589
  H      -1.965669      6.598785     -0.920871
  C      -0.696586      5.153092      0.144163
  H       0.211044      4.544671     -0.085376
  H      -1.499832      4.421179      0.389823
  C      -0.427944      6.055052      1.378117
  H       0.521964      6.625852      1.226815
  H      -1.228694      6.832518      1.436370
  C      -0.373113      5.302327      2.737390
  H      -0.155977      6.055150      3.554019
  H      -1.395516      4.893968      2.977393
  C       0.690429      4.163106      2.808418
  H       1.722411      4.563940      2.953426
  H       0.486248      3.459292      3.658862
  H       0.680898      3.546511      1.889676
138
Coordinates from ORCA-job /wrk/rja7/qm_final_3_replicates/qm_final_1.1/qm/8/freq E -2722.567193317200
  N       0.552768     -2.376992      6.820107
  C       0.597642     -0.875433      6.380188
  H       1.219496     -0.846979      5.456146
  H       1.128954     -0.335027      7.196320
  C      -0.171275     -2.552986      8.162723
  H       0.013335     -3.593351      8.503926
  H       0.244253     -1.828998      8.892013
  H      -1.258315     -2.382908      8.001370
  C       1.996088     -2.850064      6.958618
  H       2.005216     -3.936466      7.183179
  H       2.538038     -2.662548      6.009453
  H       2.482497     -2.286285      7.780220
  C      -0.174674     -3.226061      5.772798
  H      -0.120141     -4.285864      6.101028
  H       0.321404     -3.107024      4.788215
  H      -1.234545     -2.903805      5.730138
  C      -0.775896     -0.250569      6.105088
  H      -0.595495      0.711009      5.543433
  H      -1.317695     -0.924794      5.404844
  P      -3.028612     -0.848502      7.428493
  O      -3.622939     -0.460385      8.763745
  O      -2.768645     -2.311119      6.959749
  O      -1.485387     -0.046041      7.312555
  O      -3.767443     -0.000089      6.125616
  C      -4.849146     -0.635885      5.431217
  H      -5.490961      0.177276      5.009997
  H      -5.491267     -1.245903      6.115955
  C      -4.363371     -1.548182      4.272957
  H      -3.650685     -2.294227      4.679301
  O      -3.664948     -0.673570      3.295429
  C      -2.398738     -0.967328      2.897571
  O      -1.756269     -1.962502      3.229489
  C      -1.890296      0.107207      1.922750
  H      -2.274012      1.096708      2.259887
  H      -2.390894     -0.083480      0.945391
  C      -5.508710     -2.233374      3.516176
  H      -6.165670     -1.489875      3.006533
  H      -6.143985     -2.830877      4.212401
  O      -4.900099     -3.113623      2.519137
  C      -5.730158     -3.692567      1.587445
  O      -6.937188     -3.494676      1.541582
  C      -4.928910     -4.614682      0.649430
  H      -4.662132     -5.525491      1.238760
  H      -5.626448     -4.935288     -0.156144
  C      -0.351999      0.111239      1.756843
  H       0.000698     -0.944178      1.733510
  H       0.115724      0.571542      2.663678
  C       0.130336      0.866659      0.491922
  H      -0.385072      1.853836      0.418715
  H      -0.189000      0.288900     -0.410615
  C       1.666514      1.088043      0.435847
  H       1.980461      1.700437      1.318275
  H       1.910157      1.709104     -0.459719
  C       2.502753     -0.220174      0.416348
  H       2.147859     -0.876805     -0.414865
  H       2.309989     -0.793116      1.355150
  C       4.033196      0.013025      0.259431
  H       4.593676     -0.855448      0.683171
  H       4.341196      0.898279      0.868262
  C       4.490770      0.231980     -1.219089
  H       5.553115      0.581150     -1.209867
  H       3.902395      1.059806     -1.675509
  C       4.391420     -1.036890     -2.049936
  H       5.013048     -1.881310     -1.684810
  C       3.615193     -1.251046     -3.141424
  H       3.668034     -2.252037     -3.614411
  C       2.715810     -0.232470     -3.834213
  H       2.212590      0.420338     -3.083446
  H       1.898675     -0.772985     -4.369387
  C       3.469295      0.668302     -4.865485
  H       4.186812      1.329254     -4.320271
  H       2.727651      1.349730     -5.350477
  C       4.230150     -0.125639     -5.959873
  H       3.520659     -0.826992     -6.467714
  H       4.998697     -0.765272     -5.467835
  C       4.899712      0.787392     -7.019581
  H       5.673003      1.419755     -6.515790
  H       4.137031      1.508070     -7.402826
  C       5.550308      0.068046     -8.236977
  H       5.706322      0.828843     -9.039097
  H       4.822019     -0.666534     -8.665084
  C       6.904137     -0.656868     -7.962884
  H       7.497541     -0.062056     -7.224024
  H       7.514624     -0.655948     -8.898744
  C       6.789564     -2.126463     -7.469403
  H       6.329171     -2.745012     -8.280316
  H       6.085982     -2.192081     -6.607169
  C       8.157298     -2.739439     -7.075246
  H       8.618033     -2.185754     -6.221748
  H       8.880257     -2.697537     -7.923992
  H       8.059609     -3.806206     -6.767681
  C      -3.615221     -4.006998      0.067559
  H      -3.146759     -4.776713     -0.593243
  H      -2.894648     -3.830523      0.898830
  C      -3.806304     -2.694787     -0.737274
  H      -4.274573     -1.920675     -0.082415
  H      -4.527119     -2.866962     -1.574251
  C      -2.471171     -2.141463     -1.308717
  H      -2.034479     -2.893708     -2.012880
  H      -1.733164     -2.057713     -0.475475
  C      -2.592951     -0.769546     -2.037981
  H      -3.316458     -0.117124     -1.490580
  H      -1.615175     -0.231612     -1.991848
  C      -3.049541     -0.877704     -3.516276
  H      -2.346477     -1.542388     -4.074716
  H      -4.046670     -1.381992     -3.558348
  C      -3.153852      0.491925     -4.253772
  H      -3.298820      0.286432     -5.344556
  H      -2.183671      1.034952     -4.175591
  C      -4.294479      1.360784     -3.740722
  H      -5.259122      0.827327     -3.600018
  C      -4.271288      2.688435     -3.460383
  H      -5.216605      3.145299     -3.097848
  C      -3.099462      3.649589     -3.555786
  H      -3.414591      4.534195     -4.164821
  H      -2.239468      3.191536     -4.095976
  C      -2.602999      4.172628     -2.169968
  H      -2.344766      3.302015     -1.526333
  H      -3.444100      4.695621     -1.649160
  C      -1.393812      5.140619     -2.295373
  H      -0.494570      4.565688     -2.627700
  H      -1.607742      5.871871     -3.111953
  C      -1.037747      5.919526     -0.999546
  H      -0.232024      6.659847     -1.229443
  H      -1.919993      6.529396     -0.680610
  C      -0.564775      5.026905      0.179707
  H       0.339260      4.461749     -0.153566
  H      -1.340765      4.255851      0.404971
  C      -0.243662      5.825442      1.472274
  H       0.677917      6.439632      1.313049
  H      -1.062054      6.566018      1.647778
  C      -0.075299      4.964816      2.757542
  H       0.149907      5.652166      3.611946
  H      -1.054012      4.487202      3.014736
  C       1.043917      3.886807      2.684324
  H       2.058914      4.335089      2.794193
  H       0.929518      3.125356      3.492896
  H       1.012426      3.329118      1.724557
138
Coordinates from ORCA-job /wrk/rja7/qm_final_3_replicates/qm_final_1.1/qm/8/freq E -2722.573736904083
  N       0.689601     -2.581474      6.698594
  C       0.785533     -1.061326      6.340837
  H       1.376752     -1.013730      5.397982
  H       1.373494     -0.605457      7.160061
  C       0.034430     -2.803579      8.073181
  H       0.205567     -3.865181      8.354143
  H       0.510451     -2.128883      8.811599
  H      -1.056141     -2.603228      7.981293
  C       2.113148     -3.118628      6.733631
  H       2.082763     -4.213068      6.908740
  H       2.608876     -2.907974      5.762315
  H       2.668276     -2.615376      7.552473
  C      -0.119803     -3.348692      5.646735
  H      -0.079786     -4.423142      5.912821
  H       0.326412     -3.184989      4.646559
  H      -1.168180     -3.000521      5.683111
  C      -0.548954     -0.327512      6.150173
  H      -0.303072      0.635311      5.650477
  H      -1.156041     -0.895582      5.433540
  P      -2.835854     -0.757647      7.482506
  O      -3.371176     -0.355460      8.834119
  O      -2.753077     -2.219218      6.966785
  O      -1.218252     -0.121981      7.375115
  O      -3.495518      0.203402      6.215457
  C      -4.650911     -0.288159      5.519684
  H      -5.199363      0.601229      5.123261
  H      -5.352717     -0.837314      6.198290
  C      -4.278607     -1.228115      4.344226
  H      -3.648363     -2.053751      4.733163
  O      -3.498210     -0.413942      3.378912
  C      -2.284095     -0.846399      2.947434
  O      -1.761871     -1.919768      3.245659
  C      -1.634213      0.209583      2.032252
  H      -1.869761      1.225140      2.434469
  H      -2.161759      0.150052      1.049897
  C      -5.497817     -1.791377      3.596935
  H      -6.075182     -0.991507      3.078689
  H      -6.188918     -2.308265      4.304756
  O      -4.991825     -2.761822      2.626578
  C      -5.866009     -3.277688      1.696582
  O      -7.039086     -2.954778      1.615729
  C      -5.151404     -4.325258      0.821875
  H      -5.009757     -5.234153      1.455909
  H      -5.849287     -4.601550      0.001255
  C      -0.113040     -0.004477      1.838010
  H       0.073688     -1.095471      1.719288
  H       0.423619      0.298712      2.773245
  C       0.480916      0.780657      0.637403
  H       0.141578      1.843282      0.677643
  H       0.062877      0.361993     -0.315633
  C       2.033237      0.743645      0.574004
  H       2.449532      1.195484      1.507232
  H       2.375367      1.406940     -0.257801
  C       2.639085     -0.673892      0.398880
  H       2.182082     -1.163882     -0.494549
  H       2.352503     -1.309342      1.270329
  C       4.188907     -0.678313      0.252991
  H       4.594012     -1.677101      0.543681
  H       4.631830      0.050307      0.974856
  C       4.694163     -0.322217     -1.182283
  H       5.800403     -0.167054     -1.137081
  H       4.262222      0.653851     -1.497987
  C       4.382790     -1.408628     -2.197256
  H       4.840536     -2.396981     -1.979426
  C       3.594699     -1.303522     -3.295935
  H       3.471480     -2.208822     -3.924148
  C       2.904852     -0.038885     -3.799745
  H       2.526484      0.568816     -2.944810
  H       2.007643     -0.327811     -4.395377
  C       3.817790      0.859426     -4.694968
  H       4.646354      1.275669     -4.073674
  H       3.222726      1.737117     -5.046335
  C       4.411480      0.120326     -5.920535
  H       3.581288     -0.339865     -6.511409
  H       5.035834     -0.726347     -5.555718
  C       5.253341      1.039598     -6.841966
  H       6.135685      1.421774     -6.267557
  H       4.647807      1.948245     -7.092125
  C       5.751431      0.400396     -8.170731
  H       6.070872      1.225684     -8.846860
  H       4.890775     -0.088264     -8.688546
  C       6.916306     -0.628484     -8.046167
  H       7.618794     -0.295831     -7.242066
  H       7.517625     -0.612884     -8.987423
  C       6.486266     -2.097098     -7.778239
  H       5.899697     -2.463214     -8.653422
  H       5.790708     -2.145931     -6.909909
  C       7.685250     -3.046227     -7.541085
  H       8.261655     -2.751764     -6.635293
  H       8.392685     -3.026575     -8.402478
  H       7.355620     -4.100930     -7.399963
  C      -3.761588     -3.886371      0.277775
  H      -3.344143     -4.731438     -0.321797
  H      -3.065541     -3.735916      1.132608
  C      -3.793783     -2.612544     -0.603236
  H      -4.232407     -1.764923     -0.021911
  H      -4.479298     -2.776823     -1.470538
  C      -2.387861     -2.190620     -1.105413
  H      -1.953412     -3.013058     -1.724304
  H      -1.707739     -2.092966     -0.228594
  C      -2.380322     -0.873157     -1.932311
  H      -3.103039     -0.148550     -1.484112
  H      -1.374897     -0.381962     -1.852789
  C      -2.731106     -1.079943     -3.430191
  H      -2.009705     -1.803792     -3.876914
  H      -3.734689     -1.562613     -3.515365
  C      -2.741466      0.228518     -4.277074
  H      -2.781385     -0.065844     -5.357218
  H      -1.775359      0.770338     -4.146541
  C      -3.933978      1.130408     -3.984707
  H      -4.904067      0.601131     -3.931381
  C      -3.957565      2.477830     -3.823586
  H      -4.947033      2.946299     -3.645425
  C      -2.791005      3.451198     -3.823257
  H      -2.997859      4.260360     -4.565701
  H      -1.843910      2.965223     -4.153244
  C      -2.582029      4.124472     -2.433772
  H      -2.446838      3.328517     -1.667958
  H      -3.517242      4.664709     -2.149696
  C      -1.388547      5.114075     -2.392211
  H      -0.430205      4.540673     -2.462009
  H      -1.421282      5.763869     -3.301302
  C      -1.360313      6.012680     -1.128118
  H      -0.528573      6.752559     -1.223182
  H      -2.297547      6.621410     -1.088215
  C      -1.205506      5.234084      0.205698
  H      -0.252015      4.653168      0.163322
  H      -2.022574      4.475097      0.296889
  C      -1.214972      6.150752      1.458905
  H      -0.278251      6.762974      1.476899
  H      -2.047639      6.889248      1.358125
  C      -1.378930      5.413408      2.818605
  H      -1.373655      6.172911      3.627556
  H      -2.385719      4.941552      2.864056
  C      -0.289170      4.354378      3.124111
  H       0.676717      4.826060      3.416035
  H      -0.598623      3.690667      3.959658
  H      -0.104055      3.689402      2.249067
138
Coordinates from ORCA-job /wrk/rja7/qm_final_3_replicates/qm_final_1.1/qm/8/freq E -2722.573902649850
  N       0.740063     -2.656456      6.699046
  C       0.753296     -1.111482      6.421106
  H       1.363862     -1.004919      5.495642
  H       1.311963     -0.667797      7.276046
  C       0.103310     -3.012214      8.053519
  H       0.356560     -4.073137      8.264529
  H       0.527371     -2.352506      8.837008
  H      -0.996780     -2.900547      7.965601
  C       2.195320     -3.105788      6.717429
  H       2.233942     -4.208438      6.832088
  H       2.681016     -2.811707      5.764645
  H       2.714918     -2.616828      7.566882
  C      -0.011647     -3.405819      5.591976
  H       0.100171     -4.493276      5.788622
  H       0.428744     -3.144779      4.608592
  H      -1.084231     -3.127668      5.640531
  C      -0.591891     -0.380309      6.205341
  H      -0.306427      0.607389      5.746236
  H      -1.178446     -0.920552      5.428401
  P      -2.960845     -0.739212      7.481234
  O      -3.511268     -0.314131      8.820021
  O      -2.932596     -2.204121      6.968878
  O      -1.317237     -0.163528      7.408364
  O      -3.564803      0.235964      6.198487
  C      -4.721842     -0.235184      5.494439
  H      -5.253512      0.660997      5.089855
  H      -5.437379     -0.771004      6.168582
  C      -4.344979     -1.184850      4.328359
  H      -3.722987     -2.011222      4.727865
  O      -3.552740     -0.382750      3.362554
  C      -2.318678     -0.798552      2.971274
  O      -1.769694     -1.840763      3.327348
  C      -1.704363      0.220247      1.991714
  H      -1.988461      1.244760      2.323699
  H      -2.218770      0.073952      1.010907
  C      -5.559580     -1.752148      3.581158
  H      -6.136006     -0.956601      3.053810
  H      -6.253052     -2.263129      4.291089
  O      -5.047502     -2.728667      2.622842
  C      -5.918105     -3.246204      1.689827
  O      -7.093348     -2.921937      1.598888
  C      -5.194824     -4.295031      0.824806
  H      -5.058418     -5.202180      1.462782
  H      -5.887038     -4.575275     -0.000131
  C      -0.172562      0.071844      1.825806
  H       0.073221     -1.012369      1.783782
  H       0.335861      0.467280      2.741162
  C       0.387646      0.804994      0.578793
  H      -0.016778      1.845263      0.541902
  H       0.004050      0.297334     -0.340066
  C       1.939446      0.864223      0.523296
  H       2.316699      1.415168      1.421599
  H       2.242982      1.482191     -0.355864
  C       2.640226     -0.519619      0.452518
  H       2.217812     -1.105465     -0.400043
  H       2.397595     -1.106419      1.370059
  C       4.186541     -0.431803      0.298201
  H       4.656676     -1.380904      0.652871
  H       4.580311      0.371228      0.968537
  C       4.668907     -0.136110     -1.159721
  H       5.762859      0.093006     -1.125480
  H       4.175898      0.788285     -1.535567
  C       4.434717     -1.300385     -2.108081
  H       4.954964     -2.241269     -1.830937
  C       3.648355     -1.312490     -3.213341
  H       3.588738     -2.258154     -3.788142
  C       2.877863     -0.127232     -3.787998
  H       2.461158      0.499223     -2.965488
  H       1.999918     -0.506502     -4.363798
  C       3.731347      0.782897     -4.730496
  H       4.532683      1.278918     -4.130362
  H       3.079881      1.604560     -5.118105
  C       4.371579      0.033415     -5.928227
  H       3.572400     -0.500941     -6.501004
  H       5.048515     -0.758130     -5.532725
  C       5.155220      0.969299     -6.885196
  H       6.007689      1.428267     -6.324916
  H       4.493463      1.824344     -7.168474
  C       5.701392      0.321182     -8.191691
  H       5.972525      1.146995     -8.892502
  H       4.875956     -0.238320     -8.699862
  C       6.934457     -0.621168     -8.032898
  H       7.609253     -0.216245     -7.236921
  H       7.536692     -0.588892     -8.973522
  C       6.612016     -2.110789     -7.728316
  H       6.051642     -2.542192     -8.595195
  H       5.923096     -2.190124     -6.856044
  C       7.880249     -2.961584     -7.468162
  H       8.433574     -2.599416     -6.568824
  H       8.585153     -2.912180     -8.331591
  H       7.630218     -4.034341     -7.298370
  C      -3.802605     -3.852708      0.286301
  H      -3.376968     -4.698839     -0.306735
  H      -3.110169     -3.693322      1.144571
  C      -3.841044     -2.585061     -0.604692
  H      -4.282960     -1.734646     -0.030335
  H      -4.528399     -2.761722     -1.468286
  C      -2.439481     -2.158022     -1.117606
  H      -2.000907     -2.985047     -1.730425
  H      -1.756206     -2.046808     -0.241757
  C      -2.445353     -0.849983     -1.962289
  H      -3.163868     -0.120995     -1.513605
  H      -1.444869     -0.355957     -1.904377
  C      -2.811331     -1.073683     -3.452635
  H      -2.089239     -1.797167     -3.902402
  H      -3.814510     -1.562054     -3.522812
  C      -2.837334      0.230175     -4.303357
  H      -2.897765     -0.061973     -5.382782
  H      -1.869759      0.772601     -4.190348
  C      -4.020619      1.131499     -3.982658
  H      -4.995230      0.602198     -3.912158
  C      -4.032597      2.475285     -3.804450
  H      -5.015263      2.949091     -3.596421
  C      -2.858501      3.437937     -3.815833
  H      -3.074784      4.261989     -4.542063
  H      -1.925663      2.945739     -4.176441
  C      -2.605845      4.084609     -2.418701
  H      -2.451575      3.272669     -1.670603
  H      -3.531287      4.624110     -2.095914
  C      -1.405921      5.070303     -2.399304
  H      -0.455633      4.494849     -2.524501
  H      -1.474206      5.741931     -3.289289
  C      -1.312003      5.943480     -1.117195
  H      -0.482354      6.682247     -1.241242
  H      -2.245155      6.553178     -1.021881
  C      -1.088666      5.149956      0.198515
  H      -0.140093      4.566812      0.104858
  H      -1.899874      4.393697      0.327280
  C      -1.035974      6.057799      1.456633
  H      -0.102332      6.674141      1.432078
  H      -1.876630      6.791819      1.400157
  C      -1.132656      5.312453      2.818675
  H      -1.106530      6.076701      3.635116
  H      -2.135098      4.822984      2.901193
  C      -0.013391      4.269585      3.084720
  H       0.958608      4.758439      3.329690
  H      -0.278840      3.609344      3.943406
  H       0.147311      3.598677      2.211521
138
Coordinates from ORCA-job /wrk/rja7/qm_final_3_replicates/qm_final_1.1/qm/8/freq E -2722.576518967650
  N       0.686148     -2.687004      6.715458
  C       0.795977     -1.150979      6.428892
  H       1.399044     -1.079157      5.494965
  H       1.388287     -0.735383      7.274632
  C       0.047438     -2.982094      8.083745
  H       0.227133     -4.055577      8.306238
  H       0.529797     -2.344208      8.851137
  H      -1.043534     -2.788163      8.011273
  C       2.105938     -3.238671      6.708624
  H       2.068903     -4.340029      6.835840
  H       2.589816     -2.989716      5.742093
  H       2.677936     -2.779638      7.541013
  C      -0.140726     -3.385353      5.629621
  H      -0.098956     -4.477528      5.826820
  H       0.291579     -3.154767      4.635432
  H      -1.189466     -3.032801      5.705369
  C      -0.517574     -0.368864      6.232008
  H      -0.206560      0.612652      5.777830
  H      -1.129349     -0.883704      5.459435
  P      -2.863648     -0.729791      7.520904
  O      -3.408102     -0.308062      8.862475
  O      -2.837510     -2.192365      7.005001
  O      -1.221476     -0.158146      7.444821
  O      -3.466642      0.252676      6.242151
  C      -4.629677     -0.204126      5.537383
  H      -5.156988      0.700725      5.146586
  H      -5.345178     -0.741840      6.210013
  C      -4.271029     -1.143656      4.356521
  H      -3.648403     -1.977426      4.739479
  O      -3.490272     -0.340194      3.383379
  C      -2.266130     -0.764873      2.972675
  O      -1.722986     -1.814408      3.315395
  C      -1.650232      0.251579      1.992985
  H      -1.919798      1.278321      2.330544
  H      -2.173032      0.112803      1.015883
  C      -5.497070     -1.698624      3.619530
  H      -6.072824     -0.897624      3.099853
  H      -6.186621     -2.207057      4.335059
  O      -5.000970     -2.674882      2.652248
  C      -5.883856     -3.177665      1.722357
  O      -7.054845     -2.838438      1.640317
  C      -5.180834     -4.233491      0.848935
  H      -5.057016     -5.145247      1.482937
  H      -5.880436     -4.499287      0.025439
  C      -0.121259      0.085480      1.818985
  H       0.110618     -1.001533      1.766363
  H       0.395315      0.465759      2.736091
  C       0.445986      0.819773      0.576158
  H       0.061302      1.867787      0.550066
  H       0.049475      0.327381     -0.345795
  C       1.998199      0.849091      0.515954
  H       2.389671      1.388102      1.414974
  H       2.311074      1.464410     -0.361782
  C       2.669721     -0.548679      0.439801
  H       2.232317     -1.123435     -0.412714
  H       2.417934     -1.132075      1.357472
  C       4.216872     -0.492647      0.281150
  H       4.667249     -1.457155      0.619423
  H       4.629874      0.291124      0.962550
  C       4.701267     -0.184925     -1.173363
  H       5.800764      0.015855     -1.139201
  H       4.230843      0.757783     -1.532021
  C       4.435437     -1.327396     -2.139757
  H       4.932560     -2.285285     -1.878722
  C       3.648971     -1.302169     -3.244972
  H       3.567159     -2.236551     -3.835342
  C       2.905988     -0.090079     -3.799787
  H       2.506475      0.533769     -2.966878
  H       2.017945     -0.439085     -4.379196
  C       3.779601      0.813418     -4.729845
  H       4.596591      1.276132     -4.124419
  H       3.149649      1.659596     -5.099698
  C       4.395111      0.067775     -5.942531
  H       3.579865     -0.432350     -6.523366
  H       5.048966     -0.750559     -5.562884
  C       5.204800      0.996919     -6.884091
  H       6.070033      1.422224     -6.316830
  H       4.567347      1.874830     -7.153705
  C       5.733159      0.354280     -8.200401
  H       6.033375      1.183073     -8.885253
  H       4.891993     -0.169163     -8.720608
  C       6.935486     -0.628954     -8.054694
  H       7.620699     -0.258308     -7.251051
  H       7.540410     -0.599663     -8.993671
  C       6.566708     -2.112597     -7.775694
  H       5.989643     -2.509766     -8.647636
  H       5.879314     -2.185977     -6.901696
  C       7.808329     -3.007376     -7.536266
  H       8.376106     -2.678504     -6.633549
  H       8.510749     -2.964971     -8.401977
  H       7.525125     -4.074490     -7.384185
  C      -3.784216     -3.811300      0.306139
  H      -3.370790     -4.665509     -0.283937
  H      -3.087968     -3.656304      1.162106
  C      -3.808917     -2.548100     -0.592006
  H      -4.244479     -1.690016     -0.024098
  H      -4.496693     -2.724510     -1.455236
  C      -2.402573     -2.136275     -1.104580
  H      -1.965658     -2.975658     -1.701370
  H      -1.723141     -2.013417     -0.227278
  C      -2.397764     -0.843179     -1.972100
  H      -3.112376     -0.101893     -1.537656
  H      -1.393412     -0.355550     -1.920647
  C      -2.759781     -1.089811     -3.460248
  H      -2.035120     -1.818955     -3.896361
  H      -3.761708     -1.580913     -3.527218
  C      -2.781947      0.201979     -4.329675
  H      -2.831330     -0.105034     -5.405607
  H      -1.817156      0.749156     -4.215035
  C      -3.971926      1.103509     -4.035747
  H      -4.946259      0.572719     -3.978792
  C      -3.989351      2.448694     -3.868310
  H      -4.976315      2.923586     -3.685192
  C      -2.814480      3.410893     -3.856410
  H      -3.005716      4.225398     -4.600099
  H      -1.870682      2.913624     -4.179747
  C      -2.611493      4.072277     -2.458894
  H      -2.482704      3.267254     -1.699836
  H      -3.548925      4.612444     -2.174552
  C      -1.414553      5.059094     -2.399597
  H      -0.459025      4.484856     -2.486652
  H      -1.449538      5.727558     -3.293906
  C      -1.372073      5.932716     -1.115235
  H      -0.537658      6.670993     -1.204602
  H      -2.307971      6.542866     -1.058288
  C      -1.206224      5.136056      0.207319
  H      -0.257275      4.548490      0.153153
  H      -2.026317      4.383984      0.301496
  C      -1.203216      6.040288      1.469127
  H      -0.268262      6.654928      1.485145
  H      -2.040122      6.775320      1.380171
  C      -1.357662      5.289845      2.822975
  H      -1.373116      6.051102      3.641467
  H      -2.359402      4.794166      2.857345
  C      -0.246547      4.252278      3.137143
  H       0.714866      4.746240      3.411823
  H      -0.540919      3.599768      3.992239
  H      -0.051553      3.573340      2.276663
138
Coordinates from ORCA-job /wrk/rja7/qm_final_3_replicates/qm_final_1.1/qm/8/freq E -2722.577311392958
  N       0.697658     -2.700973      6.723837
  C       0.838643     -1.165621      6.452247
  H       1.454095     -1.090988      5.526347
  H       1.425932     -0.768652      7.309102
  C       0.033767     -2.988302      8.082013
  H       0.190321     -4.065169      8.305665
  H       0.516444     -2.360371      8.857326
  H      -1.052959     -2.772458      7.992737
  C       2.106168     -3.279756      6.729807
  H       2.046114     -4.380324      6.854100
  H       2.602966     -3.037376      5.768082
  H       2.678901     -2.834193      7.569272
  C      -0.129211     -3.378715      5.624349
  H      -0.103389     -4.472574      5.812998
  H       0.314158     -3.144224      4.636398
  H      -1.173262     -3.012406      5.697195
  C      -0.463012     -0.366549      6.256635
  H      -0.138353      0.618736      5.825989
  H      -1.072489     -0.857472      5.470037
  P      -2.809819     -0.755746      7.533517
  O      -3.358367     -0.353633      8.878602
  O      -2.777038     -2.211309      7.001119
  O      -1.172115     -0.177099      7.468873
  O      -3.415811      0.240238      6.265812
  C      -4.582456     -0.206179      5.559936
  H      -5.111500      0.704435      5.185324
  H      -5.294414     -0.753056      6.228830
  C      -4.233072     -1.128573      4.363665
  H      -3.605459     -1.966557      4.728860
  O      -3.465613     -0.314085      3.390130
  C      -2.243259     -0.731850      2.968246
  O      -1.692181     -1.778298      3.308054
  C      -1.638327      0.284850      1.982690
  H      -1.911357      1.312592      2.315380
  H      -2.163542      0.135826      1.008518
  C      -5.464402     -1.678399      3.631373
  H      -6.045025     -0.874249      3.122526
  H      -6.147613     -2.193651      4.348153
  O      -4.974951     -2.646190      2.651782
  C      -5.864785     -3.135162      1.720638
  O      -7.033233     -2.787381      1.647045
  C      -5.174536     -4.189227      0.834516
  H      -5.059728     -5.108158      1.459865
  H      -5.879400     -4.440057      0.010849
  C      -0.109041      0.125629      1.807223
  H       0.127801     -0.960491      1.758154
  H       0.406076      0.511117      2.722944
  C       0.456253      0.852849      0.559523
  H       0.072989      1.900995      0.525880
  H       0.058925      0.354212     -0.359143
  C       2.008357      0.878835      0.500039
  H       2.401176      1.427037      1.392892
  H       2.323125      1.482583     -0.384875
  C       2.673777     -0.522807      0.442618
  H       2.232268     -1.106700     -0.401554
  H       2.420125     -1.091687      1.369053
  C       4.220698     -0.478415      0.281551
  H       4.663790     -1.445210      0.622737
  H       4.640241      0.304700      0.959663
  C       4.706145     -0.180706     -1.174427
  H       5.807927      0.007466     -1.141848
  H       4.246202      0.766143     -1.535534
  C       4.426801     -1.322618     -2.137620
  H       4.912166     -2.285717     -1.873472
  C       3.643056     -1.290356     -3.244715
  H       3.551398     -2.224819     -3.833608
  C       2.915873     -0.070007     -3.802467
  H       2.525488      0.560584     -2.970533
  H       2.023044     -0.407732     -4.381094
  C       3.802117      0.820168     -4.732934
  H       4.627439      1.267368     -4.127574
  H       3.186209      1.677556     -5.100426
  C       4.403579      0.066151     -5.946965
  H       3.579738     -0.416913     -6.529821
  H       5.041573     -0.765585     -5.569240
  C       5.231618      0.981933     -6.885354
  H       6.103387      1.390567     -6.315734
  H       4.610385      1.871411     -7.156109
  C       5.751960      0.330581     -8.200239
  H       6.073479      1.154129     -8.881241
  H       4.902904     -0.173807     -8.725694
  C       6.933366     -0.676797     -8.049820
  H       7.622089     -0.319784     -7.243132
  H       7.542672     -0.658815     -8.986258
  C       6.535103     -2.152911     -7.772923
  H       5.950377     -2.537392     -8.644907
  H       5.847045     -2.214100     -6.898443
  C       7.759324     -3.071452     -7.533879
  H       8.332623     -2.753305     -6.631380
  H       8.462205     -3.042202     -8.399586
  H       7.455600     -4.132859     -7.382054
  C      -3.775794     -3.778263      0.289259
  H      -3.372102     -4.634409     -0.304590
  H      -3.075299     -3.631800      1.142960
  C      -3.792811     -2.512877     -0.606037
  H      -4.221485     -1.652296     -0.036360
  H      -4.484056     -2.684187     -1.467404
  C      -2.385062     -2.110420     -1.122051
  H      -1.952636     -2.955400     -1.713820
  H      -1.704530     -1.984443     -0.246495
  C      -2.376156     -0.823625     -1.998504
  H      -3.084476     -0.075101     -1.566128
  H      -1.368129     -0.341825     -1.955293
  C      -2.744221     -1.079359     -3.484017
  H      -2.020953     -1.811420     -3.917328
  H      -3.746028     -1.571028     -3.545303
  C      -2.766040      0.207743     -4.360775
  H      -2.814714     -0.103913     -5.435427
  H      -1.801286      0.755242     -4.247841
  C      -3.956470      1.111075     -4.074465
  H      -4.931073      0.581088     -4.025737
  C      -3.973735      2.456210     -3.905373
  H      -4.961202      2.932814     -3.730844
  C      -2.796620      3.416188     -3.877176
  H      -2.972022      4.229804     -4.625592
  H      -1.848946      2.915600     -4.183266
  C      -2.619302      4.075864     -2.476006
  H      -2.506591      3.268417     -1.717615
  H      -3.561391      4.616246     -2.208864
  C      -1.422231      5.059433     -2.386403
  H      -0.465938      4.484133     -2.458277
  H      -1.437541      5.734742     -3.276191
  C      -1.405176      5.921302     -1.093435
  H      -0.566677      6.657373     -1.158053
  H      -2.340451      6.533492     -1.052195
  C      -1.272621      5.112461      0.225506
  H      -0.326250      4.519188      0.189387
  H      -2.099690      4.365144      0.296518
  C      -1.294602      6.006099      1.494893
  H      -0.358025      6.616910      1.538194
  H      -2.127204      6.744242      1.392599
  C      -1.483942      5.243597      2.837101
  H      -1.522914      5.996568      3.660914
  H      -2.484533      4.745979      2.838849
  C      -0.381821      4.204476      3.172783
  H       0.574994      4.697386      3.464772
  H      -0.694764      3.555898      4.023306
  H      -0.169799      3.522905      2.317818
138
Coordinates from ORCA-job /wrk/rja7/qm_final_3_replicates/qm_final_1.1/qm/8/freq E -2722.578202603348
  N       0.676852     -2.718743      6.743671
  C       0.847352     -1.184519      6.484649
  H       1.470161     -1.115201      5.563378
  H       1.436165     -0.804736      7.348371
  C       0.010676     -3.004256      8.101694
  H       0.150884     -4.084825      8.318231
  H       0.504988     -2.389015      8.879778
  H      -1.072925     -2.770908      8.015423
  C       2.073414     -3.325999      6.741133
  H       1.991082     -4.425270      6.863817
  H       2.569595     -3.091551      5.777120
  H       2.659409     -2.894592      7.578786
  C      -0.166476     -3.369143      5.639374
  H      -0.153762     -4.465977      5.811474
  H       0.273512     -3.124059      4.652451
  H      -1.204720     -2.989012      5.725696
  C      -0.436298     -0.356288      6.284722
  H      -0.082235      0.628341      5.875796
  H      -1.046205     -0.819318      5.480896
  P      -2.799164     -0.727861      7.543039
  O      -3.355653     -0.315506      8.881416
  O      -2.778865     -2.185410      7.016811
  O      -1.157335     -0.165422      7.490357
  O      -3.384936      0.268696      6.266293
  C      -4.556251     -0.165688      5.561188
  H      -5.075913      0.750037      5.185871
  H      -5.274099     -0.704848      6.230010
  C      -4.214489     -1.091103      4.365736
  H      -3.589868     -1.932186      4.729104
  O      -3.447318     -0.283121      3.387601
  C      -2.224429     -0.703656      2.970165
  O      -1.669471     -1.743125      3.325549
  C      -1.623084      0.300367      1.970131
  H      -1.904634      1.331871      2.282450
  H      -2.142343      0.127816      0.996555
  C      -5.448906     -1.637516      3.636116
  H      -6.025677     -0.832762      3.124012
  H      -6.134414     -2.146880      4.354930
  O      -4.963601     -2.609670      2.658374
  C      -5.854915     -3.088465      1.723002
  O      -7.019959     -2.729697      1.646738
  C      -5.172311     -4.145441      0.834306
  H      -5.072872     -5.069332      1.455075
  H      -5.876940     -4.383021      0.006448
  C      -0.091861      0.150066      1.805675
  H       0.153350     -0.934684      1.770752
  H       0.414974      0.549899      2.719594
  C       0.474937      0.863528      0.551187
  H       0.090834      1.910738      0.503445
  H       0.079410      0.353095     -0.360997
  C       2.027233      0.889149      0.491982
  H       2.420760      1.452716      1.375045
  H       2.341489      1.476884     -0.403647
  C       2.691250     -0.514409      0.457431
  H       2.245208     -1.112410     -0.374433
  H       2.440492     -1.065371      1.395245
  C       4.237305     -0.476770      0.288913
  H       4.677134     -1.445619      0.628734
  H       4.663115      0.304752      0.964992
  C       4.718794     -0.182730     -1.169153
  H       5.822519     -0.005360     -1.140327
  H       4.267052      0.768943     -1.527791
  C       4.426940     -1.320820     -2.133563
  H       4.903136     -2.288858     -1.870803
  C       3.645813     -1.279028     -3.242435
  H       3.547193     -2.211133     -3.833895
  C       2.929492     -0.050876     -3.797112
  H       2.547048      0.580501     -2.962366
  H       2.031973     -0.378130     -4.374978
  C       3.823132      0.835226     -4.724706
  H       4.657462      1.264422     -4.118669
  H       3.217433      1.704802     -5.080383
  C       4.408851      0.086365     -5.949663
  H       3.575876     -0.375295     -6.536894
  H       5.033918     -0.760834     -5.584796
  C       5.250022      1.000717     -6.878221
  H       6.127778      1.389852     -6.304269
  H       4.641382      1.901704     -7.138999
  C       5.761612      0.357529     -8.200758
  H       6.102597      1.184465     -8.868539
  H       4.904646     -0.122051     -8.736561
  C       6.923456     -0.673878     -8.061216
  H       7.617279     -0.339635     -7.249129
  H       7.534306     -0.654711     -8.996680
  C       6.498809     -2.146095     -7.804200
  H       5.901483     -2.506391     -8.678026
  H       5.815776     -2.208128     -6.925745
  C       7.707587     -3.090324     -7.586176
  H       8.292095     -2.794869     -6.683102
  H       8.405272     -3.061985     -8.456115
  H       7.385193     -4.147938     -7.446898
  C      -3.767317     -3.749355      0.294070
  H      -3.368946     -4.611381     -0.294799
  H      -3.068554     -3.605444      1.149806
  C      -3.771135     -2.487609     -0.606878
  H      -4.197367     -1.621490     -0.043671
  H      -4.460203     -2.659703     -1.469823
  C      -2.359551     -2.096442     -1.121751
  H      -1.925746     -2.951770     -1.697477
  H      -1.683242     -1.956814     -0.244867
  C      -2.344962     -0.823877     -2.018893
  H      -3.048334     -0.064912     -1.596693
  H      -1.334666     -0.347036     -1.986269
  C      -2.716708     -1.099700     -3.499909
  H      -1.991159     -1.833719     -3.926537
  H      -3.716405     -1.596590     -3.552274
  C      -2.745658      0.178011     -4.390082
  H      -2.793094     -0.142798     -5.462050
  H      -1.783926      0.731681     -4.282120
  C      -3.939966      1.077864     -4.109813
  H      -4.913215      0.544429     -4.068973
  C      -3.962265      2.422287     -3.936346
  H      -4.952074      2.895839     -3.766788
  C      -2.787689      3.385458     -3.892723
  H      -2.952852      4.197159     -4.645689
  H      -1.834793      2.885662     -4.183362
  C      -2.633053      4.045254     -2.488893
  H      -2.526924      3.236448     -1.730766
  H      -3.581482      4.580240     -2.233464
  C      -1.442705      5.035091     -2.380609
  H      -0.482281      4.466334     -2.448122
  H      -1.454031      5.717154     -3.265286
  C      -1.441189      5.886823     -1.080402
  H      -0.606109      6.627687     -1.133355
  H      -2.380461      6.493038     -1.042291
  C      -1.311829      5.070470      0.234077
  H      -0.363260      4.480613      0.200408
  H      -2.136768      4.320280      0.298173
  C      -1.344608      5.956763      1.508702
  H      -0.413301      6.575026      1.558923
  H      -2.183583      6.687798      1.407534
  C      -1.531579      5.184004      2.845046
  H      -1.592391      5.931607      3.672648
  H      -2.522560      4.667198      2.834129
  C      -0.413904      4.163990      3.186851
  H       0.537251      4.674138      3.468080
  H      -0.715098      3.522993      4.047357
  H      -0.194260      3.475060      2.339788
138
Coordinates from ORCA-job /wrk/rja7/qm_final_3_replicates/qm_final_1.1/qm/8/freq E -2722.579388224632
  N       0.695559     -2.682459      6.789339
  C       0.851904     -1.145151      6.545729
  H       1.497831     -1.060508      5.641994
  H       1.411872     -0.764584      7.427831
  C       0.002402     -2.983967      8.130851
  H       0.156584     -4.062509      8.347753
  H       0.468164     -2.362613      8.921528
  H      -1.082778     -2.768409      8.019118
  C       2.099182     -3.272798      6.815876
  H       2.026197     -4.372166      6.942535
  H       2.610194     -3.036609      5.860005
  H       2.663545     -2.831203      7.662958
  C      -0.112870     -3.335433      5.658964
  H      -0.077552     -4.434057      5.815091
  H       0.339873     -3.063368      4.685102
  H      -1.160596     -2.978260      5.731352
  C      -0.433893     -0.324276      6.319581
  H      -0.068059      0.669284      5.945475
  H      -1.015108     -0.771054      5.486240
  P      -2.824628     -0.736509      7.523091
  O      -3.413166     -0.337693      8.851590
  O      -2.780215     -2.190975      6.990966
  O      -1.192944     -0.152483      7.505131
  O      -3.399092      0.259079      6.240007
  C      -4.571642     -0.172357      5.535362
  H      -5.089771      0.744682      5.160941
  H      -5.291262     -0.711183      6.202464
  C      -4.228675     -1.093777      4.338392
  H      -3.603754     -1.936505      4.697430
  O      -3.461409     -0.283523      3.362902
  C      -2.232688     -0.697252      2.956272
  O      -1.671538     -1.728739      3.325669
  C      -1.633784      0.299942      1.948487
  H      -1.932182      1.332458      2.239415
  H      -2.136556      0.101679      0.970887
  C      -5.459209     -1.641069      3.602338
  H      -6.035038     -0.837326      3.087951
  H      -6.147312     -2.153376      4.316507
  O      -4.964753     -2.609584      2.624510
  C      -5.844692     -3.075105      1.671577
  O      -7.007465     -2.711631      1.583239
  C      -5.155565     -4.126437      0.781278
  H      -5.077238     -5.059674      1.391180
  H      -5.849838     -4.346531     -0.060161
  C      -0.098822      0.165065      1.808826
  H       0.157948     -0.917379      1.786544
  H       0.389930      0.576896      2.726830
  C       0.480698      0.868446      0.555204
  H       0.101505      1.916605      0.494480
  H       0.090799      0.351446     -0.355149
  C       2.033750      0.882642      0.505807
  H       2.428270      1.457309      1.381103
  H       2.357158      1.451347     -0.398474
  C       2.682594     -0.529232      0.496524
  H       2.227034     -1.136081     -0.323746
  H       2.426397     -1.058303      1.445249
  C       4.228126     -0.517816      0.324565
  H       4.648898     -1.498424      0.655001
  H       4.669973      0.249137      1.007017
  C       4.714059     -0.221829     -1.131369
  H       5.822902     -0.079155     -1.102600
  H       4.291862      0.747622     -1.477899
  C       4.387324     -1.337497     -2.110989
  H       4.829746     -2.324273     -1.858980
  C       3.616596     -1.253844     -3.224928
  H       3.491591     -2.173155     -3.831276
  C       2.945662      0.006677     -3.763385
  H       2.585958      0.637566     -2.918433
  H       2.037170     -0.278049     -4.346969
  C       3.873964      0.876537     -4.671972
  H       4.729350      1.248574     -4.057648
  H       3.307290      1.782927     -4.998902
  C       4.419914      0.139584     -5.921937
  H       3.564271     -0.255699     -6.524777
  H       4.998799     -0.752315     -5.588459
  C       5.310352      1.040716     -6.817334
  H       6.205681      1.362981     -6.229135
  H       4.749410      1.980136     -7.047481
  C       5.791418      0.420132     -8.161991
  H       6.190383      1.250708     -8.792417
  H       4.910377      0.019195     -8.722829
  C       6.885285     -0.686950     -8.060078
  H       7.594690     -0.429285     -7.233643
  H       7.500502     -0.668096     -8.992754
  C       6.369554     -2.139097     -7.864229
  H       5.744588     -2.421916     -8.747029
  H       5.690961     -2.197879     -6.982026
  C       7.518042     -3.166206     -7.699415
  H       8.126891     -2.947163     -6.790677
  H       8.209146     -3.144463     -8.574725
  H       7.130153     -4.206327     -7.601864
  C      -3.740171     -3.738428      0.263564
  H      -3.338733     -4.601656     -0.321231
  H      -3.052070     -3.600148      1.129037
  C      -3.726640     -2.475314     -0.635391
  H      -4.154992     -1.607437     -0.076367
  H      -4.408695     -2.644855     -1.504338
  C      -2.309967     -2.091070     -1.141747
  H      -1.870365     -2.953778     -1.701645
  H      -1.641398     -1.937333     -0.261397
  C      -2.291227     -0.831142     -2.056071
  H      -2.988307     -0.062567     -1.640760
  H      -1.278535     -0.359483     -2.036307
  C      -2.670683     -1.124956     -3.531631
  H      -1.941085     -1.856784     -3.955484
  H      -3.666026     -1.631366     -3.572008
  C      -2.716020      0.144479     -4.433151
  H      -2.767051     -0.183845     -5.502474
  H      -1.758709      0.707350     -4.334398
  C      -3.915701      1.036417     -4.150555
  H      -4.885462      0.496147     -4.119473
  C      -3.947934      2.378703     -3.962607
  H      -4.941707      2.843165     -3.791371
  C      -2.781774      3.352161     -3.901334
  H      -2.943601      4.163766     -4.655158
  H      -1.821735      2.859938     -4.181053
  C      -2.648908      4.008834     -2.493550
  H      -2.537860      3.197529     -1.737686
  H      -3.606844      4.528899     -2.243113
  C      -1.475456      5.017334     -2.374418
  H      -0.505316      4.466483     -2.451271
  H      -1.501414      5.710065     -3.250520
  C      -1.484512      5.856963     -1.066013
  H      -0.663459      6.613408     -1.118237
  H      -2.435451      6.443931     -1.018902
  C      -1.327929      5.038070      0.242992
  H      -0.369956      4.464375      0.199373
  H      -2.139389      4.273913      0.315381
  C      -1.364631      5.921349      1.520356
  H      -0.448587      6.562786      1.558955
  H      -2.224210      6.629846      1.432689
  C      -1.509697      5.140232      2.856036
  H      -1.595337      5.881743      3.686630
  H      -2.477971      4.581844      2.850300
  C      -0.348845      4.167069      3.186116
  H       0.591246      4.716864      3.427651
  H      -0.604785      3.538632      4.069844
  H      -0.126661      3.467864      2.348459
138
Coordinates from ORCA-job /wrk/rja7/qm_final_3_replicates/qm_final_1.1/qm/8/freq E -2722.580458409871
  N       0.575280     -2.694921      6.878769
  C       0.794600     -1.170013      6.614949
  H       1.459955     -1.124108      5.723087
  H       1.350868     -0.794521      7.501180
  C      -0.136947     -2.948279      8.220729
  H      -0.019895     -4.026990      8.458489
  H       0.344961     -2.328280      9.002780
  H      -1.213365     -2.698116      8.097009
  C       1.953133     -3.341960      6.924384
  H       1.832415     -4.432790      7.083347
  H       2.473972     -3.155489      5.962712
  H       2.534364     -2.900604      7.760203
  C      -0.250775     -3.330991      5.749153
  H      -0.243437     -4.429450      5.908834
  H       0.210070     -3.072086      4.775512
  H      -1.288378     -2.943103      5.818680
  C      -0.451955     -0.298702      6.350765
  H      -0.028409      0.676977      5.991806
  H      -1.027944     -0.718289      5.499787
  P      -2.875234     -0.626536      7.520453
  O      -3.480906     -0.175197      8.824311
  O      -2.861472     -2.096729      7.031990
  O      -1.234601     -0.081763      7.513543
  O      -3.397787      0.343844      6.196860
  C      -4.566489     -0.084123      5.485052
  H      -5.069175      0.832037      5.087695
  H      -5.302591     -0.605051      6.148382
  C      -4.207438     -1.024904      4.309617
  H      -3.586703     -1.861792      4.689361
  O      -3.426384     -0.229262      3.333444
  C      -2.180879     -0.635180      2.972128
  O      -1.613302     -1.644498      3.390551
  C      -1.580113      0.327442      1.932475
  H      -1.907915      1.365672      2.164446
  H      -2.052971      0.067661      0.954547
  C      -5.423920     -1.587679      3.560451
  H      -5.992293     -0.795097      3.021492
  H      -6.123742     -2.090613      4.269822
  O      -4.908098     -2.570601      2.606515
  C      -5.764785     -3.038662      1.633771
  O      -6.924737     -2.674366      1.516443
  C      -5.059593     -4.095638      0.762653
  H      -5.007346     -5.029956      1.373906
  H      -5.736536     -4.309886     -0.094487
  C      -0.039816      0.218389      1.833232
  H       0.237336     -0.859021      1.853838
  H       0.420739      0.670377      2.746677
  C       0.552792      0.884732      0.566112
  H       0.172664      1.929734      0.468131
  H       0.172173      0.338827     -0.331202
  C       2.106894      0.895601      0.525853
  H       2.501127      1.497761      1.382329
  H       2.434031      1.431794     -0.396237
  C       2.749521     -0.520076      0.560459
  H       2.284626     -1.149727     -0.237188
  H       2.495036     -1.013836      1.527950
  C       4.293346     -0.530643      0.379758
  H       4.696950     -1.522317      0.698949
  H       4.752250      0.221544      1.067435
  C       4.778664     -0.232256     -1.075414
  H       5.892370     -0.131242     -1.052716
  H       4.391728      0.757066     -1.405958
  C       4.405713     -1.319110     -2.070995
  H       4.805601     -2.327426     -1.833408
  C       3.642791     -1.185159     -3.185381
  H       3.480167     -2.087989     -3.807412
  C       3.025893      0.112854     -3.698592
  H       2.705045      0.744049     -2.838292
  H       2.099024     -0.118384     -4.277079
  C       3.987154      0.956806     -4.596680
  H       4.877835      1.248396     -3.988917
  H       3.472623      1.909682     -4.873936
  C       4.454529      0.241178     -5.889549
  H       3.560474     -0.054310     -6.493956
  H       4.967320     -0.709172     -5.613794
  C       5.398939      1.116286     -6.755433
  H       6.329953      1.330922     -6.173043
  H       4.911417      2.109012     -6.918974
  C       5.794676      0.542351     -8.147550
  H       6.273964      1.367614     -8.727320
  H       4.867496      0.281693     -8.717069
  C       6.759073     -0.682805     -8.151019
  H       7.510530     -0.567652     -7.329571
  H       7.352402     -0.663700     -9.097849
  C       6.086094     -2.078497     -8.045434
  H       5.393258     -2.209818     -8.912824
  H       5.446004     -2.138235     -7.134882
  C       7.110839     -3.240941     -8.031949
  H       7.785726     -3.175560     -7.145791
  H       7.755816     -3.222092     -8.941809
  H       6.606379     -4.233999     -7.997409
  C      -3.630709     -3.723272      0.272548
  H      -3.222065     -4.596607     -0.291642
  H      -2.960043     -3.577120      1.150520
  C      -3.593423     -2.472265     -0.642394
  H      -4.026432     -1.594967     -0.101903
  H      -4.263723     -2.650421     -1.518635
  C      -2.169062     -2.103082     -1.138646
  H      -1.720052     -2.981613     -1.665089
  H      -1.513386     -1.918805     -0.254812
  C      -2.141495     -0.870632     -2.088947
  H      -2.833130     -0.085716     -1.695507
  H      -1.125582     -0.405438     -2.084395
  C      -2.521380     -1.203303     -3.556581
  H      -1.779800     -1.930859     -3.966884
  H      -3.507243     -1.728559     -3.581991
  C      -2.591880      0.046636     -4.484231
  H      -2.634440     -0.302392     -5.546984
  H      -1.647188      0.632025     -4.394716
  C      -3.810747      0.917448     -4.218145
  H      -4.770923      0.359713     -4.211456
  C      -3.871205      2.256595     -4.015770
  H      -4.876694      2.700364     -3.858542
  C      -2.726914      3.253517     -3.918994
  H      -2.879483      4.059149     -4.681075
  H      -1.748799      2.779006     -4.165199
  C      -2.652086      3.914952     -2.509209
  H      -2.539601      3.106819     -1.749598
  H      -3.630513      4.407906     -2.284716
  C      -1.512851      4.957417     -2.361811
  H      -0.524535      4.438764     -2.431005
  H      -1.549554      5.659416     -3.230186
  C      -1.566322      5.782826     -1.045784
  H      -0.769537      6.565861     -1.081338
  H      -2.536812      6.337192     -1.005126
  C      -1.395065      4.958784      0.256984
  H      -0.421459      4.411876      0.215934
  H      -2.185655      4.171922      0.321275
  C      -1.462929      5.830500      1.541707
  H      -0.571581      6.505579      1.583555
  H      -2.349927      6.505393      1.462756
  C      -1.568203      5.030212      2.868873
  H      -1.699223      5.754174      3.708568
  H      -2.501589      4.415312      2.853017
  C      -0.354526      4.121194      3.187092
  H       0.564439      4.721614      3.386408
  H      -0.556040      3.505896      4.093742
  H      -0.121679      3.414659      2.358747
138
Coordinates from ORCA-job /wrk/rja7/qm_final_3_replicates/qm_final_1.1/qm/8/freq E -2722.581655202418
  N       0.596590     -2.753835      6.914728
  C       0.817782     -1.220503      6.716307
  H       1.509786     -1.140191      5.848023
  H       1.345063     -0.873131      7.631523
  C      -0.132397     -3.065926      8.234936
  H      -0.006824     -4.151642      8.432602
  H       0.332420     -2.472066      9.047192
  H      -1.208924     -2.822214      8.106476
  C       1.974330     -3.401428      6.955680
  H       1.851632     -4.495224      7.091683
  H       2.503822     -3.196682      6.002287
  H       2.548971     -2.978289      7.805474
  C      -0.209792     -3.342270      5.745020
  H      -0.186829     -4.447379      5.846401
  H       0.256918     -3.025096      4.791479
  H      -1.252971     -2.969603      5.821727
  C      -0.419022     -0.336700      6.437990
  H       0.025407      0.654217      6.149885
  H      -0.955406     -0.712007      5.541404
  P      -2.887893     -0.718625      7.486750
  O      -3.558647     -0.317033      8.775767
  O      -2.845692     -2.171440      6.948121
  O      -1.255748     -0.163094      7.569310
  O      -3.353475      0.292529      6.172635
  C      -4.532200     -0.081169      5.446997
  H      -5.009242      0.857725      5.071078
  H      -5.284653     -0.598208      6.094817
  C      -4.190921     -1.003262      4.251200
  H      -3.571258     -1.849593      4.611040
  O      -3.416736     -0.195364      3.277212
  C      -2.155711     -0.568198      2.931683
  O      -1.554073     -1.543221      3.382099
  C      -1.591476      0.377216      1.855616
  H      -1.989399      1.402873      2.026196
  H      -2.027270      0.038838      0.885513
  C      -5.418813     -1.546677      3.505996
  H      -5.985314     -0.742997      2.981790
  H      -6.116755     -2.052941      4.214720
  O      -4.921324     -2.521661      2.533831
  C      -5.786520     -2.949177      1.551289
  O      -6.940190     -2.561817      1.444748
  C      -5.107809     -4.005197      0.659484
  H      -5.086207     -4.956187      1.246495
  H      -5.789307     -4.178879     -0.203469
  C      -0.044953      0.361485      1.782507
  H       0.299434     -0.693196      1.867363
  H       0.371008      0.893898      2.673803
  C       0.521857      0.992203      0.484789
  H       0.079396      2.005652      0.328303
  H       0.183299      0.378578     -0.387796
  C       2.073459      1.104082      0.456109
  H       2.414496      1.797966      1.263932
  H       2.373491      1.587644     -0.503074
  C       2.819230     -0.253334      0.607238
  H       2.395949     -0.985535     -0.123312
  H       2.611791     -0.671962      1.619890
  C       4.358516     -0.165094      0.411622
  H       4.829394     -1.106199      0.787450
  H       4.767508      0.657743      1.048041
  C       4.819500      0.070106     -1.062124
  H       5.923411      0.250737     -1.050510
  H       4.365405      1.004431     -1.459630
  C       4.533779     -1.108959     -1.977511
  H       5.006028     -2.064710     -1.666645
  C       3.764915     -1.117604     -3.094901
  H       3.674007     -2.075171     -3.645629
  C       3.039653      0.082095     -3.697757
  H       2.683975      0.759356     -2.887025
  H       2.124708     -0.271425     -4.229781
  C       3.908342      0.916234     -4.692065
  H       4.783584      1.335742     -4.138268
  H       3.309571      1.793635     -5.040266
  C       4.409892      0.122582     -5.924264
  H       3.530864     -0.303533     -6.470255
  H       5.010575     -0.750313     -5.578659
  C       5.249269      0.990922     -6.897879
  H       6.168638      1.348041     -6.369012
  H       4.665462      1.913101     -7.139861
  C       5.660057      0.324330     -8.242409
  H       6.076330      1.124227     -8.900291
  H       4.741038     -0.039478     -8.767156
  C       6.695334     -0.838955     -8.168451
  H       7.463887     -0.609278     -7.388141
  H       7.256540     -0.872996     -9.134325
  C       6.106152     -2.253385     -7.915962
  H       5.363153     -2.479917     -8.720093
  H       5.533313     -2.276334     -6.960100
  C       7.186150     -3.364267     -7.898299
  H       7.922307     -3.205136     -7.074651
  H       7.759715     -3.385693     -8.854825
  H       6.735538     -4.373301     -7.754114
  C      -3.668201     -3.663651      0.181202
  H      -3.279310     -4.541679     -0.389551
  H      -2.998036     -3.543539      1.063835
  C      -3.594965     -2.401915     -0.715832
  H      -3.995357     -1.519945     -0.158397
  H      -4.276616     -2.543211     -1.589900
  C      -2.163488     -2.074975     -1.220033
  H      -1.740099     -2.969372     -1.740671
  H      -1.498535     -1.898500     -0.341657
  C      -2.106765     -0.849216     -2.176809
  H      -2.753559     -0.032146     -1.772672
  H      -1.070341     -0.429094     -2.197278
  C      -2.537158     -1.172285     -3.633879
  H      -1.820537     -1.910776     -4.067300
  H      -3.531689     -1.681491     -3.630655
  C      -2.613198      0.080312     -4.559098
  H      -2.682625     -0.267956     -5.620279
  H      -1.660507      0.655720     -4.489738
  C      -3.816416      0.963716     -4.264877
  H      -4.787848      0.426188     -4.291883
  C      -3.851983      2.293367     -4.003586
  H      -4.850477      2.750419     -3.838725
  C      -2.690518      3.262767     -3.854001
  H      -2.799912      4.079778     -4.611370
  H      -1.714065      2.770482     -4.071846
  C      -2.648696      3.907222     -2.435579
  H      -2.567821      3.090439     -1.681883
  H      -3.626963      4.410002     -2.232691
  C      -1.502352      4.933840     -2.247021
  H      -0.517310      4.407929     -2.308496
  H      -1.517932      5.653235     -3.101654
  C      -1.572913      5.731188     -0.915998
  H      -0.768745      6.507758     -0.917643
  H      -2.538242      6.294686     -0.878975
  C      -1.433609      4.869362      0.364965
  H      -0.471850      4.302471      0.316209
  H      -2.241830      4.098450      0.399719
  C      -1.488437      5.701079      1.676342
  H      -0.589565      6.364853      1.733773
  H      -2.368801      6.387314      1.627256
  C      -1.585246      4.854320      2.975118
  H      -1.718944      5.543290      3.843509
  H      -2.512917      4.230959      2.940700
  C      -0.362647      3.941129      3.242983
  H       0.569791      4.537996      3.381477
  H      -0.517283      3.339695      4.168585
  H      -0.182751      3.224079      2.410667
138
Coordinates from ORCA-job /wrk/rja7/qm_final_3_replicates/qm_final_1.1/qm/8/freq E -2722.582460110741
  N       0.551374     -2.606031      6.987351
  C       0.770004     -1.072279      6.783521
  H       1.483743     -0.993313      5.932452
  H       1.273442     -0.715768      7.710310
  C      -0.218112     -2.913397      8.284772
  H      -0.091114     -3.996203      8.496073
  H       0.214530     -2.309139      9.107302
  H      -1.291331     -2.679997      8.118878
  C       1.931677     -3.244050      7.076661
  H       1.813508     -4.335829      7.233118
  H       2.485084     -3.057360      6.133512
  H       2.482639     -2.800059      7.931499
  C      -0.216148     -3.209820      5.801258
  H      -0.174559     -4.314738      5.905343
  H       0.265274     -2.885936      4.856834
  H      -1.267662     -2.855643      5.857942
  C      -0.462370     -0.194920      6.464522
  H      -0.013799      0.801640      6.190368
  H      -0.968118     -0.572858      5.548015
  P      -2.956272     -0.616187      7.432849
  O      -3.692388     -0.185656      8.676599
  O      -2.865439     -2.086180      6.947709
  O      -1.338154     -0.028800      7.568300
  O      -3.382938      0.342439      6.066140
  C      -4.565984     -0.036506      5.349107
  H      -5.025553      0.897037      4.939873
  H      -5.327869     -0.514670      6.015375
  C      -4.246949     -1.005866      4.182465
  H      -3.660828     -1.863097      4.571307
  O      -3.438390     -0.255468      3.189054
  C      -2.203817     -0.699557      2.831175
  O      -1.654922     -1.709225      3.270414
  C      -1.572047      0.248649      1.797145
  H      -1.926645      1.285798      1.991574
  H      -2.003816     -0.035781      0.808370
  C      -5.489211     -1.524474      3.445877
  H      -6.029395     -0.715181      2.902583
  H      -6.203048     -1.992821      4.164728
  O      -5.022217     -2.536805      2.497717
  C      -5.893049     -2.948418      1.513593
  O      -7.028608     -2.515859      1.382239
  C      -5.231482     -4.021429      0.629457
  H      -5.250418     -4.975175      1.212021
  H      -5.900705     -4.170551     -0.247652
  C      -0.026561      0.165224      1.751169
  H       0.270940     -0.906485      1.780587
  H       0.392497      0.628859      2.677844
  C       0.583442      0.850818      0.502666
  H       0.180437      1.888162      0.409116
  H       0.232605      0.310236     -0.410042
  C       2.136397      0.918467      0.495058
  H       2.485023      1.566563      1.337600
  H       2.457587      1.439104     -0.437572
  C       2.851557     -0.459602      0.590971
  H       2.406692     -1.158506     -0.159152
  H       2.648480     -0.908962      1.591817
  C       4.388963     -0.389149      0.378922
  H       4.845863     -1.361397      0.687024
  H       4.822921      0.383716      1.059849
  C       4.832084     -0.072329     -1.085007
  H       5.939730      0.084733     -1.080212
  H       4.392975      0.893507     -1.419511
  C       4.512260     -1.192462     -2.061371
  H       4.978730     -2.169110     -1.813246
  C       3.725342     -1.133796     -3.165206
  H       3.623370     -2.059669     -3.765766
  C       2.988622      0.093800     -3.694150
  H       2.640171      0.730053     -2.847804
  H       2.067094     -0.239612     -4.229212
  C       3.836245      0.977559     -4.664212
  H       4.710133      1.389844     -4.102574
  H       3.222363      1.858712     -4.974799
  C       4.346451      0.233404     -5.924703
  H       3.472915     -0.189991     -6.481629
  H       4.962435     -0.639473     -5.607707
  C       5.167559      1.145183     -6.874660
  H       6.073980      1.513500     -6.332434
  H       4.562541      2.057987     -7.098618
  C       5.607317      0.519590     -8.229618
  H       6.029987      1.341320     -8.856738
  H       4.701920      0.162093     -8.782046
  C       6.653975     -0.634739     -8.165740
  H       7.405951     -0.414528     -7.366955
  H       7.231882     -0.639806     -9.122380
  C       6.076750     -2.061468     -7.956797
  H       5.329563     -2.267419     -8.763682
  H       5.509529     -2.118576     -6.999205
  C       7.165910     -3.163003     -7.976966
  H       7.907948     -3.018690     -7.155593
  H       7.731697     -3.155315     -8.938617
  H       6.725112     -4.179340     -7.854490
  C      -3.772621     -3.719742      0.183054
  H      -3.394704     -4.607824     -0.379764
  H      -3.119385     -3.619082      1.081284
  C      -3.645109     -2.460304     -0.711298
  H      -4.019395     -1.566001     -0.155521
  H      -4.321977     -2.574473     -1.592938
  C      -2.196895     -2.181814     -1.196908
  H      -1.791683     -3.094619     -1.700571
  H      -1.540971     -2.015086     -0.308948
  C      -2.085401     -0.970082     -2.167649
  H      -2.697108     -0.120531     -1.776087
  H      -1.032861     -0.596637     -2.188650
  C      -2.517952     -1.291331     -3.623503
  H      -1.809678     -2.039852     -4.054467
  H      -3.519308     -1.787166     -3.621606
  C      -2.577615     -0.040453     -4.551953
  H      -2.655060     -0.393234     -5.611008
  H      -1.617218      0.522207     -4.486609
  C      -3.769894      0.857910     -4.261450
  H      -4.750265      0.336606     -4.312277
  C      -3.789380      2.182772     -3.975369
  H      -4.784388      2.649792     -3.815207
  C      -2.620091      3.138965     -3.808326
  H      -2.710268      3.954765     -4.570452
  H      -1.644883      2.637192     -4.009269
  C      -2.595801      3.794986     -2.393944
  H      -2.496349      2.989642     -1.629837
  H      -3.587581      4.275215     -2.199906
  C      -1.479502      4.857877     -2.217944
  H      -0.478236      4.365485     -2.294550
  H      -1.532798      5.575334     -3.072506
  C      -1.560327      5.661580     -0.889703
  H      -0.807871      6.487813     -0.922938
  H      -2.557731      6.164228     -0.828322
  C      -1.325394      4.829041      0.397214
  H      -0.331153      4.324938      0.324009
  H      -2.078667      4.007623      0.468341
  C      -1.392107      5.676613      1.697785
  H      -0.554552      6.418447      1.699477
  H      -2.331923      6.280631      1.683074
  C      -1.345535      4.851932      3.014732
  H      -1.517849      5.541929      3.877551
  H      -2.201973      4.131598      3.030445
  C      -0.019500      4.082067      3.244590
  H       0.852844      4.776829      3.285713
  H      -0.047858      3.518715      4.207238
  H       0.178294      3.343759      2.437115
138
Coordinates from ORCA-job /wrk/rja7/qm_final_3_replicates/qm_final_1.1/qm/8/freq E -2722.583711454846
  N       0.510185     -2.633389      6.967186
  C       0.783028     -1.115898      6.727453
  H       1.490574     -1.076093      5.868549
  H       1.308080     -0.761559      7.641248
  C      -0.272563     -2.870754      8.271624
  H      -0.197949     -3.952261      8.512619
  H       0.188117     -2.265998      9.078299
  H      -1.334137     -2.588567      8.099288
  C       1.866165     -3.318075      7.076353
  H       1.708692     -4.398490      7.270986
  H       2.423929     -3.185623      6.126194
  H       2.435949     -2.865928      7.914652
  C      -0.278395     -3.242118      5.797341
  H      -0.275155     -4.343941      5.931746
  H       0.212907     -2.963124      4.843984
  H      -1.316389     -2.849687      5.845943
  C      -0.423335     -0.204693      6.411697
  H       0.052232      0.766986      6.109084
  H      -0.959509     -0.580141      5.513838
  P      -2.915351     -0.502244      7.427430
  O      -3.612831     -0.031757      8.678636
  O      -2.902174     -1.977636      6.952018
  O      -1.269886      0.012755      7.528590
  O      -3.317620      0.466185      6.060649
  C      -4.508842      0.114666      5.343630
  H      -4.947796      1.057183      4.932944
  H      -5.280932     -0.346776      6.009942
  C      -4.207090     -0.864116      4.180826
  H      -3.629365     -1.726037      4.572936
  O      -3.393138     -0.129861      3.182410
  C      -2.157151     -0.583907      2.843672
  O      -1.625032     -1.598944      3.290126
  C      -1.523049      0.328496      1.780433
  H      -1.864206      1.375459      1.948840
  H      -1.965694      0.023398      0.802261
  C      -5.458578     -1.369091      3.450592
  H      -5.988162     -0.555879      2.903303
  H      -6.177117     -1.820839      4.175482
  O      -5.012188     -2.398319      2.509958
  C      -5.891335     -2.802457      1.529605
  O      -7.021995     -2.357531      1.403421
  C      -5.263467     -3.916950      0.670594
  H      -5.309116     -4.854994      1.276796
  H      -5.938134     -4.067353     -0.201647
  C       0.019852      0.224108      1.722987
  H       0.305174     -0.851397      1.755935
  H       0.451660      0.688186      2.643471
  C       0.622432      0.898400      0.465210
  H       0.235448      1.942165      0.378365
  H       0.251597      0.364168     -0.443000
  C       2.173516      0.939492      0.433688
  H       2.547425      1.580598      1.270772
  H       2.488050      1.454570     -0.504481
  C       2.860547     -0.452221      0.519755
  H       2.387225     -1.144512     -0.218587
  H       2.668278     -0.895217      1.525768
  C       4.393635     -0.413402      0.274970
  H       4.834283     -1.402252      0.551478
  H       4.861770      0.334368      0.960892
  C       4.805532     -0.081047     -1.194249
  H       5.918420      0.029364     -1.222420
  H       4.396503      0.909448     -1.493839
  C       4.404077     -1.166073     -2.180127
  H       4.834818     -2.166842     -1.964983
  C       3.597038     -1.049848     -3.265074
  H       3.445584     -1.957576     -3.882905
  C       2.913246      0.219565     -3.764498
  H       2.593511      0.853263     -2.905600
  H       1.977509     -0.062505     -4.306241
  C       3.802143      1.082679     -4.716547
  H       4.681545      1.457763     -4.138784
  H       3.226057      1.988262     -5.028302
  C       4.310245      0.327094     -5.971109
  H       3.436072     -0.053331     -6.556545
  H       4.875844     -0.573680     -5.640596
  C       5.203646      1.203316     -6.887930
  H       6.096962      1.540964     -6.305463
  H       4.643923      2.137286     -7.144058
  C       5.689687      0.551366     -8.214162
  H       6.179856      1.352776     -8.816829
  H       4.805437      0.225313     -8.816767
  C       6.690174     -0.637908     -8.081057
  H       7.393569     -0.437260     -7.234525
  H       7.330080     -0.666040     -8.996876
  C       6.056198     -2.045391     -7.907362
  H       5.359779     -2.234928     -8.761281
  H       5.424057     -2.076974     -6.990808
  C       7.111381     -3.176753     -7.838327
  H       7.798193     -3.038374     -6.970658
  H       7.741699     -3.200359     -8.758539
  H       6.634556     -4.178299     -7.731159
  C      -3.796415     -3.672542      0.215380
  H      -3.447719     -4.585004     -0.326834
  H      -3.140615     -3.572963      1.111394
  C      -3.626090     -2.439389     -0.707875
  H      -3.970294     -1.520700     -0.172517
  H      -4.304803     -2.548096     -1.588589
  C      -2.166678     -2.220034     -1.190794
  H      -1.786291     -3.156710     -1.668917
  H      -1.513892     -2.053503     -0.301073
  C      -2.006007     -1.034931     -2.187342
  H      -2.595216     -0.157965     -1.823125
  H      -0.941560     -0.696393     -2.201464
  C      -2.425256     -1.373718     -3.643013
  H      -1.712383     -2.125867     -4.060019
  H      -3.425951     -1.869765     -3.645521
  C      -2.480021     -0.131758     -4.584349
  H      -2.534488     -0.495844     -5.641138
  H      -1.527742      0.442895     -4.506051
  C      -3.689351      0.752296     -4.323990
  H      -4.662039      0.225424     -4.421263
  C      -3.730127      2.068879     -4.004274
  H      -4.733817      2.523789     -3.867388
  C      -2.575849      3.030453     -3.776728
  H      -2.638900      3.853700     -4.533599
  H      -1.589069      2.538262     -3.939595
  C      -2.619906      3.671508     -2.356592
  H      -2.516090      2.862244     -1.597405
  H      -3.634122      4.112872     -2.191095
  C      -1.552015      4.773960     -2.130811
  H      -0.529051      4.327048     -2.199517
  H      -1.619622      5.510775     -2.968035
  C      -1.693051      5.533665     -0.782003
  H      -1.003674      6.413495     -0.789493
  H      -2.724020      5.961400     -0.708889
  C      -1.395539      4.682633      0.480160
  H      -0.363039      4.264700      0.395477
  H      -2.079259      3.800021      0.520083
  C      -1.532971      5.478339      1.806653
  H      -0.785654      6.311166      1.815838
  H      -2.535350      5.971493      1.828035
  C      -1.361031      4.627870      3.096850
  H      -1.604897      5.264453      3.980547
  H      -2.117661      3.804936      3.102216
  C       0.055723      4.027465      3.285407
  H       0.835374      4.825522      3.303015
  H       0.128200      3.463955      4.244363
  H       0.319439      3.321321      2.466847
138
Coordinates from ORCA-job /wrk/rja7/qm_final_3_replicates/qm_final_1.1/qm/8/freq E -2722.583940435085
  N       0.504004     -2.599790      6.970645
  C       0.758367     -1.076281      6.762788
  H       1.476257     -1.009343      5.914614
  H       1.266102     -0.732190      7.689037
  C      -0.256364     -2.870743      8.282163
  H      -0.171749     -3.956706      8.498877
  H       0.213272     -2.280541      9.094375
  H      -1.323056     -2.591777      8.133547
  C       1.867537     -3.272452      7.044722
  H       1.724229     -4.358279      7.218836
  H       2.410079     -3.115157      6.089028
  H       2.445784     -2.833143      7.884110
  C      -0.298518     -3.189009      5.799682
  H      -0.281107     -4.293351      5.906104
  H       0.171834     -2.881694      4.844886
  H      -1.339466     -2.809394      5.876837
  C      -0.457145     -0.179950      6.446713
  H       0.004793      0.804285      6.174185
  H      -0.970654     -0.542912      5.532018
  P      -2.966438     -0.525088      7.401911
  O      -3.693485     -0.106160      8.654195
  O      -2.933636     -1.981062      6.872538
  O      -1.326699     -0.002443      7.552527
  O      -3.342591      0.490668      6.063115
  C      -4.523569      0.166938      5.317629
  H      -4.945780      1.121267      4.917034
  H      -5.311907     -0.300843      5.959885
  C      -4.207094     -0.795938      4.146447
  H      -3.634423     -1.662162      4.536472
  O      -3.379556     -0.054023      3.166895
  C      -2.127922     -0.495156      2.868305
  O      -1.588285     -1.486566      3.357588
  C      -1.488901      0.392316      1.787301
  H      -1.847858      1.439488      1.913915
  H      -1.910636      0.047473      0.812423
  C      -5.452712     -1.289401      3.397785
  H      -5.969979     -0.469348      2.849377
  H      -6.182685     -1.739530      4.112405
  O      -5.007696     -2.318561      2.456347
  C      -5.883749     -2.705909      1.465850
  O      -6.999873     -2.231642      1.323138
  C      -5.272106     -3.832553      0.609813
  H      -5.351284     -4.771414      1.211172
  H      -5.937085     -3.960633     -0.273073
  C       0.055664      0.308664      1.752770
  H       0.356628     -0.761956      1.811186
  H       0.470147      0.797358      2.669026
  C       0.660123      0.967146      0.487251
  H       0.266852      2.006389      0.383769
  H       0.298169      0.416188     -0.414528
  C       2.210417      1.011607      0.457339
  H       2.584815      1.660497      1.288490
  H       2.524091      1.517299     -0.485664
  C       2.892821     -0.381423      0.554011
  H       2.414873     -1.078850     -0.176176
  H       2.700152     -0.814965      1.563647
  C       4.425891     -0.357012      0.303215
  H       4.857360     -1.350476      0.577121
  H       4.905685      0.385195      0.986951
  C       4.832091     -0.034807     -1.170605
  H       5.947169      0.043068     -1.213505
  H       4.447247      0.966984     -1.464336
  C       4.380843     -1.105730     -2.150567
  H       4.775097     -2.122165     -1.938300
  C       3.566146     -0.959403     -3.225564
  H       3.365307     -1.862381     -3.836451
  C       2.939498      0.338377     -3.725232
  H       2.664491      0.992579     -2.866507
  H       1.983823      0.101322     -4.253409
  C       3.860564      1.149239     -4.693495
  H       4.771502      1.470780     -4.132954
  H       3.332882      2.087392     -4.993463
  C       4.294241      0.368672     -5.960400
  H       3.386204      0.040949     -6.525817
  H       4.813794     -0.563220     -5.642838
  C       5.214988      1.192306     -6.897188
  H       6.142762      1.472149     -6.337657
  H       4.706202      2.159848     -7.135538
  C       5.623735      0.519179     -8.238919
  H       6.146103      1.294384     -8.848039
  H       4.706944      0.251390     -8.820572
  C       6.556351     -0.727447     -8.139543
  H       7.287200     -0.577461     -7.305667
  H       7.174890     -0.779687     -9.068838
  C       5.849060     -2.100632     -7.971385
  H       5.121202     -2.236513     -8.808280
  H       5.240550     -2.113116     -7.038498
  C       6.842071     -3.288283     -7.945813
  H       7.559085     -3.196920     -7.096980
  H       7.444050     -3.334816     -8.883764
  H       6.314813     -4.263788     -7.835442
  C      -3.792088     -3.628109      0.177647
  H      -3.458981     -4.551184     -0.356294
  H      -3.149778     -3.543980      1.084521
  C      -3.570232     -2.403531     -0.745623
  H      -3.904013     -1.474011     -0.222015
  H      -4.228927     -2.497090     -1.643036
  C      -2.092995     -2.223563     -1.188179
  H      -1.717591     -3.177006     -1.636059
  H      -1.466420     -2.053794     -0.280853
  C      -1.873542     -1.062272     -2.201054
  H      -2.456570     -0.167025     -1.873951
  H      -0.801374     -0.748361     -2.183145
  C      -2.246513     -1.417031     -3.665747
  H      -1.523787     -2.176128     -4.051082
  H      -3.247881     -1.910134     -3.697299
  C      -2.266182     -0.182891     -4.620600
  H      -2.269899     -0.556550     -5.675359
  H      -1.323395      0.400958     -4.503429
  C      -3.495554      0.689242     -4.422768
  H      -4.455499      0.155725     -4.582092
  C      -3.568236      1.999264     -4.082078
  H      -4.582933      2.440802     -3.992899
  C      -2.440218      2.970950     -3.778117
  H      -2.467343      3.801701     -4.528987
  H      -1.440108      2.491252     -3.886179
  C      -2.578139      3.593668     -2.356256
  H      -2.482328      2.778944     -1.602010
  H      -3.614941      3.994822     -2.237510
  C      -1.567957      4.732227     -2.057611
  H      -0.524417      4.332903     -2.102028
  H      -1.637901      5.493834     -2.872329
  C      -1.790931      5.429434     -0.686670
  H      -1.161724      6.351837     -0.640408
  H      -2.849250      5.785850     -0.624305
  C      -1.466438      4.545283      0.546226
  H      -0.400371      4.218313      0.478545
  H      -2.075801      3.609086      0.517676
  C      -1.713924      5.258440      1.902008
  H      -1.078094      6.178326      1.954428
  H      -2.770338      5.621107      1.931214
  C      -1.441035      4.384297      3.158562
  H      -1.782014      4.941875      4.061422
  H      -2.073399      3.464103      3.117623
  C       0.043987      3.982027      3.349011
  H       0.702613      4.881270      3.397409
  H       0.187716      3.409422      4.293005
  H       0.413524      3.344287      2.513771
138
Coordinates from ORCA-job /wrk/rja7/qm_final_3_replicates/qm_final_1.1/qm/8/freq E -2722.584627276813
  N       0.468918     -2.632902      6.980909
  C       0.759830     -1.116974      6.754915
  H       1.484126     -1.079523      5.910229
  H       1.271028     -0.772796      7.680808
  C      -0.332172     -2.869986      8.274084
  H      -0.274810     -3.954183      8.507228
  H       0.125739     -2.277445      9.091377
  H      -1.387551     -2.574716      8.091664
  C       1.816291     -3.330530      7.104136
  H       1.647252     -4.410709      7.291039
  H       2.388023     -3.199312      6.162017
  H       2.379559     -2.888862      7.952220
  C      -0.312036     -3.226122      5.797057
  H      -0.317115     -4.329476      5.920630
  H       0.190551     -2.942234      4.851250
  H      -1.348747     -2.826794      5.838070
  C      -0.429951     -0.191149      6.421129
  H       0.062348      0.775055      6.125755
  H      -0.957720     -0.559440      5.513711
  P      -2.942532     -0.447744      7.405676
  O      -3.649304      0.029340      8.649167
  O      -2.946617     -1.921514      6.926351
  O      -1.288889      0.040023      7.527320
  O      -3.303374      0.535119      6.038313
  C      -4.493119      0.216153      5.304776
  H      -4.903909      1.171265      4.894079
  H      -5.284452     -0.231448      5.957640
  C      -4.197453     -0.763697      4.141532
  H      -3.633449     -1.633545      4.535422
  O      -3.366716     -0.040707      3.149000
  C      -2.120468     -0.496644      2.846384
  O      -1.584998     -1.486199      3.343701
  C      -1.471976      0.386308      1.767586
  H      -1.827623      1.433612      1.890905
  H      -1.888312      0.043788      0.789184
  C      -5.455791     -1.245046      3.406984
  H      -5.964328     -0.421395      2.855473
  H      -6.187411     -1.678478      4.130147
  O      -5.031973     -2.286376      2.470116
  C      -5.917808     -2.662838      1.484382
  O      -7.024097     -2.165521      1.337818
  C      -5.326771     -3.802790      0.632907
  H      -5.429854     -4.739753      1.233547
  H      -5.988698     -3.915784     -0.254446
  C       0.072893      0.298723      1.744661
  H       0.371114     -0.772936      1.794962
  H       0.481535      0.777912      2.668579
  C       0.688247      0.970431      0.491943
  H       0.300470      2.012687      0.402123
  H       0.326705      0.433875     -0.418630
  C       2.239832      1.007010      0.467554
  H       2.615561      1.641757      1.309167
  H       2.558230      1.525666     -0.466309
  C       2.917836     -0.390143      0.542201
  H       2.433210     -1.077125     -0.193532
  H       2.729916     -0.835440      1.547695
  C       4.449781     -0.367621      0.281198
  H       4.881859     -1.362588      0.549395
  H       4.934880      0.371788      0.964386
  C       4.848401     -0.041980     -1.194917
  H       5.962502      0.047399     -1.240010
  H       4.452876      0.955399     -1.488926
  C       4.410138     -1.119785     -2.173649
  H       4.816853     -2.130906     -1.960053
  C       3.589371     -0.986747     -3.245282
  H       3.395485     -1.894226     -3.851625
  C       2.939659      0.300512     -3.742238
  H       2.659954      0.950021     -2.881438
  H       1.984439      0.048219     -4.263525
  C       3.839503      1.128811     -4.716046
  H       4.749269      1.466445     -4.162312
  H       3.291125      2.057590     -5.008572
  C       4.274898      0.362397     -5.991128
  H       3.367034      0.011007     -6.543106
  H       4.825973     -0.555616     -5.685512
  C       5.154252      1.215848     -6.940898
  H       6.081741      1.524737     -6.396387
  H       4.610939      2.166196     -7.168768
  C       5.560738      0.558380     -8.291187
  H       6.046415      1.351177     -8.909018
  H       4.642384      0.260962     -8.856467
  C       6.534959     -0.657500     -8.211302
  H       7.275232     -0.485852     -7.389817
  H       7.138485     -0.687653     -9.151468
  C       5.875538     -2.053263     -8.034408
  H       5.137420     -2.211106     -8.859104
  H       5.284449     -2.088412     -7.090297
  C       6.907376     -3.208276     -8.031393
  H       7.637506     -3.095385     -7.195360
  H       7.492726     -3.233002     -8.980797
  H       6.414409     -4.200888     -7.914213
  C      -3.839450     -3.629041      0.212971
  H      -3.519980     -4.558934     -0.317561
  H      -3.203526     -3.557447      1.125795
  C      -3.584234     -2.408163     -0.706120
  H      -3.909971     -1.473334     -0.186950
  H      -4.230404     -2.489731     -1.613798
  C      -2.097581     -2.253101     -1.125376
  H      -1.728471     -3.216414     -1.558002
  H      -1.484184     -2.083703     -0.208534
  C      -1.845079     -1.105446     -2.145630
  H      -2.420878     -0.198945     -1.837132
  H      -0.769062     -0.807448     -2.113493
  C      -2.200853     -1.470052     -3.612111
  H      -1.481040     -2.240949     -3.979187
  H      -3.207244     -1.952743     -3.654438
  C      -2.191190     -0.244859     -4.578987
  H      -2.174410     -0.628211     -5.629869
  H      -1.246886      0.333501     -4.446646
  C      -3.417962      0.638202     -4.414867
  H      -4.379141      0.113224     -4.598978
  C      -3.486179      1.950313     -4.082205
  H      -4.497834      2.404794     -4.026360
  C      -2.355095      2.909263     -3.752540
  H      -2.337698      3.725012     -4.520287
  H      -1.360942      2.409179     -3.812878
  C      -2.532667      3.565184     -2.349428
  H      -2.483946      2.764677     -1.574217
  H      -3.563037      3.994131     -2.277742
  C      -1.502223      4.682569     -2.039623
  H      -0.470505      4.252149     -2.038698
  H      -1.520415      5.425810     -2.873602
  C      -1.747132      5.421497     -0.694158
  H      -1.081235      6.317684     -0.645153
  H      -2.790939      5.823062     -0.679680
  C      -1.509332      4.553763      0.569359
  H      -0.461709      4.167741      0.540685
  H      -2.169045      3.653009      0.544244
  C      -1.750705      5.315298      1.899310
  H      -1.069260      6.202353      1.942364
  H      -2.786971      5.732855      1.893584
  C      -1.554530      4.461807      3.183834
  H      -1.878286      5.063807      4.066325
  H      -2.241580      3.580119      3.155287
  C      -0.100308      3.973919      3.412145
  H       0.611491      4.832440      3.449245
  H      -0.008131      3.419797      4.374410
  H       0.243622      3.292617      2.600435
138
Coordinates from ORCA-job /wrk/rja7/qm_final_3_replicates/qm_final_1.1/qm/8/freq E -2722.584840771544
  N       0.495667     -2.588534      6.947886
  C       0.774684     -1.066771      6.736382
  H       1.491817     -1.017389      5.885959
  H       1.292033     -0.727797      7.661444
  C      -0.271159     -2.853720      8.256043
  H      -0.200167     -3.941543      8.467769
  H       0.202938     -2.272499      9.072268
  H      -1.333289     -2.564734      8.105386
  C       1.848924     -3.280835      7.025781
  H       1.691132     -4.365313      7.197998
  H       2.396408     -3.130185      6.072331
  H       2.430891     -2.850487      7.866924
  C      -0.312849     -3.165963      5.775557
  H      -0.310848     -4.271408      5.881289
  H       0.164088     -2.864503      4.821824
  H      -1.349290     -2.771412      5.849008
  C      -0.423224     -0.147248      6.415833
  H       0.057291      0.828621      6.128175
  H      -0.949172     -0.512192      5.505744
  P      -2.930475     -0.450978      7.395756
  O      -3.646551      0.010022      8.640203
  O      -2.910127     -1.922517      6.909232
  O      -1.283324      0.059553      7.525820
  O      -3.304360      0.534082      6.033226
  C      -4.499519      0.214718      5.308457
  H      -4.909561      1.170433      4.898307
  H      -5.287504     -0.227777      5.968814
  C      -4.220865     -0.769108      4.142949
  H      -3.669310     -1.648284      4.533487
  O      -3.381549     -0.058449      3.147027
  C      -2.145605     -0.535279      2.830965
  O      -1.631557     -1.548651      3.302304
  C      -1.485494      0.350019      1.761393
  H      -1.821540      1.400891      1.901983
  H      -1.910634      0.032149      0.778734
  C      -5.490260     -1.226592      3.412836
  H      -5.986543     -0.391787      2.866804
  H      -6.225906     -1.649914      4.137765
  O      -5.088251     -2.271142      2.470758
  C      -5.981731     -2.625112      1.483581
  O      -7.081551     -2.110933      1.344289
  C      -5.416189     -3.778322      0.633706
  H      -5.542344     -4.713157      1.233238
  H      -6.077288     -3.874776     -0.256179
  C       0.058178      0.237694      1.734595
  H       0.339635     -0.839176      1.757320
  H       0.473971      0.686718      2.670342
  C       0.685247      0.935051      0.501537
  H       0.316684      1.986488      0.446318
  H       0.312406      0.434049     -0.424980
  C       2.237870      0.946449      0.476286
  H       2.623589      1.550604      1.335567
  H       2.564429      1.487752     -0.442030
  C       2.897685     -0.460921      0.509689
  H       2.400879     -1.123216     -0.240607
  H       2.711170     -0.929828      1.504660
  C       4.428227     -0.446742      0.239990
  H       4.854818     -1.449072      0.489153
  H       4.922407      0.277944      0.932396
  C       4.821751     -0.098809     -1.232717
  H       5.935441     -0.004524     -1.277458
  H       4.422022      0.900765     -1.513058
  C       4.391195     -1.167753     -2.224552
  H       4.806320     -2.177783     -2.022798
  C       3.568302     -1.030857     -3.293999
  H       3.385227     -1.933458     -3.910906
  C       2.900267      0.252948     -3.775979
  H       2.606145      0.886957     -2.908217
  H       1.951959     -0.008114     -4.304774
  C       3.788505      1.109286     -4.735249
  H       4.684982      1.464203     -4.170563
  H       3.220430      2.027008     -5.025799
  C       4.255934      0.361940     -6.010155
  H       3.363520     -0.013347     -6.571649
  H       4.831536     -0.541417     -5.704076
  C       5.116560      1.246226     -6.948762
  H       6.025495      1.587792     -6.392885
  H       4.543513      2.176597     -7.184824
  C       5.565097      0.599868     -8.290716
  H       6.031199      1.406325     -8.906069
  H       4.665904      0.266817     -8.866897
  C       6.579318     -0.581096     -8.187897
  H       7.299333     -0.378409     -7.355793
  H       7.198990     -0.597762     -9.117893
  C       5.963832     -1.996120     -8.008067
  H       5.248014     -2.188218     -8.845420
  H       5.355498     -2.040955     -7.074896
  C       7.034111     -3.115472     -7.971887
  H       7.743256     -2.968217     -7.122947
  H       7.638730     -3.130544     -8.909420
  H       6.572976     -4.123102     -7.853033
  C      -3.923253     -3.637473      0.221977
  H      -3.621026     -4.572703     -0.309264
  H      -3.291103     -3.582399      1.138683
  C      -3.635261     -2.418909     -0.689905
  H      -3.946380     -1.479618     -0.170060
  H      -4.273501     -2.482769     -1.604484
  C      -2.141435     -2.292259     -1.092815
  H      -1.786091     -3.261836     -1.523376
  H      -1.535680     -2.136927     -0.168494
  C      -1.857845     -1.147871     -2.107951
  H      -2.421045     -0.232131     -1.803285
  H      -0.777050     -0.869491     -2.064830
  C      -2.207657     -1.507552     -3.576758
  H      -1.495456     -2.288912     -3.936841
  H      -3.220060     -1.977079     -3.626803
  C      -2.174642     -0.284711     -4.546472
  H      -2.146841     -0.671651     -5.595633
  H      -1.227036      0.285860     -4.403092
  C      -3.397143      0.608826     -4.403396
  H      -4.359421      0.091812     -4.605257
  C      -3.461380      1.922002     -4.073061
  H      -4.470312      2.384879     -4.038434
  C      -2.328868      2.872267     -3.724826
  H      -2.283205      3.679997     -4.499911
  H      -1.340133      2.359105     -3.757581
  C      -2.527578      3.547566     -2.333426
  H      -2.508442      2.756134     -1.547315
  H      -3.551543      3.995658     -2.288962
  C      -1.480357      4.648536     -2.021100
  H      -0.457873      4.196753     -2.005611
  H      -1.473507      5.382114     -2.863728
  C      -1.717453      5.414096     -0.688514
  H      -1.030167      6.294638     -0.653419
  H      -2.751434      5.840796     -0.685805
  C      -1.504988      4.566270      0.592972
  H      -0.471842      4.144027      0.567459
  H      -2.194968      3.688842      0.591150
  C      -1.708309      5.366383      1.906542
  H      -0.999444      6.232367      1.920173
  H      -2.731315      5.815562      1.900571
  C      -1.527550      4.538310      3.210137
  H      -1.823700      5.171875      4.081012
  H      -2.243586      3.678996      3.210820
  C      -0.087544      4.009190      3.438536
  H       0.650981      4.845715      3.453630
  H      -0.006052      3.472101      4.411823
  H       0.229724      3.301658      2.639092
138
Coordinates from ORCA-job /wrk/rja7/qm_final_3_replicates/qm_final_1.1/qm/8/freq E -2722.585294835200
  N       0.495810     -2.586958      6.954569
  C       0.784732     -1.068124      6.737026
  H       1.509374     -1.026327      5.892338
  H       1.295623     -0.727854      7.664562
  C      -0.296309     -2.837266      8.250713
  H      -0.236119     -3.923842      8.472312
  H       0.166349     -2.252374      9.070737
  H      -1.354064     -2.542972      8.078383
  C       1.844483     -3.283699      7.062364
  H       1.679817     -4.366215      7.240218
  H       2.409776     -3.142602      6.117744
  H       2.412814     -2.848758      7.910483
  C      -0.293466     -3.170242      5.772167
  H      -0.301457     -4.274349      5.888709
  H       0.204556     -2.881561      4.825378
  H      -1.327846     -2.767488      5.820993
  C      -0.406795     -0.145369      6.405352
  H       0.079016      0.823655      6.108596
  H      -0.933970     -0.515562      5.499332
  P      -2.918004     -0.419071      7.383343
  O      -3.630073      0.050849      8.626528
  O      -2.911573     -1.891239      6.899698
  O      -1.265932      0.076618      7.512713
  O      -3.283089      0.568407      6.020063
  C      -4.482781      0.262733      5.297062
  H      -4.882868      1.223104      4.887995
  H      -5.274241     -0.171787      5.958605
  C      -4.217450     -0.723288      4.130309
  H      -3.673115     -1.608225      4.518414
  O      -3.375888     -0.020605      3.131440
  C      -2.144019     -0.506634      2.814261
  O      -1.635448     -1.521737      3.287486
  C      -1.476490      0.375860      1.747965
  H      -1.810145      1.428357      1.885017
  H      -1.896836      0.057868      0.763621
  C      -5.493298     -1.166275      3.402511
  H      -5.979173     -0.325725      2.856132
  H      -6.233370     -1.579195      4.128956
  O      -5.105103     -2.217244      2.461606
  C      -5.999908     -2.556763      1.470118
  O      -7.087434     -2.019962      1.322193
  C      -5.450583     -3.718951      0.621320
  H      -5.605420     -4.652536      1.215953
  H      -6.102969     -3.796304     -0.276705
  C       0.066764      0.259317      1.730046
  H       0.345341     -0.818486      1.744188
  H       0.478139      0.698013      2.672808
  C       0.703446      0.965663      0.507163
  H       0.347031      2.021895      0.465954
  H       0.326869      0.480742     -0.426285
  C       2.255868      0.957220      0.483982
  H       2.649366      1.541809      1.353089
  H       2.591218      1.508527     -0.425518
  C       2.894064     -0.460124      0.496428
  H       2.385849     -1.104471     -0.261936
  H       2.702218     -0.939886      1.485397
  C       4.423726     -0.466748      0.221908
  H       4.835856     -1.477988      0.458657
  H       4.931599      0.242939      0.919828
  C       4.816150     -0.110361     -1.249088
  H       5.930919     -0.032487     -1.298493
  H       4.429996      0.897670     -1.517882
  C       4.363304     -1.163661     -2.247843
  H       4.762967     -2.181925     -2.056311
  C       3.536324     -1.005623     -3.311410
  H       3.335562     -1.900700     -3.933870
  C       2.886762      0.292103     -3.781559
  H       2.607329      0.925717     -2.908425
  H       1.932023      0.050165     -4.307829
  C       3.784401      1.139360     -4.740071
  H       4.688138      1.477910     -4.177145
  H       3.229199      2.066766     -5.024538
  C       4.235315      0.390104     -6.019742
  H       3.335267      0.027566     -6.577227
  H       4.800903     -0.521191     -5.718892
  C       5.101837      1.265754     -6.961100
  H       6.018917      1.593876     -6.410490
  H       4.539211      2.204265     -7.190942
  C       5.532474      0.617305     -8.308166
  H       6.004849      1.419164     -8.924516
  H       4.625076      0.297908     -8.878852
  C       6.531477     -0.577643     -8.215921
  H       7.257417     -0.389264     -7.385708
  H       7.147030     -0.597383     -9.148549
  C       5.897987     -1.985309     -8.041623
  H       5.175756     -2.162368     -8.876457
  H       5.293742     -2.028109     -7.105868
  C       6.953445     -3.118906     -8.018091
  H       7.668663     -2.985725     -7.172275
  H       7.552748     -3.136175     -8.958892
  H       6.479804     -4.121089     -7.902892
  C      -3.949678     -3.612777      0.227560
  H      -3.661845     -4.556171     -0.297095
  H      -3.328190     -3.568908      1.151971
  C      -3.620729     -2.404523     -0.684416
  H      -3.924230     -1.456725     -0.175672
  H      -4.240617     -2.460168     -1.611941
  C      -2.115900     -2.308456     -1.055307
  H      -1.768166     -3.288273     -1.468252
  H      -1.529818     -2.155643     -0.118257
  C      -1.788360     -1.178446     -2.073555
  H      -2.346307     -0.252231     -1.791847
  H      -0.704832     -0.916247     -2.003877
  C      -2.103278     -1.547713     -3.547959
  H      -1.389725     -2.339621     -3.881354
  H      -3.118204     -2.008216     -3.621386
  C      -2.032381     -0.333940     -4.527792
  H      -1.964149     -0.730918     -5.571309
  H      -1.091079      0.238574     -4.353385
  C      -3.260913      0.558810     -4.441258
  H      -4.212168      0.040146     -4.684753
  C      -3.342564      1.872092     -4.114828
  H      -4.353000      2.332620     -4.124613
  C      -2.228058      2.824897     -3.718579
  H      -2.143327      3.627502     -4.495585
  H      -1.239687      2.310424     -3.699676
  C      -2.493057      3.507770     -2.342540
  H      -2.510656      2.719874     -1.553431
  H      -3.518111      3.955138     -2.348344
  C      -1.461854      4.609821     -1.986178
  H      -0.438648      4.161366     -1.938271
  H      -1.427377      5.349321     -2.823179
  C      -1.745271      5.363606     -0.656286
  H      -1.069734      6.251899     -0.598168
  H      -2.784050      5.778024     -0.677554
  C      -1.552797      4.509037      0.624031
  H      -0.514116      4.099970      0.619329
  H      -2.231044      3.622757      0.598996
  C      -1.798037      5.294302      1.939025
  H      -1.113862      6.179572      1.969250
  H      -2.832976      5.715116      1.919578
  C      -1.615341      4.462102      3.239816
  H      -1.951108      5.078030      4.108090
  H      -2.300162      3.578214      3.220531
  C      -0.162514      3.983850      3.496663
  H       0.543942      4.846953      3.534512
  H      -0.083891      3.443453      4.467801
  H       0.200035      3.295044      2.699973
138
Coordinates from ORCA-job /wrk/rja7/qm_final_3_replicates/qm_final_1.1/qm/8/freq E -2722.585693273283
  N       0.473374     -2.597731      6.939817
  C       0.782661     -1.083013      6.722011
  H       1.510440     -1.051328      5.879766
  H       1.294817     -0.749433      7.650914
  C      -0.322049     -2.834958      8.236406
  H      -0.277015     -3.921946      8.459568
  H       0.148882     -2.255124      9.055289
  H      -1.375798     -2.526452      8.063337
  C       1.812623     -3.311753      7.049533
  H       1.633966     -4.391834      7.228349
  H       2.380799     -3.178993      6.105350
  H       2.385500     -2.883046      7.897770
  C      -0.323122     -3.172087      5.757307
  H      -0.344593     -4.275766      5.874560
  H       0.178581     -2.889995      4.810442
  H      -1.352748     -2.757149      5.805097
  C      -0.395985     -0.144748      6.389002
  H       0.103139      0.816460      6.092120
  H      -0.928057     -0.508268      5.482977
  P      -2.911233     -0.380237      7.367787
  O      -3.616166      0.097744      8.611844
  O      -2.926743     -1.850491      6.879981
  O      -1.251718      0.090411      7.496530
  O      -3.261693      0.616138      6.007505
  C      -4.463429      0.324691      5.283424
  H      -4.852733      1.288704      4.872473
  H      -5.260206     -0.102246      5.943515
  C      -4.203525     -0.665473      4.119759
  H      -3.665034     -1.553055      4.510519
  O      -3.356263      0.030013      3.121673
  C      -2.125447     -0.462275      2.810315
  O      -1.621191     -1.476011      3.291310
  C      -1.451533      0.415344      1.744517
  H      -1.785994      1.468585      1.873581
  H      -1.864731      0.091987      0.759184
  C      -5.481552     -1.102192      3.390825
  H      -5.957457     -0.260275      2.838062
  H      -6.227348     -1.503645      4.117965
  O      -5.100829     -2.164119      2.459028
  C      -5.991466     -2.496429      1.460758
  O      -7.067542     -1.941530      1.297685
  C      -5.450841     -3.667361      0.617730
  H      -5.634216     -4.597894      1.208917
  H      -6.090902     -3.729641     -0.290292
  C       0.091603      0.299121      1.736281
  H       0.370281     -0.778791      1.743320
  H       0.497562      0.729652      2.685390
  C       0.736474      1.014211      0.522507
  H       0.392022      2.074884      0.496003
  H       0.355014      0.545416     -0.416818
  C       2.288468      0.983904      0.498264
  H       2.692251      1.545312      1.377958
  H       2.632085      1.546849     -0.401180
  C       2.900742     -0.444675      0.482006
  H       2.378201     -1.065038     -0.286854
  H       2.702152     -0.939174      1.462153
  C       4.428996     -0.479297      0.201541
  H       4.821089     -1.500860      0.427244
  H       4.954917      0.213587      0.902975
  C       4.821084     -0.119529     -1.268639
  H       5.936897     -0.064557     -1.325103
  H       4.453998      0.898396     -1.526753
  C       4.335798     -1.154035     -2.271607
  H       4.712384     -2.183151     -2.091188
  C       3.501411     -0.968246     -3.324718
  H       3.270598     -1.853658     -3.950671
  C       2.882862      0.349619     -3.780094
  H       2.632708      0.986375     -2.900176
  H       1.915514      0.138288     -4.296340
  C       3.793327      1.175479     -4.745340
  H       4.710378      1.490261     -4.190156
  H       3.259010      2.116711     -5.023957
  C       4.212026      0.416704     -6.030274
  H       3.297429      0.073100     -6.575938
  H       4.761489     -0.506071     -5.735720
  C       5.085005      1.273050     -6.983268
  H       6.015940      1.582754     -6.445310
  H       4.538362      2.222594     -7.206627
  C       5.482613      0.616179     -8.336825
  H       5.958214      1.409753     -8.961194
  H       4.560468      0.312810     -8.892449
  C       6.462273     -0.596311     -8.262599
  H       7.202083     -0.425263     -7.440784
  H       7.065424     -0.621325     -9.203095
  C       5.807384     -1.994365     -8.089320
  H       5.073411     -2.154163     -8.917226
  H       5.212884     -2.033563     -7.147510
  C       6.844142     -3.145424     -8.085412
  H       7.570910     -3.029408     -7.247025
  H       7.432176     -3.165988     -9.033153
  H       6.355414     -4.140461     -7.971579
  C      -3.942611     -3.593317      0.244834
  H      -3.664835     -4.546521     -0.267248
  H      -3.333456     -3.551549      1.177242
  C      -3.576978     -2.400717     -0.674024
  H      -3.880176     -1.442869     -0.184310
  H      -4.174548     -2.459507     -1.615895
  C      -2.061896     -2.329049     -1.008812
  H      -1.717389     -3.317216     -1.403638
  H      -1.498904     -2.176632     -0.057768
  C      -1.693636     -1.211111     -2.026801
  H      -2.250524     -0.277798     -1.767117
  H      -0.609892     -0.959784     -1.928339
  C      -1.969439     -1.589241     -3.506553
  H      -1.254220     -2.391308     -3.810830
  H      -2.986054     -2.040589     -3.607196
  C      -1.857150     -0.384098     -4.494422
  H      -1.740523     -0.790121     -5.529995
  H      -0.926421      0.193094     -4.282831
  C      -3.092193      0.503894     -4.472628
  H      -4.026632     -0.019817     -4.764813
  C      -3.199002      1.816840     -4.151633
  H      -4.210854      2.270100     -4.212460
  C      -2.112034      2.777291     -3.700820
  H      -1.984278      3.573468     -4.478567
  H      -1.125625      2.264518     -3.622055
  C      -2.454005      3.469332     -2.346774
  H      -2.521361      2.684859     -1.556806
  H      -3.474892      3.920886     -2.412927
  C      -1.439341      4.567811     -1.938946
  H      -0.419318      4.117935     -1.848626
  H      -1.366019      5.311453     -2.770100
  C      -1.777479      5.316312     -0.619323
  H      -1.108304      6.207385     -0.535247
  H      -2.816756      5.725784     -0.677249
  C      -1.624320      4.459869      0.664555
  H      -0.585107      4.053311      0.691905
  H      -2.298195      3.571186      0.616029
  C      -1.916359      5.239399      1.973075
  H      -1.245005      6.133459      2.024273
  H      -2.956019      5.646359      1.924862
  C      -1.760404      4.405985      3.276192
  H      -2.134223      5.012848      4.134933
  H      -2.427852      3.509856      3.234026
  C      -0.308097      3.955561      3.580078
  H       0.377916      4.833171      3.648407
  H      -0.254149      3.411729      4.550454
  H       0.099089      3.280095      2.793041
138
Coordinates from ORCA-job /wrk/rja7/qm_final_3_replicates/qm_final_1.1/qm/8/freq E -2722.586158288132
  N       0.463004     -2.590184      6.926245
  C       0.794404     -1.080229      6.705814
  H       1.526349     -1.061659      5.866777
  H       1.306738     -0.751640      7.636470
  C      -0.341999     -2.812356      8.219590
  H      -0.313242     -3.899209      8.446027
  H       0.133033     -2.236502      9.038863
  H      -1.390604     -2.490162      8.040192
  C       1.792182     -3.321434      7.045080
  H       1.599262     -4.398611      7.226744
  H       2.367193     -3.199444      6.103558
  H       2.366069     -2.896707      7.894572
  C      -0.335674     -3.156653      5.741598
  H      -0.373453     -4.259572      5.862056
  H       0.174462     -2.884230      4.796364
  H      -1.359500     -2.727071      5.782914
  C      -0.369127     -0.125941      6.365989
  H       0.145483      0.825812      6.064994
  H      -0.905371     -0.486291      5.460790
  P      -2.889000     -0.319510      7.342125
  O      -3.589641      0.174898      8.582189
  O      -2.923836     -1.791308      6.860765
  O      -1.222841      0.128025      7.471262
  O      -3.223280      0.676583      5.977492
  C      -4.429843      0.401223      5.255274
  H      -4.804663      1.369537      4.841045
  H      -5.232408     -0.011897      5.917140
  C      -4.185150     -0.596141      4.094260
  H      -3.661310     -1.491453      4.487221
  O      -3.325369      0.084151      3.096950
  C      -2.101834     -0.427730      2.788448
  O      -1.617758     -1.453322      3.264855
  C      -1.411458      0.442060      1.727741
  H      -1.737090      1.498049      1.852670
  H      -1.818752      0.121961      0.739151
  C      -5.469364     -1.012939      3.363705
  H      -5.926901     -0.164029      2.806229
  H      -6.224333     -1.396974      4.090827
  O      -5.106825     -2.085726      2.437143
  C      -5.994624     -2.394612      1.428480
  O      -7.057442     -1.816571      1.258791
  C      -5.478367     -3.580453      0.590693
  H      -5.702817     -4.505262      1.176748
  H      -6.105632     -3.618701     -0.327623
  C       0.130404      0.313895      1.731881
  H       0.401721     -0.765853      1.723741
  H       0.531783      0.725908      2.691142
  C       0.788621      1.043931      0.534184
  H       0.459323      2.109973      0.531020
  H       0.401033      0.600602     -0.414351
  C       2.339875      0.991074      0.509476
  H       2.752349      1.524019      1.402855
  H       2.692061      1.571659     -0.375730
  C       2.929346     -0.445817      0.456695
  H       2.390972     -1.040824     -0.321294
  H       2.731478     -0.959142      1.427239
  C       4.453491     -0.499603      0.159029
  H       4.832289     -1.530218      0.365239
  H       4.998641      0.175314      0.863264
  C       4.831812     -0.126281     -1.311471
  H       5.947411     -0.090096     -1.384115
  H       4.478919      0.901422     -1.550460
  C       4.310729     -1.139197     -2.318529
  H       4.671073     -2.177079     -2.155759
  C       3.459758     -0.928288     -3.353729
  H       3.202082     -1.803859     -3.983064
  C       2.858597      0.404026     -3.790272
  H       2.637112      1.042387     -2.903615
  H       1.877815      0.213859     -4.289668
  C       3.767093      1.214825     -4.770667
  H       4.694507      1.521480     -4.228208
  H       3.240499      2.160739     -5.047909
  C       4.162284      0.443142     -6.055857
  H       3.237876      0.102072     -6.586346
  H       4.708037     -0.481518     -5.760531
  C       5.030163      1.283250     -7.028104
  H       5.967521      1.595714     -6.503248
  H       4.485655      2.232131     -7.259460
  C       5.412250      0.605196     -8.375954
  H       5.885475      1.386747     -9.017416
  H       4.483184      0.297878     -8.917764
  C       6.385912     -0.611723     -8.292008
  H       7.132099     -0.433954     -7.477433
  H       6.982638     -0.653417     -9.235960
  C       5.723515     -2.002984     -8.094408
  H       4.985402     -2.171248     -8.917045
  H       5.132461     -2.024029     -7.149883
  C       6.753312     -3.160275     -8.077008
  H       7.484275     -3.035710     -7.243525
  H       7.337085     -3.198830     -9.026829
  H       6.259064     -4.150466     -7.946045
  C      -3.963116     -3.557140      0.240873
  H      -3.706328     -4.523218     -0.257827
  H      -3.366966     -3.523197      1.181804
  C      -3.546603     -2.385172     -0.683342
  H      -3.843824     -1.414869     -0.215013
  H      -4.117196     -2.444104     -1.641880
  C      -2.020642     -2.349104     -0.973273
  H      -1.685501     -3.347750     -1.348899
  H      -1.484957     -2.200960     -0.005699
  C      -1.598400     -1.245507     -1.986329
  H      -2.150202     -0.302473     -1.751858
  H      -0.515437     -1.010245     -1.851006
  C      -1.825448     -1.629358     -3.472409
  H      -1.108931     -2.441695     -3.745126
  H      -2.843202     -2.068525     -3.608944
  C      -1.662826     -0.429778     -4.461032
  H      -1.489923     -0.840682     -5.486616
  H      -0.746262      0.150938     -4.202836
  C      -2.900064      0.454031     -4.509707
  H      -3.812494     -0.071115     -4.862818
  C      -3.033428      1.763278     -4.183752
  H      -4.042527      2.211700     -4.300393
  C      -1.979296      2.723416     -3.660620
  H      -1.799105      3.519778     -4.427861
  H      -1.000900      2.208787     -3.517595
  C      -2.407577      3.414163     -2.330862
  H      -2.529273      2.628420     -1.548400
  H      -3.420853      3.868436     -2.461649
  C      -1.417911      4.508869     -1.859696
  H      -0.402047      4.059744     -1.724064
  H      -1.303655      5.261533     -2.678312
  C      -1.821788      5.244961     -0.551731
  H      -1.166116      6.142558     -0.435469
  H      -2.862125      5.643703     -0.650329
  C      -1.710792      4.382242      0.731805
  H      -0.670347      3.983827      0.795131
  H      -2.373492      3.487356      0.653471
  C      -2.059523      5.147875      2.034300
  H      -1.407537      6.054155      2.112194
  H      -3.105136      5.534609      1.955407
  C      -1.930025      4.306960      3.335393
  H      -2.347780      4.897298      4.185624
  H      -2.574031      3.395631      3.263737
  C      -0.479393      3.888803      3.688955
  H       0.181250      4.782326      3.792732
  H      -0.450521      3.336544      4.655678
  H      -0.023798      3.232126      2.912032
138
Coordinates from ORCA-job /wrk/rja7/qm_final_3_replicates/qm_final_1.1/qm/8/freq E -2722.586884108004
  N       0.449070     -2.535830      6.886405
  C       0.805948     -1.037567      6.629603
  H       1.535455     -1.051959      5.788652
  H       1.325877     -0.696159      7.550699
  C      -0.345516     -2.712971      8.193291
  H      -0.334707     -3.794629      8.444871
  H       0.149865     -2.127253      8.993187
  H      -1.390136     -2.374255      8.017760
  C       1.766467     -3.287911      7.007469
  H       1.557566     -4.357184      7.215993
  H       2.333261     -3.197516      6.057255
  H       2.356803     -2.853239      7.840500
  C      -0.372557     -3.112852      5.722918
  H      -0.430186     -4.211725      5.868119
  H       0.131927     -2.870493      4.766741
  H      -1.387166     -2.662986      5.765201
  C      -0.341850     -0.071930      6.271609
  H       0.188343      0.860309      5.942373
  H      -0.889987     -0.445630      5.380624
  P      -2.858550     -0.188456      7.268820
  O      -3.539292      0.349532      8.501682
  O      -2.927573     -1.669073      6.820015
  O      -1.182667      0.227147      7.375026
  O      -3.185342      0.783924      5.885047
  C      -4.403346      0.514042      5.179577
  H      -4.763682      1.479073      4.745439
  H      -5.207462      0.130971      5.857378
  C      -4.185994     -0.513900      4.039869
  H      -3.682967     -1.413429      4.449877
  O      -3.310496      0.125844      3.030483
  C      -2.101672     -0.424476      2.728373
  O      -1.649550     -1.461183      3.212100
  C      -1.381733      0.424345      1.671680
  H      -1.690793      1.485147      1.786139
  H      -1.779906      0.105850      0.679017
  C      -5.481053     -0.914893      3.318823
  H      -5.916838     -0.066805      2.743168
  H      -6.244537     -1.263875      4.054679
  O      -5.144886     -2.014529      2.414645
  C      -6.025483     -2.305684      1.394533
  O      -7.067112     -1.697571      1.201522
  C      -5.530582     -3.511829      0.573460
  H      -5.807332     -4.425619      1.154614
  H      -6.134319     -3.529209     -0.361327
  C       0.157628      0.274358      1.697576
  H       0.416409     -0.808157      1.664883
  H       0.548770      0.655705      2.673621
  C       0.842647      1.032121      0.531520
  H       0.538405      2.105615      0.568827
  H       0.449643      0.635508     -0.435986
  C       2.392111      0.945120      0.515618
  H       2.808463      1.434528      1.431654
  H       2.763900      1.552239     -0.343818
  C       2.951089     -0.499989      0.409025
  H       2.395994     -1.055337     -0.385991
  H       2.750405     -1.044943      1.361428
  C       4.471080     -0.572277      0.097188
  H       4.835323     -1.612440      0.279992
  H       5.034073      0.081138      0.807476
  C       4.838701     -0.173896     -1.369277
  H       5.953613     -0.146039     -1.452885
  H       4.492147      0.861543     -1.584311
  C       4.294763     -1.161422     -2.388372
  H       4.651732     -2.204715     -2.254562
  C       3.424258     -0.923936     -3.401208
  H       3.151521     -1.784474     -4.044868
  C       2.822661      0.419767     -3.801026
  H       2.617235      1.044765     -2.900705
  H       1.833450      0.242593     -4.287869
  C       3.719125      1.241760     -4.783626
  H       4.649212      1.549861     -4.246822
  H       3.185845      2.186485     -5.051302
  C       4.109615      0.478003     -6.075152
  H       3.184207      0.132875     -6.600999
  H       4.662192     -0.444202     -5.785849
  C       4.968453      1.324819     -7.049268
  H       5.903476      1.646001     -6.525570
  H       4.415547      2.268716     -7.282186
  C       5.356014      0.646585     -8.395373
  H       5.824341      1.429078     -9.038680
  H       4.429316      0.332177     -8.936817
  C       6.336486     -0.564739     -8.306840
  H       7.073585     -0.385892     -7.484416
  H       6.942631     -0.599438     -9.244968
  C       5.679913     -1.960353     -8.121046
  H       4.954190     -2.131085     -8.953845
  H       5.076482     -1.986935     -7.184782
  C       6.715830     -3.111861     -8.092487
  H       7.434286     -2.985722     -7.248857
  H       7.312706     -3.144099     -9.034307
  H       6.225349     -4.105115     -7.971343
  C      -4.007742     -3.544547      0.262588
  H      -3.769219     -4.525740     -0.215016
  H      -3.432848     -3.512386      1.216337
  C      -3.534163     -2.400177     -0.669520
  H      -3.826267     -1.414657     -0.230526
  H      -4.073918     -2.467584     -1.645497
  C      -1.999116     -2.401133     -0.908861
  H      -1.675178     -3.408816     -1.268869
  H      -1.492445     -2.260376      0.075488
  C      -1.521371     -1.311109     -1.911760
  H      -2.060796     -0.356275     -1.696760
  H      -0.438681     -1.095954     -1.743877
  C      -1.710659     -1.696770     -3.402353
  H      -0.998406     -2.520386     -3.650749
  H      -2.731400     -2.118013     -3.569118
  C      -1.499622     -0.501861     -4.388921
  H      -1.285696     -0.916123     -5.405271
  H      -0.592034      0.073704     -4.093016
  C      -2.727423      0.389882     -4.490108
  H      -3.623028     -0.125805     -4.895281
  C      -2.871885      1.694741     -4.151467
  H      -3.872373      2.148764     -4.311050
  C      -1.839341      2.641535     -3.564011
  H      -1.606317      3.436475     -4.318381
  H      -0.876698      2.115666     -3.365227
  C      -2.336036      3.336333     -2.260795
  H      -2.500823      2.555179     -1.481200
  H      -3.340655      3.789709     -2.446989
  C      -1.373981      4.435895     -1.748661
  H      -0.359454      3.994509     -1.575767
  H      -1.234223      5.191883     -2.560461
  C      -1.837898      5.166818     -0.457945
  H      -1.198557      6.072674     -0.316643
  H      -2.878630      5.552044     -0.596863
  C      -1.767132      4.302958      0.826807
  H      -0.726950      3.911354      0.925420
  H      -2.419004      3.402154      0.724637
  C      -2.170033      5.058045      2.119951
  H      -1.535016      5.973664      2.223219
  H      -3.218906      5.427994      2.009056
  C      -2.071066      4.209560      3.418754
  H      -2.533740      4.781895      4.257256
  H      -2.689683      3.284439      3.316154
  C      -0.627119      3.820847      3.827116
  H       0.006611      4.727685      3.973512
  H      -0.629443      3.254110      4.785737
  H      -0.120144      3.187119      3.061729
138
Coordinates from ORCA-job /wrk/rja7/qm_final_3_replicates/qm_final_1.1/qm/8/freq E -2722.587297312450
  N       0.442799     -2.441088      6.835551
  C       0.846755     -0.967553      6.513914
  H       1.564937     -1.044681      5.667734
  H       1.386543     -0.604913      7.413980
  C      -0.308311     -2.541843      8.176399
  H      -0.326710     -3.613276      8.468188
  H       0.238883     -1.946067      8.933756
  H      -1.346427     -2.168788      8.026648
  C       1.737005     -3.236525      6.935641
  H       1.500851     -4.290508      7.188181
  H       2.272758     -3.197801      5.963735
  H       2.370895     -2.793182      7.731173
  C      -0.441077     -3.022190      5.721768
  H      -0.538799     -4.111972      5.906373
  H       0.036866     -2.830856      4.741267
  H      -1.433636     -2.529679      5.782713
  C      -0.269860      0.020445      6.124289
  H       0.290592      0.911140      5.740912
  H      -0.843247     -0.375939      5.263059
  P      -2.774153      0.061685      7.160932
  O      -3.409217      0.687396      8.376520
  O      -2.915534     -1.431684      6.776057
  O      -1.080800      0.407892      7.221401
  O      -3.087439      0.985925      5.740684
  C      -4.328241      0.730805      5.067487
  H      -4.656639      1.688194      4.593292
  H      -5.134957      0.411605      5.774426
  C      -4.169896     -0.355515      3.972184
  H      -3.718505     -1.265074      4.417509
  O      -3.253019      0.195631      2.950223
  C      -2.087820     -0.450338      2.659647
  O      -1.727095     -1.523526      3.140991
  C      -1.294540      0.352740      1.623721
  H      -1.548936      1.423998      1.736704
  H      -1.684199      0.059554      0.620705
  C      -5.484111     -0.712177      3.259745
  H      -5.866477      0.137091      2.649158
  H      -6.267591     -0.987918      4.005577
  O      -5.206213     -1.855051      2.391713
  C      -6.062652     -2.089218      1.337248
  O      -7.056012     -1.417969      1.104895
  C      -5.618865     -3.327035      0.535767
  H      -6.003912     -4.216568      1.093147
  H      -6.173245     -3.294063     -0.429475
  C       0.234964      0.134173      1.679021
  H       0.455347     -0.952512      1.572968
  H       0.615107      0.428032      2.689003
  C       0.972440      0.961698      0.591409
  H       0.728084      2.042756      0.740873
  H       0.556596      0.690481     -0.410720
  C       2.514882      0.798364      0.569676
  H       2.944426      1.177727      1.530321
  H       2.921724      1.470396     -0.224006
  C       3.010878     -0.649270      0.318095
  H       2.420221     -1.103256     -0.513506
  H       2.810037     -1.278502      1.216373
  C       4.519227     -0.742509     -0.034938
  H       4.862363     -1.798533      0.087171
  H       5.117893     -0.136376      0.687605
  C       4.852809     -0.272239     -1.488110
  H       5.964826     -0.244393     -1.599025
  H       4.505377      0.774826     -1.640970
  C       4.270226     -1.203503     -2.535776
  H       4.631022     -2.252348     -2.471526
  C       3.356126     -0.915721     -3.495698
  H       3.061179     -1.743359     -4.171987
  C       2.741323      0.443811     -3.815194
  H       2.562649      1.039777     -2.888703
  H       1.736495      0.281045     -4.272931
  C       3.602413      1.296668     -4.805501
  H       4.534425      1.621361     -4.282419
  H       3.044223      2.231094     -5.056179
  C       3.992396      0.549241     -6.107986
  H       3.069485      0.183606     -6.623748
  H       4.568193     -0.360571     -5.827149
  C       4.826620      1.413003     -7.088299
  H       5.751881      1.762485     -6.565580
  H       4.249577      2.340353     -7.331065
  C       5.236125      0.730037     -8.425432
  H       5.690885      1.512796     -9.077374
  H       4.318449      0.390855     -8.966661
  C       6.237143     -0.462824     -8.315150
  H       6.951348     -0.272224     -7.475686
  H       6.865843     -0.486431     -9.238453
  C       5.599022     -1.868984     -8.145089
  H       4.905177     -2.054885     -9.001023
  H       4.965087     -1.901827     -7.229876
  C       6.650970     -3.003956     -8.078190
  H       7.337572     -2.867227     -7.210830
  H       7.280218     -3.026829     -8.998920
  H       6.171661     -4.004415     -7.973379
  C      -4.091586     -3.474073      0.299041
  H      -3.896476     -4.484099     -0.135800
  H      -3.552313     -3.439913      1.272424
  C      -3.513907     -2.392476     -0.652205
  H      -3.793629     -1.377169     -0.277275
  H      -3.998926     -2.490412     -1.654977
  C      -1.969503     -2.460507     -0.799690
  H      -1.669539     -3.485588     -1.127416
  H      -1.514263     -2.325005      0.211067
  C      -1.393253     -1.403505     -1.786153
  H      -1.910676     -0.428186     -1.612291
  H      -0.315905     -1.218374     -1.558213
  C      -1.507308     -1.800761     -3.280748
  H      -0.804461     -2.645174     -3.478756
  H      -2.530701     -2.185718     -3.507846
  C      -1.198399     -0.619296     -4.261546
  H      -0.906117     -1.043826     -5.253668
  H      -0.311620     -0.057510     -3.892695
  C      -2.393568      0.295999     -4.468368
  H      -3.253560     -0.197987     -4.965626
  C      -2.552336      1.595704     -4.115447
  H      -3.528580      2.065399     -4.356379
  C      -1.562522      2.512787     -3.415307
  H      -1.234716      3.303127     -4.138707
  H      -0.638362      1.963776     -3.118933
  C      -2.178761      3.218181     -2.170887
  H      -2.425750      2.450326     -1.399945
  H      -3.158971      3.668544     -2.461118
  C      -1.276522      4.330518     -1.588914
  H      -0.264817      3.908938     -1.347872
  H      -1.096548      5.095446     -2.384571
  C      -1.865091      5.043447     -0.339297
  H      -1.262690      5.963169     -0.136142
  H      -2.898797      5.403552     -0.567449
  C      -1.896617      4.162094      0.933277
  H      -0.865262      3.775938      1.112386
  H      -2.525742      3.253764      0.765832
  C      -2.425865      4.877265      2.204604
  H      -1.818248      5.798340      2.389437
  H      -3.468653      5.231109      2.012250
  C      -2.431037      3.984623      3.477950
  H      -2.983295      4.513193      4.289484
  H      -3.012440      3.051797      3.283788
  C      -1.029132      3.603716      4.016511
  H      -0.438181      4.510752      4.286370
  H      -1.128793      2.978714      4.933432
  H      -0.420623      3.024149      3.279517
138
Coordinates from ORCA-job /wrk/rja7/qm_final_3_replicates/qm_final_1.1/qm/8/freq E -2722.588341191186
  N       0.455797     -2.335834      6.884774
  C       0.824097     -0.859728      6.532075
  H       1.548238     -0.936917      5.691050
  H       1.350407     -0.462576      7.426473
  C      -0.304540     -2.427665      8.220961
  H      -0.297617     -3.492592      8.536031
  H       0.219843     -1.801923      8.970408
  H      -1.350041     -2.084653      8.054552
  C       1.767870     -3.097863      7.012580
  H       1.553456     -4.151833      7.283925
  H       2.310593     -3.065439      6.044624
  H       2.384279     -2.624638      7.804667
  C      -0.403419     -2.963355      5.776991
  H      -0.479413     -4.050574      5.987087
  H       0.080697     -2.785762      4.796761
  H      -1.407362     -2.491069      5.815670
  C      -0.316827      0.089204      6.114222
  H       0.220696      0.988949      5.714349
  H      -0.874149     -0.341534      5.257199
  P      -2.826126      0.072708      7.149027
  O      -3.476018      0.698442      8.356638
  O      -2.919382     -1.431879      6.792317
  O      -1.144988      0.474996      7.199375
  O      -3.181559      0.957634      5.713083
  C      -4.413200      0.638169      5.049385
  H      -4.782922      1.573313      4.562105
  H      -5.203348      0.299253      5.765757
  C      -4.215033     -0.457088      3.969691
  H      -3.742934     -1.348452      4.430625
  O      -3.304335      0.108826      2.949232
  C      -2.124172     -0.511401      2.663689
  O      -1.747105     -1.581594      3.139456
  C      -1.338925      0.311743      1.635277
  H      -1.584341      1.382549      1.776161
  H      -1.742341      0.044791      0.629879
  C      -5.513926     -0.860191      3.255681
  H      -5.926494     -0.028257      2.640552
  H      -6.288411     -1.157580      4.002500
  O      -5.198097     -1.999903      2.396375
  C      -6.055021     -2.279649      1.353900
  O      -7.079623     -1.654331      1.127409
  C      -5.569443     -3.510381      0.565290
  H      -5.892079     -4.407219      1.149980
  H      -6.151822     -3.527997     -0.383603
  C       0.189221      0.077520      1.671072
  H       0.395504     -1.011698      1.563546
  H       0.584361      0.368365      2.675973
  C       0.925745      0.892951      0.575193
  H       0.684906      1.976203      0.712184
  H       0.509214      0.612307     -0.424239
  C       2.467645      0.726166      0.557741
  H       2.894172      1.118030      1.514758
  H       2.877663      1.386360     -0.243569
  C       2.964407     -0.725716      0.327924
  H       2.383925     -1.187440     -0.506593
  H       2.749802     -1.345607      1.229735
  C       4.479808     -0.821575      0.003358
  H       4.821977     -1.875909      0.142229
  H       5.062639     -0.208984      0.733511
  C       4.845467     -0.358981     -1.444547
  H       5.959894     -0.326758     -1.527422
  H       4.498008      0.685846     -1.611324
  C       4.296992     -1.295004     -2.506209
  H       4.667782     -2.339929     -2.438354
  C       3.403051     -1.008946     -3.485139
  H       3.131284     -1.832581     -4.175683
  C       2.775565      0.346545     -3.795810
  H       2.567410      0.920352     -2.862089
  H       1.783552      0.177229     -4.277431
  C       3.644450      1.233992     -4.747571
  H       4.568671      1.545443     -4.203083
  H       3.084932      2.174228     -4.973539
  C       4.051373      0.535234     -6.071055
  H       3.135145      0.189726     -6.612150
  H       4.624745     -0.384754     -5.818533
  C       4.895981      1.437780     -7.005662
  H       5.819114      1.757476     -6.460723
  H       4.326225      2.378643     -7.209273
  C       5.311967      0.815536     -8.369449
  H       5.775198      1.626446     -8.979287
  H       4.397390      0.506183     -8.933730
  C       6.309209     -0.383664     -8.306887
  H       7.018354     -0.232098     -7.455149
  H       6.943979     -0.366916     -9.226299
  C       5.668045     -1.795031     -8.204476
  H       4.978345     -1.941039     -9.071797
  H       5.028887     -1.867700     -7.294909
  C       6.718512     -2.933068     -8.181534
  H       7.399643     -2.836205     -7.304138
  H       7.354090     -2.915786     -9.098157
  H       6.237408     -3.936580     -8.124274
  C      -4.043526     -3.582484      0.285250
  H      -3.813267     -4.581208     -0.158564
  H      -3.479047     -3.526765      1.243578
  C      -3.548472     -2.473670     -0.681378
  H      -3.845946     -1.471571     -0.285365
  H      -4.078628     -2.583712     -1.659456
  C      -2.012539     -2.484808     -0.908013
  H      -1.695425     -3.491184     -1.276851
  H      -1.507921     -2.356337      0.079310
  C      -1.524296     -1.390429     -1.901311
  H      -2.060929     -0.434522     -1.684610
  H      -0.443185     -1.171035     -1.727637
  C      -1.708847     -1.767016     -3.394296
  H      -1.000450     -2.592298     -3.646359
  H      -2.735980     -2.168793     -3.569759
  C      -1.474179     -0.566615     -4.369397
  H      -1.270526     -0.969155     -5.392659
  H      -0.554196     -0.021649     -4.063296
  C      -2.667150      0.370106     -4.445749
  H      -3.581421     -0.098396     -4.866149
  C      -2.758381      1.667270     -4.062246
  H      -3.739241      2.166378     -4.206405
  C      -1.684663      2.548329     -3.442836
  H      -1.413117      3.347483     -4.179754
  H      -0.747266      1.977784     -3.247368
  C      -2.164698      3.243373     -2.133384
  H      -2.356973      2.467865     -1.353686
  H      -3.156415      3.721516     -2.326527
  C      -1.188227      4.329315     -1.616857
  H      -0.183267      3.873111     -1.420366
  H      -1.024144      5.073657     -2.434415
  C      -1.688748      5.087941     -0.354453
  H      -1.035883      5.979285     -0.185078
  H      -2.710340      5.496672     -0.554642
  C      -1.725764      4.232143      0.935847
  H      -0.705968      3.811828      1.108598
  H      -2.392920      3.346995      0.795305
  C      -2.208898      4.997153      2.197244
  H      -1.548678      5.883821      2.370355
  H      -3.227957      5.410014      1.996611
  C      -2.271656      4.128569      3.485560
  H      -2.796649      4.703658      4.284420
  H      -2.906458      3.230124      3.299205
  C      -0.898465      3.671834      4.040339
  H      -0.254410      4.544741      4.302342
  H      -1.041128      3.064514      4.963336
  H      -0.324752      3.046652      3.314342
138
Coordinates from ORCA-job /wrk/rja7/qm_final_3_replicates/qm_final_1.1/qm/8/freq E -2722.589025367870
  N       0.353887     -2.295915      6.958646
  C       0.781141     -0.866818      6.497172
  H       1.496116     -1.032313      5.660269
  H       1.330033     -0.428024      7.357408
  C      -0.407532     -2.255031      8.296534
  H      -0.442403     -3.291862      8.692895
  H       0.141388     -1.594830      8.997367
  H      -1.438655     -1.885113      8.102763
  C       1.631214     -3.101781      7.144897
  H       1.370170     -4.121520      7.494691
  H       2.171031     -3.166563      6.176925
  H       2.270639     -2.599236      7.900260
  C      -0.532906     -2.970988      5.900770
  H      -0.653077     -4.034440      6.193780
  H      -0.043082     -2.891011      4.910466
  H      -1.516752     -2.455790      5.901106
  C      -0.326787      0.092959      6.022376
  H       0.235053      0.940728      5.553245
  H      -0.912439     -0.375389      5.205424
  P      -2.816826      0.223123      7.090418
  O      -3.424421      0.920685      8.280029
  O      -2.953318     -1.294184      6.811874
  O      -1.126168      0.583780      7.085787
  O      -3.179742      1.046705      5.620052
  C      -4.414296      0.703624      4.974273
  H      -4.791017      1.621073      4.459502
  H      -5.199124      0.383495      5.704985
  C      -4.208774     -0.423701      3.931159
  H      -3.724413     -1.293426      4.421393
  O      -3.312718      0.121959      2.886955
  C      -2.111020     -0.468767      2.633416
  O      -1.686405     -1.485044      3.181496
  C      -1.348777      0.327364      1.564814
  H      -1.613349      1.402438      1.657805
  H      -1.748876      0.008697      0.572450
  C      -5.506771     -0.865219      3.240121
  H      -5.942577     -0.055088      2.612176
  H      -6.268049     -1.158479      4.002178
  O      -5.182302     -2.024185      2.409059
  C      -6.047011     -2.348883      1.385931
  O      -7.073469     -1.733890      1.141870
  C      -5.541636     -3.583379      0.614448
  H      -5.832630     -4.476790      1.220164
  H      -6.136122     -3.632972     -0.325213
  C       0.182865      0.115430      1.609937
  H       0.402342     -0.974249      1.543103
  H       0.572755      0.449613      2.604002
  C       0.913647      0.893379      0.486123
  H       0.658390      1.976959      0.576297
  H       0.509364      0.565090     -0.504175
  C       2.457513      0.740075      0.482614
  H       2.878484      1.160354      1.429908
  H       2.865487      1.380370     -0.335211
  C       2.965906     -0.715484      0.293744
  H       2.389541     -1.205380     -0.528271
  H       2.752274     -1.310206      1.213183
  C       4.484868     -0.811917     -0.022119
  H       4.831761     -1.860892      0.142028
  H       5.059139     -0.181563      0.699864
  C       4.861712     -0.380379     -1.477130
  H       5.976974     -0.342017     -1.549294
  H       4.509777      0.657618     -1.670677
  C       4.335062     -1.340872     -2.529035
  H       4.721723     -2.378691     -2.446174
  C       3.441432     -1.078105     -3.514374
  H       3.181011     -1.910968     -4.198215
  C       2.785936      0.264407     -3.822351
  H       2.568253      0.824154     -2.883361
  H       1.797195      0.078591     -4.304450
  C       3.633528      1.182800     -4.761959
  H       4.551485      1.506959     -4.214237
  H       3.052039      2.113624     -4.972478
  C       4.050019      0.517236     -6.097654
  H       3.139680      0.152198     -6.636004
  H       4.655967     -0.388125     -5.866927
  C       4.849406      1.466647     -7.024364
  H       5.764646      1.815760     -6.483222
  H       4.239595      2.386373     -7.207272
  C       5.274638      0.884124     -8.402217
  H       5.692271      1.725636     -9.002816
  H       4.368713      0.541278     -8.960754
  C       6.329466     -0.266012     -8.371101
  H       7.041914     -0.091343     -7.526497
  H       6.949928     -0.205055     -9.298487
  C       5.761058     -1.708648     -8.279934
  H       5.067049     -1.877554     -9.139132
  H       5.139632     -1.826034     -7.362123
  C       6.868567     -2.791472     -8.287549
  H       7.556290     -2.670236     -7.418294
  H       7.489163     -2.730122     -9.212327
  H       6.440446     -3.819025     -8.237047
  C      -4.017739     -3.626680      0.314013
  H      -3.775838     -4.622724     -0.129711
  H      -3.444277     -3.560993      1.266600
  C      -3.549616     -2.512804     -0.658709
  H      -3.841014     -1.512816     -0.253084
  H      -4.099988     -2.619487     -1.624989
  C      -2.019182     -2.519200     -0.919638
  H      -1.707326     -3.523225     -1.300402
  H      -1.492892     -2.393839      0.055278
  C      -1.556751     -1.421596     -1.920873
  H      -2.081994     -0.464214     -1.684879
  H      -0.468754     -1.208799     -1.778897
  C      -1.791104     -1.790076     -3.409770
  H      -1.096566     -2.618473     -3.689287
  H      -2.824434     -2.188418     -3.552136
  C      -1.581051     -0.586327     -4.385283
  H      -1.430068     -0.985233     -5.418820
  H      -0.638305     -0.056228     -4.118344
  C      -2.765083      0.366575     -4.399542
  H      -3.701704     -0.082660     -4.789919
  C      -2.821907      1.659742     -3.995981
  H      -3.798097      2.177636     -4.099215
  C      -1.714507      2.517897     -3.405356
  H      -1.447771      3.317203     -4.143584
  H      -0.783623      1.927880     -3.243467
  C      -2.139958      3.209889     -2.075405
  H      -2.345135      2.425572     -1.308498
  H      -3.115045      3.732475     -2.237679
  C      -1.104630      4.238477     -1.550181
  H      -0.128653      3.727348     -1.355754
  H      -0.899094      4.976967     -2.363651
  C      -1.553446      5.013611     -0.278853
  H      -0.847815      5.861771     -0.103662
  H      -2.548183      5.487175     -0.472645
  C      -1.635671      4.153057      1.007136
  H      -0.639078      3.680843      1.183179
  H      -2.349859      3.307895      0.856507
  C      -2.080255      4.940683      2.267800
  H      -1.373626      5.789175      2.449585
  H      -3.071681      5.412460      2.058806
  C      -2.203361      4.074945      3.552874
  H      -2.723206      4.670079      4.338959
  H      -2.867784      3.202247      3.349268
  C      -0.859907      3.567964      4.135221
  H      -0.189296      4.418293      4.406260
  H      -1.041984      2.970322      5.054804
  H      -0.297259      2.923072      3.418318
138
Coordinates from ORCA-job /wrk/rja7/qm_final_3_replicates/qm_final_1.1/qm/8/freq E -2722.588425866267
  N       0.274132     -2.149614      6.956773
  C       0.721230     -0.774702      6.367678
  H       1.392682     -1.031866      5.517922
  H       1.323439     -0.285064      7.162503
  C      -0.413428     -1.990812      8.324814
  H      -0.451455     -2.993991      8.799404
  H       0.187080     -1.296902      8.946578
  H      -1.442977     -1.606370      8.159547
  C       1.532162     -2.986711      7.134850
  H       1.253811     -3.971545      7.562623
  H       2.017683     -3.132978      6.147368
  H       2.226548     -2.461990      7.824433
  C      -0.684212     -2.868749      5.995155
  H      -0.814161     -3.906911      6.364151
  H      -0.248353     -2.869449      4.976532
  H      -1.654394     -2.328035      6.012724
  C      -0.375970      0.179215      5.858856
  H       0.185767      0.958274      5.285287
  H      -1.017845     -0.336611      5.118505
  P      -2.805853      0.508913      7.026155
  O      -3.327422      1.360306      8.154673
  O      -3.005538     -1.024939      6.932368
  O      -1.107683      0.804017      6.900097
  O      -3.216720      1.168748      5.486272
  C      -4.461235      0.751452      4.900266
  H      -4.862520      1.616344      4.317672
  H      -5.226223      0.483016      5.671225
  C      -4.243883     -0.453936      3.950781
  H      -3.760633     -1.279547      4.513763
  O      -3.342367      0.022891      2.880746
  C      -2.148656     -0.594330      2.653007
  O      -1.744652     -1.602978      3.230032
  C      -1.353155      0.187888      1.597228
  H      -1.556386      1.274016      1.728947
  H      -1.778834     -0.073524      0.598509
  C      -5.532496     -0.954188      3.285080
  H      -5.991698     -0.184007      2.623952
  H      -6.283678     -1.227728      4.064628
  O      -5.183941     -2.140344      2.503218
  C      -6.025358     -2.513428      1.477783
  O      -7.057779     -1.925450      1.195332
  C      -5.468684     -3.748073      0.742742
  H      -5.715719     -4.636815      1.374440
  H      -6.066988     -3.856019     -0.189599
  C       0.165381     -0.110728      1.614057
  H       0.324857     -1.204785      1.482694
  H       0.586002      0.146301      2.619206
  C       0.918046      0.697853      0.528549
  H       0.705483      1.782046      0.686237
  H       0.488693      0.445395     -0.473686
  C       2.455890      0.492979      0.493532
  H       2.900845      0.847348      1.456318
  H       2.872249      1.166839     -0.291964
  C       2.928978     -0.961808      0.214089
  H       2.330810     -1.394981     -0.623973
  H       2.717962     -1.604757      1.101727
  C       4.445768     -1.060340     -0.121521
  H       4.788260     -2.115901      0.003821
  H       5.027503     -0.460611      0.620547
  C       4.823611     -0.578038     -1.561656
  H       5.938840     -0.523913     -1.623800
  H       4.462415      0.461592     -1.723825
  C       4.326807     -1.509453     -2.654838
  H       4.745658     -2.536882     -2.616864
  C       3.428472     -1.228628     -3.631342
  H       3.193694     -2.036945     -4.352632
  C       2.723102      0.102230     -3.873744
  H       2.475711      0.597738     -2.907549
  H       1.744401     -0.098555     -4.371316
  C       3.535637      1.110330     -4.751286
  H       4.428976      1.451566     -4.173513
  H       2.909913      2.021306     -4.919820
  C       4.005165      0.544510     -6.114661
  H       3.123416      0.158594     -6.685548
  H       4.661427     -0.336284     -5.926009
  C       4.754768      1.591222     -6.975873
  H       5.632674      1.974529     -6.396025
  H       4.088227      2.476055     -7.128925
  C       5.249594      1.103388     -8.367060
  H       5.622730      1.996911     -8.921678
  H       4.382886      0.723521     -8.962519
  C       6.380298      0.027596     -8.350971
  H       7.056481      0.219295     -7.480664
  H       7.019813      0.163292     -9.257338
  C       5.907906     -1.451393     -8.320382
  H       5.252273     -1.638763     -9.205165
  H       5.266927     -1.636057     -7.425906
  C       7.084631     -2.458107     -8.323295
  H       7.735731     -2.321050     -7.428168
  H       7.729046     -2.326413     -9.224093
  H       6.724199     -3.512545     -8.317948
  C      -3.946972     -3.723976      0.430823
  H      -3.664109     -4.713494     -0.003538
  H      -3.369011     -3.623682      1.378188
  C      -3.538928     -2.600751     -0.558704
  H      -3.835811     -1.605776     -0.145171
  H      -4.124835     -2.723993     -1.501226
  C      -2.021970     -2.576394     -0.881033
  H      -1.711722     -3.571691     -1.286762
  H      -1.452744     -2.449509      0.068789
  C      -1.618194     -1.469952     -1.897695
  H      -2.126047     -0.513231     -1.626957
  H      -0.522884     -1.256013     -1.818044
  C      -1.937343     -1.820156     -3.376405
  H      -1.264751     -2.647739     -3.706566
  H      -2.980525     -2.208272     -3.463945
  C      -1.767775     -0.607984     -4.350168
  H      -1.725631     -1.000653     -5.395551
  H      -0.780852     -0.121719     -4.162498
  C      -2.908184      0.395728     -4.256634
  H      -3.896291     -0.011083     -4.555755
  C      -2.871282      1.692396     -3.857691
  H      -3.829992      2.251156     -3.876205
  C      -1.683983      2.515014     -3.382992
  H      -1.460027      3.301582     -4.148742
  H      -0.762198      1.896649     -3.304279
  C      -1.969377      3.233060     -2.028326
  H      -2.164142      2.465476     -1.244032
  H      -2.920894      3.812642     -2.127775
  C      -0.840215      4.195344     -1.562939
  H       0.095051      3.615042     -1.379808
  H      -0.604015      4.897172     -2.399649
  C      -1.203275      5.030057     -0.301108
  H      -0.400128      5.780169     -0.104762
  H      -2.122479      5.626707     -0.527234
  C      -1.455825      4.195144      0.980391
  H      -0.548953      3.580956      1.200070
  H      -2.283140      3.470360      0.792912
  C      -1.833919      5.041968      2.224514
  H      -1.000011      5.743433      2.478643
  H      -2.702420      5.691330      1.953880
  C      -2.217273      4.197783      3.472893
  H      -2.686247      4.864912      4.232052
  H      -3.004638      3.465461      3.178204
  C      -1.047065      3.434203      4.142221
  H      -0.251989      4.134610      4.495179
  H      -1.419110      2.860896      5.015759
  H      -0.562041      2.711630      3.441543
138
Coordinates from ORCA-job /wrk/rja7/qm_final_3_replicates/qm_final_1.1/qm/8/freq E -2722.589347629375
  N       0.292744     -2.137716      6.920555
  C       0.669600     -0.704154      6.425224
  H       1.364869     -0.872805      5.571196
  H       1.239095     -0.238687      7.261248
  C      -0.439145     -2.104815      8.273031
  H      -0.432173     -3.137033      8.682252
  H       0.101339     -1.419449      8.956740
  H      -1.484126     -1.772823      8.100553
  C       1.595293     -2.906495      7.086405
  H       1.366540     -3.931304      7.443962
  H       2.114226     -2.960820      6.107492
  H       2.238224     -2.388188      7.828498
  C      -0.593926     -2.857026      5.892583
  H      -0.649765     -3.925803      6.188593
  H      -0.142746     -2.756476      4.884847
  H      -1.604137     -2.393787      5.930012
  C      -0.462523      0.234049      5.957634
  H       0.074825      1.074602      5.441208
  H      -1.074295     -0.262214      5.171359
  P      -2.929807      0.402839      7.091942
  O      -3.515214      1.203825      8.226557
  O      -3.066066     -1.135232      6.960444
  O      -1.240884      0.772828      7.017314
  O      -3.322514      1.082749      5.556242
  C      -4.544753      0.656635      4.933416
  H      -4.951112      1.529698      4.365851
  H      -5.318418      0.354867      5.682823
  C      -4.293075     -0.520933      3.955536
  H      -3.797580     -1.349114      4.504457
  O      -3.400849     -0.008101      2.894062
  C      -2.200851     -0.603898      2.648729
  O      -1.799581     -1.642338      3.170573
  C      -1.413682      0.208440      1.609922
  H      -1.608541      1.291567      1.778695
  H      -1.852033     -0.015635      0.608786
  C      -5.568880     -1.020931      3.268880
  H      -6.028876     -0.241331      2.619033
  H      -6.327421     -1.314857      4.034169
  O      -5.202325     -2.190499      2.470829
  C      -6.034435     -2.553359      1.434088
  O      -7.072225     -1.969274      1.159487
  C      -5.489581     -3.800140      0.709128
  H      -5.734133     -4.682823      1.349800
  H      -6.091426     -3.910188     -0.220504
  C       0.103067     -0.103258      1.606306
  H       0.249068     -1.197117      1.460873
  H       0.535603      0.134641      2.611133
  C       0.856879      0.697015      0.517132
  H       0.645483      1.780411      0.662390
  H       0.435939      0.433747     -0.481977
  C       2.393088      0.486905      0.484992
  H       2.842866      0.851016      1.443348
  H       2.813426      1.145693     -0.311026
  C       2.849340     -0.978651      0.231104
  H       2.251861     -1.419785     -0.604687
  H       2.620258     -1.601554      1.129580
  C       4.365672     -1.108587     -0.096055
  H       4.685540     -2.171738      0.025498
  H       4.954963     -0.524975      0.653197
  C       4.759821     -0.635799     -1.534895
  H       5.876537     -0.615261     -1.596777
  H       4.430127      0.413821     -1.695773
  C       4.237058     -1.552113     -2.631425
  H       4.634145     -2.588087     -2.599254
  C       3.346077     -1.247030     -3.608530
  H       3.094251     -2.045406     -4.334967
  C       2.671051      0.101495     -3.841357
  H       2.423252      0.580177     -2.866744
  H       1.694723     -0.066633     -4.358986
  C       3.521709      1.111128     -4.679406
  H       4.418474      1.407290     -4.081147
  H       2.924139      2.045144     -4.824702
  C       3.988095      0.576515     -6.056805
  H       3.099413      0.244452     -6.651296
  H       4.609994     -0.333588     -5.893220
  C       4.785200      1.627505     -6.871688
  H       5.677261      1.948426     -6.276503
  H       4.155216      2.543857     -6.981220
  C       5.258067      1.189239     -8.288884
  H       5.675785      2.093510     -8.795726
  H       4.373945      0.884835     -8.903466
  C       6.334904      0.059160     -8.335461
  H       7.017533      0.164865     -7.454806
  H       6.983308      0.216038     -9.232038
  C       5.790581     -1.394472     -8.396366
  H       5.122751     -1.492176     -9.287925
  H       5.142868     -1.604015     -7.512699
  C       6.916427     -2.455719     -8.469625
  H       7.576828     -2.405906     -7.570630
  H       7.564681     -2.300847     -9.364402
  H       6.504935     -3.489882     -8.527403
  C      -3.964835     -3.794328      0.397630
  H      -3.698153     -4.788992     -0.036034
  H      -3.391461     -3.707855      1.350040
  C      -3.519021     -2.676095     -0.579619
  H      -3.791432     -1.677800     -0.158621
  H      -4.092528     -2.767346     -1.532795
  C      -1.994531     -2.694829     -0.876534
  H      -1.703450     -3.698258     -1.278390
  H      -1.444332     -2.589510      0.087538
  C      -1.528876     -1.592193     -1.872301
  H      -2.022038     -0.624849     -1.613473
  H      -0.433278     -1.413566     -1.750417
  C      -1.801006     -1.917659     -3.364451
  H      -1.136109     -2.757714     -3.680866
  H      -2.846100     -2.288793     -3.493846
  C      -1.577660     -0.697056     -4.316527
  H      -1.484308     -1.087788     -5.358988
  H      -0.600512     -0.207217     -4.080317
  C      -2.734023      0.294231     -4.275529
  H      -3.702149     -0.123327     -4.625876
  C      -2.734291      1.592123     -3.878775
  H      -3.698806      2.138585     -3.946885
  C      -1.585038      2.438786     -3.358390
  H      -1.320708      3.203466     -4.134457
  H      -0.667286      1.826579     -3.209314
  C      -1.939025      3.202284     -2.043746
  H      -2.151011      2.459104     -1.240589
  H      -2.892566      3.767241     -2.197767
  C      -0.829833      4.189868     -1.580688
  H       0.097266      3.617047     -1.346835
  H      -0.567998      4.853653     -2.440609
  C      -1.195688      5.080431     -0.357351
  H      -0.378534      5.823655     -0.194287
  H      -2.104339      5.683203     -0.610082
  C      -1.443057      4.313916      0.969447
  H      -0.545906      3.690180      1.197358
  H      -2.291318      3.604321      0.834751
  C      -1.751139      5.235582      2.178147
  H      -0.900346      5.944660      2.337145
  H      -2.629528      5.875821      1.916377
  C      -2.049108      4.479167      3.505567
  H      -2.467827      5.202101      4.247090
  H      -2.856450      3.727448      3.320803
  C      -0.824794      3.769064      4.141072
  H      -0.008369      4.498012      4.365064
  H      -1.113518      3.268003      5.087384
  H      -0.395221      2.996287      3.461716
138
Coordinates from ORCA-job /wrk/rja7/qm_final_3_replicates/qm_final_1.1/qm/8/freq E -2722.589905488328
  N       0.392338     -2.143045      7.009999
  C       0.789740     -0.727319      6.483220
  H       1.502279     -0.919950      5.650108
  H       1.339576     -0.244038      7.321336
  C      -0.359758     -2.057855      8.350044
  H      -0.386424     -3.079687      8.784506
  H       0.189377     -1.369489      9.023289
  H      -1.394559     -1.699606      8.151382
  C       1.686658     -2.918811      7.216799
  H       1.446690     -3.930911      7.601905
  H       2.221034     -3.005360      6.248241
  H       2.321586     -2.380809      7.950691
  C      -0.490409     -2.875452      5.988306
  H      -0.583976     -3.930660      6.321592
  H      -0.014596     -2.821416      4.989459
  H      -1.485608     -2.383332      5.983339
  C      -0.332342      0.196255      5.969046
  H       0.216328      1.033317      5.458336
  H      -0.913238     -0.318416      5.172858
  P      -2.833719      0.337977      7.020105
  O      -3.452035      1.063306      8.187553
  O      -2.951311     -1.189093      6.787786
  O      -1.146474      0.727578      7.004921
  O      -3.210826      1.103675      5.522079
  C      -4.438955      0.723910      4.882900
  H      -4.820736      1.619629      4.334688
  H      -5.222533      0.423373      5.622703
  C      -4.226412     -0.440038      3.879237
  H      -3.756100     -1.294613      4.407298
  O      -3.311033      0.063850      2.834205
  C      -2.119352     -0.556729      2.612641
  O      -1.750078     -1.601849      3.145896
  C      -1.307699      0.226336      1.573084
  H      -1.505261      1.308240      1.712875
  H      -1.730046     -0.022634      0.572179
  C      -5.523522     -0.890020      3.189719
  H      -5.950858     -0.088475      2.544838
  H      -6.289482     -1.160408      3.956045
  O      -5.214503     -2.065804      2.377660
  C      -6.074210     -2.369537      1.342469
  O      -7.099117     -1.747122      1.107460
  C      -5.607076     -3.630565      0.589764
  H      -5.896048     -4.506044      1.221998
  H      -6.220448     -3.689734     -0.337650
  C       0.210137     -0.072662      1.599892
  H       0.368761     -1.167764      1.475730
  H       0.621344      0.185015      2.607160
  C       0.975535      0.718620      0.507125
  H       0.762724      1.806939      0.635353
  H       0.564464      0.442482     -0.491764
  C       2.511315      0.512910      0.498525
  H       2.945772      0.879275      1.462936
  H       2.942561      1.172562     -0.292423
  C       2.968846     -0.950383      0.257440
  H       2.385021     -1.389899     -0.587414
  H       2.726965     -1.572820      1.151557
  C       4.483028     -1.080086     -0.059321
  H       4.799414     -2.146531      0.043944
  H       5.073742     -0.508786      0.697675
  C       4.866672     -0.578667     -1.488755
  H       5.981752     -0.571577     -1.569886
  H       4.546870      0.479874     -1.619759
  C       4.299003     -1.464118     -2.585485
  H       4.677767     -2.508099     -2.578145
  C       3.386152     -1.134089     -3.534065
  H       3.107833     -1.922185     -4.262278
  C       2.735282      0.228904     -3.755448
  H       2.514874      0.727700     -2.781602
  H       1.747079      0.075519     -4.252172
  C       3.590488      1.202443     -4.632618
  H       4.507948      1.488613     -4.062185
  H       3.013412      2.147164     -4.784852
  C       4.013007      0.620282     -6.007244
  H       3.104401      0.301612     -6.577536
  H       4.604996     -0.305095     -5.829101
  C       4.841433      1.613494     -6.864630
  H       5.753824      1.911117     -6.290416
  H       4.249852      2.553396     -6.993471
  C       5.280001      1.111976     -8.272485
  H       5.741277      1.975974     -8.809366
  H       4.375496      0.838613     -8.871344
  C       6.289515     -0.079398     -8.291630
  H       6.975246      0.004047     -7.411302
  H       6.947692      0.020251     -9.188919
  C       5.659468     -1.499470     -8.328014
  H       5.004147     -1.580059     -9.230771
  H       4.984450     -1.646215     -7.454410
  C       6.717869     -2.629822     -8.349712
  H       7.360018     -2.598065     -7.438016
  H       7.393444     -2.538119     -9.233187
  H       6.243910     -3.637567     -8.392095
  C      -4.089304     -3.706822      0.263549
  H      -3.875448     -4.713953     -0.170193
  H      -3.499885     -3.640297      1.206644
  C      -3.609502     -2.614901     -0.727941
  H      -3.879036     -1.606506     -0.328869
  H      -4.165892     -2.717311     -1.692037
  C      -2.078443     -2.652475     -0.989400
  H      -1.786095     -3.661751     -1.371966
  H      -1.553673     -2.541877     -0.009788
  C      -1.581804     -1.554958     -1.975493
  H      -2.095907     -0.592427     -1.737238
  H      -0.495131     -1.366871     -1.811092
  C      -1.787270     -1.885193     -3.475282
  H      -1.097516     -2.715474     -3.762288
  H      -2.822022     -2.266263     -3.653116
  C      -1.544432     -0.655178     -4.409690
  H      -1.394061     -1.027193     -5.453537
  H      -0.595258     -0.152050     -4.120221
  C      -2.713374      0.315783     -4.408031
  H      -3.657739     -0.114386     -4.804032
  C      -2.756216      1.601922     -3.981343
  H      -3.730801      2.127692     -4.067250
  C      -1.640897      2.447121     -3.387994
  H      -1.369394      3.247987     -4.124044
  H      -0.713812      1.846845     -3.231015
  C      -2.058284      3.141845     -2.056801
  H      -2.263082      2.362515     -1.285228
  H      -3.030358      3.670365     -2.215707
  C      -1.014266      4.167220     -1.545140
  H      -0.049465      3.640622     -1.325264
  H      -0.786200      4.880001     -2.375353
  C      -1.459114      4.989189     -0.300380
  H      -0.710592      5.800813     -0.125224
  H      -2.421807      5.510435     -0.530564
  C      -1.616151      4.171109      1.008699
  H      -0.653621      3.645563      1.214926
  H      -2.377506      3.366048      0.869524
  C      -2.026668      5.025659      2.237854
  H      -1.273429      5.839084      2.389943
  H      -2.989530      5.544209      2.005343
  C      -2.189912      4.223569      3.562123
  H      -2.679979      4.880569      4.321206
  H      -2.896454      3.373284      3.398613
  C      -0.868553      3.684038      4.169571
  H      -0.156550      4.515863      4.386104
  H      -1.070248      3.144356      5.122315
  H      -0.345364      2.974037      3.486788
138
Coordinates from ORCA-job /wrk/rja7/qm_final_3_replicates/qm_final_1.1/qm/8/freq E -2722.590928296000
  N       0.289503     -2.131670      6.987937
  C       0.735571     -0.738629      6.440241
  H       1.437173     -0.969200      5.607967
  H       1.307279     -0.261853      7.266377
  C      -0.452032     -2.004596      8.329750
  H      -0.509584     -3.019071      8.778147
  H       0.121896     -1.325501      8.991737
  H      -1.475194     -1.616436      8.131352
  C       1.555264     -2.951227      7.198228
  H       1.279140     -3.948365      7.597811
  H       2.079093     -3.069773      6.227197
  H       2.214395     -2.427901      7.921702
  C      -0.621888     -2.847520      5.978569
  H      -0.740259     -3.897521      6.319067
  H      -0.153693     -2.812396      4.975241
  H      -1.603771     -2.328523      5.978663
  C      -0.353928      0.216580      5.915685
  H       0.221740      1.016420      5.380717
  H      -0.963969     -0.290263      5.139662
  P      -2.830477      0.485809      6.999275
  O      -3.405182      1.290976      8.136226
  O      -3.008011     -1.045915      6.848170
  O      -1.130940      0.809143      6.946039
  O      -3.197041      1.186840      5.467442
  C      -4.434155      0.802459      4.847572
  H      -4.809217      1.684767      4.273873
  H      -5.217461      0.533166      5.599674
  C      -4.233807     -0.392849      3.879419
  H      -3.761804     -1.231401      4.431483
  O      -3.327345      0.078957      2.811473
  C      -2.135442     -0.543711      2.593804
  O      -1.758857     -1.576993      3.145246
  C      -1.329885      0.227330      1.538929
  H      -1.515178      1.313419      1.677625
  H      -1.765898     -0.021045      0.542836
  C      -5.536669     -0.861525      3.215696
  H      -5.972800     -0.080153      2.552342
  H      -6.294832     -1.110538      3.996686
  O      -5.228685     -2.061994      2.440457
  C      -6.084658     -2.407085      1.415962
  O      -7.102997     -1.790427      1.141493
  C      -5.593806     -3.681982      0.705055
  H      -5.870704     -4.544022      1.360526
  H      -6.200012     -3.779768     -0.223394
  C       0.184711     -0.088472      1.548696
  H       0.330277     -1.184725      1.417875
  H       0.608540      0.161348      2.552916
  C       0.948781      0.706204      0.457943
  H       0.740968      1.794958      0.595835
  H       0.532722      0.440651     -0.545396
  C       2.484880      0.493291      0.445147
  H       2.921869      0.858224      1.408213
  H       2.916511      1.151438     -0.345842
  C       2.942903     -0.970787      0.200110
  H       2.357255     -1.410679     -0.643213
  H       2.702835     -1.593241      1.094441
  C       4.460780     -1.099079     -0.107827
  H       4.778462     -2.163454      0.011270
  H       5.043310     -0.518454      0.648554
  C       4.864168     -0.611850     -1.537568
  H       5.980485     -0.582556     -1.591879
  H       4.526448      0.437443     -1.692986
  C       4.349761     -1.522216     -2.639616
  H       4.764495     -2.552228     -2.622319
  C       3.441885     -1.223674     -3.601854
  H       3.199301     -2.019357     -4.334602
  C       2.740646      0.114744     -3.817473
  H       2.487677      0.588700     -2.840276
  H       1.766924     -0.071905     -4.328413
  C       3.562537      1.138951     -4.666086
  H       4.465286      1.447982     -4.084534
  H       2.949146      2.063766     -4.798699
  C       4.011046      0.610265     -6.051961
  H       3.117553      0.268795     -6.632638
  H       4.643745     -0.293355     -5.899324
  C       4.790815      1.665630     -6.877541
  H       5.685727      1.992857     -6.291024
  H       4.153523      2.578263     -6.983448
  C       5.257664      1.224305     -8.294395
  H       5.679518      2.123492     -8.802569
  H       4.370606      0.924904     -8.906175
  C       6.323738      0.084488     -8.337272
  H       6.993777      0.173948     -7.445763
  H       6.987127      0.242725     -9.222364
  C       5.762924     -1.361800     -8.422768
  H       5.127784     -1.448680     -9.338577
  H       5.080659     -1.564066     -7.564963
  C       6.874651     -2.439236     -8.455548
  H       7.498335     -2.403119     -7.531481
  H       7.560460     -2.290453     -9.322952
  H       6.450495     -3.466700     -8.534664
  C      -4.072536     -3.736411      0.392830
  H      -3.837687     -4.746372     -0.022787
  H      -3.493336     -3.646024      1.340550
  C      -3.603210     -2.651077     -0.609766
  H      -3.874859     -1.639546     -0.219669
  H      -4.164762     -2.765573     -1.569068
  C      -2.074702     -2.685391     -0.880339
  H      -1.782579     -3.697585     -1.255725
  H      -1.541124     -2.561987      0.092180
  C      -1.590078     -1.601671     -1.885340
  H      -2.089563     -0.631374     -1.648062
  H      -0.496366     -1.421778     -1.745427
  C      -1.837687     -1.948927     -3.376867
  H      -1.160924     -2.786489     -3.672354
  H      -2.878945     -2.326561     -3.520945
  C      -1.608654     -0.734923     -4.335558
  H      -1.502128     -1.123314     -5.378700
  H      -0.640185     -0.245971     -4.086663
  C      -2.756732      0.260632     -4.306725
  H      -3.722227     -0.150504     -4.669186
  C      -2.754050      1.551425     -3.892648
  H      -3.714941      2.104058     -3.959044
  C      -1.600671      2.370227     -3.336713
  H      -1.314166      3.148042     -4.091089
  H      -0.692003      1.742372     -3.184293
  C      -1.973870      3.100116     -2.011988
  H      -2.208630      2.339236     -1.231116
  H      -2.921124      3.672598     -2.170584
  C      -0.877056      4.074454     -1.508368
  H       0.051165      3.498739     -1.263170
  H      -0.597335      4.756326     -2.348381
  C      -1.293162      4.940536     -0.285523
  H      -0.496608      5.701081     -0.096061
  H      -2.210916      5.524018     -0.547383
  C      -1.548552      4.145306      1.021469
  H      -0.635070      3.550125      1.261407
  H      -2.365680      3.401427      0.859378
  C      -1.928842      5.034499      2.234475
  H      -1.126154      5.796072      2.402483
  H      -2.847652      5.616366      1.976438
  C      -2.177097      4.248152      3.553214
  H      -2.646161      4.933589      4.298371
  H      -2.927576      3.442439      3.369095
  C      -0.907539      3.626337      4.188511
  H      -0.146219      4.410782      4.415083
  H      -1.163443      3.105672      5.137115
  H      -0.421328      2.881339      3.514097
138
Coordinates from ORCA-job /wrk/rja7/qm_final_3_replicates/qm_final_1.1/qm/8/freq E -2722.591057106006
  N       0.238884     -2.127296      6.974469
  C       0.700501     -0.745153      6.410825
  H       1.391607     -0.992602      5.574213
  H       1.288258     -0.270271      7.227223
  C      -0.490703     -1.978310      8.319557
  H      -0.558616     -2.987667      8.777819
  H       0.096112     -1.300770      8.972009
  H      -1.509649     -1.579992      8.124103
  C       1.493919     -2.963228      7.182935
  H       1.205160     -3.950975      7.596608
  H       2.005843     -3.100952      6.208351
  H       2.168128     -2.442382      7.894457
  C      -0.689840     -2.842024      5.979665
  H      -0.806062     -3.891108      6.323734
  H      -0.236713     -2.810526      4.969041
  H      -1.670752     -2.320186      5.995125
  C      -0.378162      0.224431      5.888440
  H       0.205190      1.010407      5.340723
  H      -1.005921     -0.278364      5.122317
  P      -2.838036      0.543268      6.994999
  O      -3.391162      1.377474      8.121722
  O      -3.035038     -0.989269      6.877480
  O      -1.134831      0.842384      6.919754
  O      -3.206368      1.216331      5.451369
  C      -4.441985      0.818087      4.837504
  H      -4.822636      1.691213      4.253307
  H      -5.223668      0.553000      5.592671
  C      -4.231017     -0.387191      3.884212
  H      -3.757368     -1.216629      4.449005
  O      -3.323357      0.076409      2.813882
  C      -2.127311     -0.542127      2.607517
  O      -1.743721     -1.561763      3.178863
  C      -1.313057      0.230725      1.560259
  H      -1.477271      1.318977      1.716307
  H      -1.759663      0.006064      0.562884
  C      -5.528975     -0.868861      3.221684
  H      -5.968860     -0.096255      2.550323
  H      -6.287302     -1.113688      4.003926
  O      -5.214575     -2.076952      2.460569
  C      -6.066061     -2.437182      1.437407
  O      -7.083048     -1.824009      1.150480
  C      -5.568217     -3.718832      0.741987
  H      -5.832850     -4.574247      1.410924
  H      -6.178410     -3.834813     -0.181523
  C       0.195130     -0.117022      1.555040
  H       0.316012     -1.214292      1.409823
  H       0.632899      0.111842      2.558878
  C       0.965008      0.670104      0.464203
  H       0.775705      1.759854      0.608637
  H       0.539104      0.417395     -0.537238
  C       2.497624      0.434073      0.435968
  H       2.949214      0.781170      1.399082
  H       2.930665      1.095851     -0.350863
  C       2.934898     -1.034111      0.170944
  H       2.336889     -1.459816     -0.671321
  H       2.694289     -1.661970      1.061715
  C       4.449052     -1.176812     -0.152024
  H       4.754365     -2.246905     -0.054873
  H       5.043768     -0.618033      0.611491
  C       4.849142     -0.673466     -1.577838
  H       5.965438     -0.654172     -1.638307
  H       4.521469      0.380636     -1.717562
  C       4.324104     -1.566920     -2.690076
  H       4.741690     -2.595692     -2.693090
  C       3.406704     -1.256831     -3.640151
  H       3.159082     -2.043369     -4.380940
  C       2.695965      0.080728     -3.829519
  H       2.441664      0.532552     -2.843148
  H       1.721937     -0.103484     -4.342635
  C       3.507406      1.128639     -4.658366
  H       4.405532      1.438621     -4.069895
  H       2.883104      2.048491     -4.776180
  C       3.966599      0.628290     -6.050954
  H       3.079710      0.279806     -6.637803
  H       4.616065     -0.266203     -5.911739
  C       4.726581      1.710317     -6.860710
  H       5.606860      2.055866     -6.262158
  H       4.067367      2.607078     -6.966051
  C       5.221610      1.288892     -8.273919
  H       5.632428      2.200233     -8.770515
  H       4.350258      0.973793     -8.900242
  C       6.312086      0.171555     -8.303103
  H       6.959952      0.268289     -7.396136
  H       6.991869      0.348380     -9.172148
  C       5.781451     -1.284725     -8.408096
  H       5.175104     -1.381113     -9.342252
  H       5.077325     -1.501172     -7.570881
  C       6.913741     -2.340927     -8.409313
  H       7.508088     -2.295514     -7.466231
  H       7.623167     -2.177250     -9.254806
  H       6.511732     -3.376036     -8.503534
  C      -4.047129     -3.766048      0.422258
  H      -3.809786     -4.777782      0.012113
  H      -3.465092     -3.668321      1.367637
  C      -3.584083     -2.685800     -0.588468
  H      -3.849897     -1.672053     -0.200637
  H      -4.152858     -2.801968     -1.542807
  C      -2.057604     -2.725001     -0.870113
  H      -1.770727     -3.739390     -1.244593
  H      -1.516987     -2.599687      0.097721
  C      -1.574444     -1.646707     -1.881648
  H      -2.063502     -0.672210     -1.641768
  H      -0.478465     -1.476575     -1.751678
  C      -1.835634     -1.990075     -3.371665
  H      -1.167751     -2.832384     -3.674560
  H      -2.880279     -2.360756     -3.508443
  C      -1.604560     -0.775267     -4.328936
  H      -1.514529     -1.163669     -5.373340
  H      -0.626842     -0.295417     -4.090730
  C      -2.746322      0.228696     -4.286979
  H      -3.718043     -0.176180     -4.640374
  C      -2.733827      1.519596     -3.871531
  H      -3.692843      2.076263     -3.930634
  C      -1.574599      2.338967     -3.328248
  H      -1.290625      3.111830     -4.088776
  H      -0.666758      1.710381     -3.177721
  C      -1.938905      3.079915     -2.006138
  H      -2.160129      2.324728     -1.215931
  H      -2.891514      3.645129     -2.161265
  C      -0.843423      4.067110     -1.519789
  H       0.085127      3.498632     -1.267582
  H      -0.567761      4.736538     -2.370948
  C      -1.255692      4.950283     -0.307163
  H      -0.458452      5.712678     -0.129667
  H      -2.173612      5.530720     -0.575393
  C      -1.508691      4.175176      1.012850
  H      -0.594909      3.584594      1.261325
  H      -2.325735      3.430096      0.861530
  C      -1.883959      5.083835      2.212705
  H      -1.082222      5.850196      2.362598
  H      -2.805364      5.659078      1.949583
  C      -2.120647      4.320262      3.547471
  H      -2.583838      5.018362      4.284771
  H      -2.871959      3.510674      3.383605
  C      -0.843397      3.709662      4.178873
  H      -0.075876      4.497707      4.370491
  H      -1.082621      3.212391      5.143042
  H      -0.373858      2.947807      3.512769
138
Coordinates from ORCA-job /wrk/rja7/qm_final_3_replicates/qm_final_1.1/qm/8/freq E -2722.591269343425
  N       0.248854     -2.048192      6.968778
  C       0.687162     -0.653954      6.416207
  H       1.396999     -0.883064      5.589805
  H       1.251588     -0.169189      7.243572
  C      -0.498792     -1.919593      8.305773
  H      -0.553189     -2.932420      8.758295
  H       0.067660     -1.234795      8.968528
  H      -1.522982     -1.540086      8.099605
  C       1.518844     -2.858913      7.187899
  H       1.245527     -3.853042      7.596481
  H       2.042830     -2.983303      6.218095
  H       2.174971     -2.326246      7.907431
  C      -0.653528     -2.777114      5.959844
  H      -0.748447     -3.831230      6.295197
  H      -0.191726     -2.726557      4.953947
  H      -1.646183     -2.277775      5.970363
  C      -0.403280      0.295017      5.878348
  H       0.174441      1.092388      5.340196
  H      -1.010265     -0.218990      5.101970
  P      -2.885855      0.567080      6.949213
  O      -3.470259      1.396192      8.063707
  O      -3.051229     -0.969456      6.836861
  O      -1.187689      0.900090      6.897217
  O      -3.246520      1.224330      5.397040
  C      -4.476327      0.815051      4.778680
  H      -4.858761      1.683497      4.188509
  H      -5.260071      0.549768      5.531486
  C      -4.258525     -0.393794      3.830828
  H      -3.785296     -1.220780      4.399801
  O      -3.348615      0.064515      2.760680
  C      -2.151592     -0.555627      2.564102
  O      -1.778830     -1.580647      3.132610
  C      -1.325561      0.215821      1.525773
  H      -1.478027      1.303854      1.692118
  H      -1.771390      0.006020      0.524869
  C      -5.553963     -0.878611      3.166465
  H      -5.988629     -0.110662      2.486355
  H      -6.316610     -1.114576      3.947354
  O      -5.238230     -2.092054      2.415577
  C      -6.079087     -2.450161      1.382826
  O      -7.091354     -1.834234      1.085488
  C      -5.587247     -3.743789      0.705311
  H      -5.867840     -4.590351      1.378998
  H      -6.186944     -3.861624     -0.224782
  C       0.179253     -0.146496      1.525116
  H       0.291481     -1.242953      1.367090
  H       0.612314      0.065377      2.534844
  C       0.965675      0.645282      0.449696
  H       0.785230      1.734602      0.603623
  H       0.548714      0.406965     -0.558529
  C       2.496051      0.394914      0.435251
  H       2.940998      0.729652      1.406059
  H       2.944183      1.058429     -0.341821
  C       2.919527     -1.075861      0.163275
  H       2.326459     -1.487875     -0.689394
  H       2.660404     -1.708027      1.045959
  C       4.435172     -1.235519     -0.143694
  H       4.724852     -2.310398     -0.052214
  H       5.029058     -0.691144      0.630866
  C       4.857268     -0.724702     -1.560481
  H       5.974210     -0.721279     -1.610387
  H       4.545823      0.335291     -1.692058
  C       4.326391     -1.596150     -2.687373
  H       4.736285     -2.627765     -2.708178
  C       3.409425     -1.262180     -3.629953
  H       3.151454     -2.033835     -4.382737
  C       2.712863      0.086471     -3.793861
  H       2.468446      0.523882     -2.798691
  H       1.734499     -0.077325     -4.306146
  C       3.531794      1.139017     -4.608745
  H       4.442009      1.422254     -4.025161
  H       2.920512      2.070729     -4.698819
  C       3.963887      0.661864     -6.017962
  H       3.063071      0.342118     -6.600121
  H       4.599238     -0.246547     -5.908370
  C       4.732935      1.747683     -6.814426
  H       5.631425      2.058619     -6.224062
  H       4.091529      2.660493     -6.884532
  C       5.191237      1.351100     -8.247264
  H       5.624294      2.262409     -8.724989
  H       4.299570      1.083251     -8.867126
  C       6.240972      0.196948     -8.325819
  H       6.896144      0.233687     -7.419641
  H       6.923082      0.381722     -9.191282
  C       5.654971     -1.233084     -8.485378
  H       5.044324     -1.268911     -9.421123
  H       4.943377     -1.454509     -7.655937
  C       6.745246     -2.331576     -8.532166
  H       7.341632     -2.347877     -7.589217
  H       7.460006     -2.161323     -9.371927
  H       6.303227     -3.345580     -8.667820
  C      -4.062204     -3.808921      0.405092
  H      -3.830822     -4.824661      0.001314
  H      -3.491527     -3.714142      1.357576
  C      -3.572734     -2.736372     -0.601839
  H      -3.837215     -1.719029     -0.222904
  H      -4.124689     -2.851550     -1.566051
  C      -2.041329     -2.788640     -0.855414
  H      -1.757106     -3.804076     -1.229233
  H      -1.518805     -2.673160      0.123621
  C      -1.527712     -1.708811     -1.850744
  H      -2.007810     -0.730139     -1.610449
  H      -0.432188     -1.554889     -1.701765
  C      -1.770846     -2.034476     -3.347432
  H      -1.110869     -2.883822     -3.648497
  H      -2.818319     -2.388907     -3.503914
  C      -1.507397     -0.813436     -4.288919
  H      -1.399089     -1.193838     -5.334456
  H      -0.530445     -0.344273     -4.025551
  C      -2.641678      0.199822     -4.261729
  H      -3.609197     -0.194392     -4.638583
  C      -2.627340      1.487920     -3.837084
  H      -3.580447      2.052831     -3.911602
  C      -1.471616      2.295252     -3.267653
  H      -1.160167      3.062204     -4.023534
  H      -0.575553      1.655775     -3.093783
  C      -1.857335      3.044930     -1.956278
  H      -2.094365      2.294743     -1.166010
  H      -2.805825      3.611350     -2.131026
  C      -0.768713      4.034276     -1.458291
  H       0.151418      3.465311     -1.179128
  H      -0.471479      4.691637     -2.311693
  C      -1.200025      4.933497     -0.263595
  H      -0.400890      5.692109     -0.078362
  H      -2.108599      5.516963     -0.555800
  C      -1.482376      4.173509      1.059424
  H      -0.576563      3.581595      1.331205
  H      -2.299166      3.430379      0.899718
  C      -1.875928      5.093953      2.244489
  H      -1.072564      5.856300      2.404922
  H      -2.788490      5.672115      1.957913
  C      -2.145761      4.340820      3.579564
  H      -2.615891      5.048368      4.303905
  H      -2.902383      3.537788      3.407342
  C      -0.886780      3.721157      4.239380
  H      -0.115275      4.503475      4.438904
  H      -1.148059      3.232134      5.201932
  H      -0.412775      2.950466      3.587324
138
Coordinates from ORCA-job /wrk/rja7/qm_final_3_replicates/qm_final_1.1/qm/8/freq E -2722.591384660271
  N       0.218337     -2.093984      6.981902
  C       0.681372     -0.700307      6.449832
  H       1.397011     -0.928482      5.628370
  H       1.242271     -0.232066      7.288632
  C      -0.538643     -1.967759      8.313984
  H      -0.615444     -2.984753      8.753961
  H       0.034991     -1.301614      8.989336
  H      -1.554220     -1.566364      8.102916
  C       1.474585     -2.926205      7.202506
  H       1.183224     -3.919149      7.601307
  H       2.003527     -3.050380      6.235216
  H       2.133267     -2.408705      7.930454
  C      -0.685738     -2.796436      5.955266
  H      -0.804577     -3.851939      6.278528
  H      -0.211011     -2.743243      4.956113
  H      -1.667544     -2.276882      5.956856
  C      -0.391585      0.267935      5.910860
  H       0.203350      1.065050      5.392255
  H      -0.992571     -0.228982      5.120952
  P      -2.885142      0.549965      6.951653
  O      -3.476200      1.371190      8.068506
  O      -3.065191     -0.983091      6.815034
  O      -1.182941      0.866074      6.928309
  O      -3.219993      1.229703      5.403515
  C      -4.450121      0.842417      4.771204
  H      -4.818232      1.721160      4.187006
  H      -5.242484      0.578762      5.515448
  C      -4.243145     -0.360952      3.813877
  H      -3.775026     -1.195047      4.375825
  O      -3.329887      0.096773      2.745907
  C      -2.131022     -0.522558      2.557424
  O      -1.765898     -1.552598      3.122232
  C      -1.304062      0.243210      1.516072
  H      -1.454331      1.330680      1.683824
  H      -1.752330      0.034289      0.516140
  C      -5.543045     -0.836217      3.149987
  H      -5.970185     -0.067970      2.465710
  H      -6.307745     -1.063298      3.931401
  O      -5.235710     -2.055681      2.406134
  C      -6.073935     -2.414571      1.371396
  O      -7.075261     -1.789674      1.056571
  C      -5.583731     -3.715284      0.708292
  H      -5.875752     -4.554326      1.386411
  H      -6.172490     -3.837818     -0.228332
  C       0.200322     -0.117865      1.513836
  H       0.314913     -1.214025      1.353997
  H       0.631776      0.092852      2.523634
  C       0.988185      0.679210      0.442205
  H       0.811753      1.769622      0.601057
  H       0.571514      0.447933     -0.569092
  C       2.517751      0.422787      0.431107
  H       2.961041      0.753567      1.403636
  H       2.971296      1.085675     -0.343454
  C       2.934175     -1.049413      0.160300
  H       2.343681     -1.456888     -0.696067
  H       2.665575     -1.680139      1.040958
  C       4.449955     -1.218865     -0.136517
  H       4.730209     -2.296382     -0.044949
  H       5.043540     -0.680643      0.642460
  C       4.884506     -0.707408     -1.548781
  H       6.001531     -0.709690     -1.591259
  H       4.578767      0.354700     -1.680595
  C       4.354217     -1.573240     -2.679393
  H       4.762462     -2.605603     -2.704174
  C       3.437684     -1.234455     -3.620139
  H       3.176956     -2.003966     -4.374235
  C       2.745950      0.117056     -3.780986
  H       2.508634      0.558974     -2.785572
  H       1.764583     -0.044467     -4.286620
  C       3.561650      1.162827     -4.607083
  H       4.482418      1.440652     -4.037862
  H       2.955679      2.098479     -4.689479
  C       3.967456      0.679717     -6.022071
  H       3.055074      0.363154     -6.587445
  H       4.599426     -0.231693     -5.921605
  C       4.729377      1.757760     -6.835735
  H       5.638148      2.067366     -6.260855
  H       4.091237      2.673336     -6.901545
  C       5.163249      1.349452     -8.272536
  H       5.598155      2.253484     -8.760890
  H       4.259978      1.087781     -8.877671
  C       6.198518      0.182653     -8.359264
  H       6.860255      0.209331     -7.457650
  H       6.877186      0.359425     -9.228955
  C       5.591916     -1.239124     -8.517252
  H       4.979682     -1.266502     -9.452254
  H       4.878683     -1.449893     -7.686875
  C       6.665817     -2.353430     -8.566579
  H       7.263047     -2.380025     -7.624635
  H       7.381696     -2.192551     -9.407208
  H       6.208795     -3.360620     -8.703049
  C      -4.055734     -3.787584      0.429274
  H      -3.820567     -4.807308      0.038189
  H      -3.497362     -3.683397      1.387975
  C      -3.554174     -2.726026     -0.582947
  H      -3.829929     -1.705050     -0.221869
  H      -4.090000     -2.857481     -1.554641
  C      -2.018484     -2.771972     -0.808264
  H      -1.720679     -3.791330     -1.159409
  H      -1.514150     -2.634379      0.178034
  C      -1.496744     -1.705817     -1.812851
  H      -1.984887     -0.726159     -1.592853
  H      -0.403544     -1.544872     -1.651888
  C      -1.720649     -2.055612     -3.307210
  H      -1.049492     -2.902482     -3.589185
  H      -2.763253     -2.421692     -3.469984
  C      -1.460472     -0.844814     -4.262324
  H      -1.345752     -1.234431     -5.303988
  H      -0.488814     -0.368303     -3.999504
  C      -2.598001      0.163525     -4.249746
  H      -3.562436     -0.238825     -4.625350
  C      -2.590606      1.454463     -3.835423
  H      -3.545994      2.014527     -3.916827
  C      -1.439575      2.268308     -3.265487
  H      -1.129068      3.033818     -4.023038
  H      -0.540727      1.633349     -3.085150
  C      -1.836371      3.018015     -1.958302
  H      -2.066936      2.268234     -1.165748
  H      -2.791490      3.571161     -2.137767
  C      -0.764981      4.025077     -1.463182
  H       0.164468      3.472808     -1.174914
  H      -0.473976      4.681496     -2.319455
  C      -1.223692      4.924104     -0.279055
  H      -0.444055      5.703636     -0.096024
  H      -2.144897      5.482381     -0.580020
  C      -1.493892      4.165487      1.046688
  H      -0.569766      3.608884      1.332433
  H      -2.281182      3.390453      0.885931
  C      -1.936409      5.078935      2.220281
  H      -1.161353      5.868657      2.387318
  H      -2.864825      5.623331      1.918943
  C      -2.199251      4.322329      3.554173
  H      -2.695714      5.017808      4.272348
  H      -2.931553      3.497836      3.378799
  C      -0.929826      3.739098      4.225984
  H      -0.183215      4.542866      4.433665
  H      -1.185531      3.240759      5.186237
  H      -0.427995      2.982186      3.578587
138
Coordinates from ORCA-job /wrk/rja7/qm_final_3_replicates/qm_final_1.1/qm/8/freq E -2722.591479734161
  N       0.203442     -2.057675      7.000514
  C       0.665016     -0.679253      6.429562
  H       1.373738     -0.928617      5.608379
  H       1.233336     -0.191479      7.251984
  C      -0.543778     -1.894764      8.334171
  H      -0.622809     -2.900087      8.799891
  H       0.037838     -1.215286      8.989110
  H      -1.558787     -1.493408      8.119770
  C       1.459553     -2.886919      7.232977
  H       1.168853     -3.867918      7.660841
  H       1.979789     -3.038338      6.264844
  H       2.125599     -2.351879      7.941333
  C      -0.709744     -2.784932      5.999527
  H      -0.828504     -3.831082      6.351699
  H      -0.242487     -2.759722      4.995789
  H      -1.689941     -2.262647      5.994322
  C      -0.410752      0.277422      5.875611
  H       0.181051      1.062917      5.335756
  H      -1.017158     -0.236785      5.101205
  P      -2.897683      0.577298      6.925190
  O      -3.481235      1.409995      8.037401
  O      -3.076040     -0.957548      6.806938
  O      -1.196171      0.896569      6.884836
  O      -3.244416      1.238432      5.371678
  C      -4.475068      0.838353      4.748288
  H      -4.849894      1.709439      4.157003
  H      -5.263378      0.577746      5.497900
  C      -4.265228     -0.373303      3.802379
  H      -3.793995     -1.200627      4.371517
  O      -3.354028      0.076608      2.729083
  C      -2.146492     -0.530950      2.556436
  O      -1.766012     -1.538937      3.150215
  C      -1.321578      0.231065      1.510628
  H      -1.473743      1.319295      1.674681
  H      -1.771954      0.017541      0.512811
  C      -5.564772     -0.857473      3.144059
  H      -5.993692     -0.096168      2.453211
  H      -6.328406     -1.078537      3.928223
  O      -5.258412     -2.082655      2.409317
  C      -6.097896     -2.445208      1.376641
  O      -7.094377     -1.815925      1.055565
  C      -5.611291     -3.750075      0.718860
  H      -5.900823     -4.585283      1.402638
  H      -6.202984     -3.877479     -0.215237
  C       0.183383     -0.127160      1.506014
  H       0.300061     -1.224053      1.353590
  H       0.617432      0.091965      2.512737
  C       0.966107      0.662400      0.424944
  H       0.792747      1.754183      0.576925
  H       0.544126      0.425601     -0.582739
  C       2.495358      0.402817      0.406462
  H       2.944119      0.729631      1.377821
  H       2.946291      1.067331     -0.368101
  C       2.908038     -1.069487      0.129259
  H       2.317262     -1.472272     -0.729198
  H       2.636329     -1.702681      1.007018
  C       4.424008     -1.241777     -0.165173
  H       4.700274     -2.321005     -0.081635
  H       5.016816     -0.712594      0.620596
  C       4.866140     -0.720426     -1.571633
  H       5.983325     -0.722317     -1.607092
  H       4.561058      0.342511     -1.698420
  C       4.344677     -1.580026     -2.711409
  H       4.761161     -2.608827     -2.744903
  C       3.428809     -1.239793     -3.652333
  H       3.177367     -2.004397     -4.414511
  C       2.725154      0.106671     -3.802303
  H       2.480317      0.536152     -2.803561
  H       1.746960     -0.059251     -4.312683
  C       3.532798      1.168404     -4.615434
  H       4.450693      1.447770     -4.042587
  H       2.919048      2.099875     -4.687927
  C       3.944229      0.704145     -6.035046
  H       3.035509      0.384027     -6.604084
  H       4.585730     -0.201774     -5.943841
  C       4.695020      1.798208     -6.837808
  H       5.595748      2.117483     -6.255650
  H       4.044299      2.705063     -6.902153
  C       5.144501      1.402882     -8.273399
  H       5.570824      2.315015     -8.753960
  H       4.249612      1.131504     -8.886349
  C       6.196942      0.251055     -8.355050
  H       6.843737      0.278503     -7.442737
  H       6.887067      0.444234     -9.212117
  C       5.611692     -1.177220     -8.533920
  H       5.019352     -1.207131     -9.481575
  H       4.884358     -1.401492     -7.719359
  C       6.700683     -2.277291     -8.566930
  H       7.277882     -2.302253     -7.612602
  H       7.432148     -2.101906     -9.391037
  H       6.259858     -3.289423     -8.719206
  C      -4.084044     -3.825362      0.435763
  H      -3.852142     -4.846654      0.046799
  H      -3.523561     -3.720142      1.393057
  C      -3.581722     -2.767315     -0.579597
  H      -3.856686     -1.745043     -0.221767
  H      -4.117077     -2.901369     -1.551211
  C      -2.045821     -2.815842     -0.802202
  H      -1.748539     -3.836497     -1.150182
  H      -1.543875     -2.675545      0.184726
  C      -1.518009     -1.752473     -1.806167
  H      -2.003318     -0.771123     -1.588104
  H      -0.424948     -1.595881     -1.641081
  C      -1.737045     -2.098232     -3.301942
  H      -1.069421     -2.947902     -3.584153
  H      -2.781004     -2.457745     -3.470436
  C      -1.463347     -0.885485     -4.250117
  H      -1.358284     -1.269398     -5.294983
  H      -0.483921     -0.425878     -3.987487
  C      -2.583329      0.141951     -4.225178
  H      -3.556817     -0.240973     -4.597551
  C      -2.549811      1.430379     -3.804106
  H      -3.494656      2.008974     -3.878832
  C      -1.381124      2.220397     -3.235671
  H      -1.055514      2.978532     -3.994220
  H      -0.495188      1.567421     -3.055213
  C      -1.762713      2.980901     -1.929718
  H      -1.997755      2.237453     -1.132965
  H      -2.712206      3.543957     -2.108447
  C      -0.678369      3.978049     -1.441678
  H       0.241382      3.415962     -1.142116
  H      -0.373761      4.619454     -2.304466
  C      -1.129311      4.898466     -0.270624
  H      -0.337063      5.665728     -0.090392
  H      -2.037932      5.469629     -0.585347
  C      -1.424147      4.160631      1.061990
  H      -0.513074      3.589217      1.361453
  H      -2.226269      3.400585      0.904202
  C      -1.855592      5.097460      2.221561
  H      -1.063821      5.870862      2.386278
  H      -2.768662      5.659330      1.905687
  C      -2.147939      4.363170      3.562099
  H      -2.630349      5.080076      4.268521
  H      -2.901362      3.557136      3.389831
  C      -0.900147      3.752573      4.250506
  H      -0.133696      4.537800      4.456847
  H      -1.175567      3.268803      5.212858
  H      -0.414557      2.977148      3.613436
138
Coordinates from ORCA-job /wrk/rja7/qm_final_3_replicates/qm_final_1.1/qm/8/freq E -2722.591515511004
  N       0.193212     -2.045855      6.974635
  C       0.663176     -0.666276      6.412888
  H       1.370106     -0.915173      5.590064
  H       1.235624     -0.187402      7.237925
  C      -0.558298     -1.889013      8.306345
  H      -0.641976     -2.897014      8.765082
  H       0.022820     -1.215662      8.968140
  H      -1.570978     -1.484414      8.090754
  C       1.445007     -2.881276      7.206885
  H       1.148371     -3.863023      7.629078
  H       1.967265     -3.030480      6.239615
  H       2.111377     -2.353030      7.920250
  C      -0.718468     -2.766043      5.967290
  H      -0.834506     -3.815351      6.310486
  H      -0.251330     -2.731548      4.963297
  H      -1.700366     -2.246346      5.967482
  C      -0.404244      0.303567      5.864808
  H       0.195476      1.084559      5.326899
  H      -1.018657     -0.200815      5.089263
  P      -2.885518      0.633295      6.921311
  O      -3.457765      1.489492      8.021635
  O      -3.081888     -0.901057      6.826234
  O      -1.180107      0.930788      6.876624
  O      -3.225519      1.275499      5.358064
  C      -4.460404      0.876952      4.742201
  H      -4.831184      1.743463      4.141669
  H      -5.248724      0.629719      5.496351
  C      -4.257170     -0.345843      3.809626
  H      -3.789935     -1.169918      4.387181
  O      -3.344913      0.089979      2.730917
  C      -2.143391     -0.528160      2.554368
  O      -1.769940     -1.539632      3.146620
  C      -1.307248      0.238497      1.520403
  H      -1.438601      1.326589      1.707171
  H      -1.764014      0.054820      0.519366
  C      -5.558904     -0.831587      3.157259
  H      -5.986815     -0.075765      2.459767
  H      -6.321886     -1.042838      3.944793
  O      -5.258141     -2.067131      2.436610
  C      -6.095345     -2.438008      1.404702
  O      -7.092173     -1.812133      1.077956
  C      -5.611454     -3.752809      0.763289
  H      -5.898186     -4.578485      1.459685
  H      -6.207089     -3.893071     -0.166349
  C       0.190149     -0.150511      1.505223
  H       0.283593     -1.247181      1.337587
  H       0.632921      0.046052      2.513140
  C       0.984401      0.633846      0.429683
  H       0.834229      1.726535      0.593976
  H       0.553976      0.416877     -0.578079
  C       2.508268      0.342877      0.399061
  H       2.968921      0.641899      1.373874
  H       2.968454      1.012831     -0.365191
  C       2.890812     -1.132925      0.093783
  H       2.292244     -1.508636     -0.771891
  H       2.605371     -1.775533      0.960096
  C       4.403554     -1.331356     -0.202718
  H       4.656514     -2.417828     -0.143555
  H       5.005523     -0.833726      0.596741
  C       4.860609     -0.791416     -1.597489
  H       5.977560     -0.818532     -1.631146
  H       4.581042      0.280514     -1.703705
  C       4.324584     -1.618936     -2.754899
  H       4.725104     -2.653044     -2.809552
  C       3.413769     -1.247206     -3.688870
  H       3.152467     -1.993161     -4.466033
  C       2.727251      0.110225     -3.812465
  H       2.489513      0.523401     -2.805743
  H       1.745841     -0.034495     -4.324255
  C       3.546263      1.177324     -4.606371
  H       4.464862      1.439479     -4.026477
  H       2.941116      2.115491     -4.666434
  C       3.960195      0.730449     -6.030628
  H       3.051879      0.421957     -6.606719
  H       4.597695     -0.179669     -5.949431
  C       4.716935      1.832544     -6.816732
  H       5.612011      2.148295     -6.223885
  H       4.065628      2.739005     -6.879137
  C       5.179976      1.448664     -8.251173
  H       5.606427      2.365781     -8.722430
  H       4.291397      1.177020     -8.873102
  C       6.238973      0.302326     -8.329121
  H       6.872679      0.324731     -7.407541
  H       6.940465      0.505256     -9.174626
  C       5.661896     -1.126830     -8.525944
  H       5.083596     -1.153144     -9.482347
  H       4.923612     -1.358626     -7.723069
  C       6.755908     -2.222219     -8.550242
  H       7.319385     -2.251304     -7.587709
  H       7.498446     -2.038245     -9.362444
  H       6.321726     -3.235203     -8.715586
  C      -4.085245     -3.833838      0.473446
  H      -3.857038     -4.859633      0.094166
  H      -3.520298     -3.720029      1.427099
  C      -3.586049     -2.788097     -0.555893
  H      -3.859604     -1.761784     -0.209304
  H      -4.124776     -2.933903     -1.523699
  C      -2.050935     -2.838450     -0.783700
  H      -1.753424     -3.860936     -1.126393
  H      -1.545998     -2.690719      0.200217
  C      -1.528727     -1.779959     -1.795443
  H      -2.012002     -0.797890     -1.577172
  H      -0.434690     -1.623321     -1.638273
  C      -1.756621     -2.128799     -3.289043
  H      -1.087011     -2.975530     -3.575570
  H      -2.800142     -2.493227     -3.449619
  C      -1.497016     -0.915504     -4.239917
  H      -1.402441     -1.299594     -5.285521
  H      -0.515535     -0.452207     -3.988677
  C      -2.622460      0.106416     -4.202976
  H      -3.598161     -0.282481     -4.563518
  C      -2.593276      1.395485     -3.783031
  H      -3.543897      1.965912     -3.846470
  C      -1.425942      2.199677     -3.232081
  H      -1.119578      2.960075     -3.996400
  H      -0.530468      1.557150     -3.064007
  C      -1.797232      2.959227     -1.921768
  H      -2.003412      2.214003     -1.117999
  H      -2.760035      3.504287     -2.085343
  C      -0.721844      3.978128     -1.456942
  H       0.211816      3.433558     -1.173274
  H      -0.444170      4.621364     -2.327429
  C      -1.164213      4.897448     -0.281438
  H      -0.377934      5.673971     -0.116547
  H      -2.083929      5.456817     -0.585097
  C      -1.431902      4.163697      1.058985
  H      -0.511708      3.601793      1.348533
  H      -2.230285      3.397661      0.916428
  C      -1.852952      5.103417      2.219898
  H      -1.061675      5.879316      2.374008
  H      -2.770781      5.661642      1.911257
  C      -2.130436      4.372270      3.565245
  H      -2.605878      5.090669      4.275034
  H      -2.885577      3.565553      3.401330
  C      -0.875462      3.762969      4.241719
  H      -0.107216      4.548660      4.440134
  H      -1.140554      3.278275      5.205774
  H      -0.396703      2.988532      3.598309
138
Coordinates from ORCA-job /wrk/rja7/qm_final_3_replicates/qm_final_1.1/qm/8/freq E -2722.591588134437
  N       0.172818     -2.066120      6.991391
  C       0.639547     -0.677451      6.450154
  H       1.357460     -0.912460      5.632494
  H       1.199113     -0.203597      7.286717
  C      -0.594246     -1.929620      8.316633
  H      -0.675081     -2.943448      8.762842
  H      -0.025235     -1.259645      8.992165
  H      -1.607650     -1.530634      8.094363
  C       1.427452     -2.895944      7.227980
  H       1.132779     -3.883345      7.638182
  H       1.960264     -3.033052      6.264650
  H       2.083389     -2.370438      7.952914
  C      -0.723368     -2.780260      5.965999
  H      -0.836264     -3.834188      6.295634
  H      -0.245541     -2.730638      4.967729
  H      -1.708463     -2.266686      5.961624
  C      -0.427690      0.291210      5.899326
  H       0.173926      1.079816      5.375467
  H      -1.030853     -0.209233      5.112626
  P      -2.921480      0.599128      6.931423
  O      -3.510760      1.447075      8.029122
  O      -3.108320     -0.935574      6.826236
  O      -1.217488      0.906072      6.907732
  O      -3.245745      1.248693      5.367740
  C      -4.476530      0.856480      4.739916
  H      -4.841958      1.728207      4.143640
  H      -5.270537      0.604511      5.486489
  C      -4.269493     -0.359301      3.799110
  H      -3.804401     -1.187953      4.372001
  O      -3.353542      0.083558      2.726281
  C      -2.146592     -0.526346      2.557502
  O      -1.775095     -1.542324      3.143018
  C      -1.312638      0.240866      1.522328
  H      -1.451295      1.328278      1.706802
  H      -1.766222      0.052236      0.520625
  C      -5.568464     -0.839343      3.137312
  H      -5.989800     -0.080009      2.439737
  H      -6.337057     -1.052091      3.918977
  O      -5.265351     -2.072354      2.413573
  C      -6.092905     -2.434541      1.370893
  O      -7.082501     -1.802192      1.035100
  C      -5.609898     -3.750631      0.732050
  H      -5.911825     -4.576461      1.421849
  H      -6.193236     -3.883730     -0.206325
  C       0.187650     -0.136568      1.512635
  H       0.291206     -1.232837      1.347659
  H       0.625167      0.065755      2.521805
  C       0.980042      0.652488      0.439041
  H       0.823058      1.744125      0.602389
  H       0.554062      0.432695     -0.570052
  C       2.505704      0.369882      0.412466
  H       2.962588      0.670046      1.388661
  H       2.964559      1.042552     -0.350205
  C       2.894434     -1.103837      0.106754
  H       2.299327     -1.479969     -0.761157
  H       2.607903     -1.748152      0.971563
  C       4.408116     -1.299735     -0.186275
  H       4.660314     -2.386461     -0.128958
  H       5.008667     -0.804321      0.615667
  C       4.868358     -0.757472     -1.579207
  H       5.985048     -0.792739     -1.614113
  H       4.596140      0.316743     -1.681204
  C       4.322576     -1.575346     -2.738659
  H       4.709866     -2.614366     -2.796242
  C       3.413755     -1.190522     -3.669106
  H       3.137757     -1.933092     -4.444481
  C       2.749132      0.177865     -3.791770
  H       2.537094      0.604315     -2.784664
  H       1.756466      0.046440     -4.284777
  C       3.571379      1.222395     -4.611817
  H       4.506802      1.473123     -4.053995
  H       2.982193      2.170793     -4.668725
  C       3.945208      0.754021     -6.040267
  H       3.018842      0.451328     -6.590221
  H       4.571801     -0.163878     -5.963728
  C       4.696074      1.836214     -6.858632
  H       5.610076      2.148317     -6.293206
  H       4.054320      2.749758     -6.916594
  C       5.114954      1.427995     -8.299940
  H       5.537817      2.333777     -8.795605
  H       4.206015      1.158384     -8.892603
  C       6.157913      0.267925     -8.392786
  H       6.818875      0.294572     -7.490670
  H       6.836540      0.451006     -9.261124
  C       5.557972     -1.156407     -8.552578
  H       4.948446     -1.187140     -9.489094
  H       4.843845     -1.369231     -7.723035
  C       6.637494     -2.265409     -8.599645
  H       7.232807     -2.289516     -7.656358
  H       7.354134     -2.100572     -9.438752
  H       6.186044     -3.274974     -8.737389
  C      -4.080211     -3.840636      0.464235
  H      -3.852784     -4.866897      0.085823
  H      -3.528967     -3.732363      1.426490
  C      -3.558699     -2.795023     -0.554372
  H      -3.834290     -1.768015     -0.211460
  H      -4.080436     -2.937521     -1.531894
  C      -2.019887     -2.851709     -0.753941
  H      -1.720603     -3.876209     -1.088734
  H      -1.532897     -2.703325      0.238894
  C      -1.473874     -1.797932     -1.758099
  H      -1.950814     -0.811391     -1.545959
  H      -0.380452     -1.652255     -1.585212
  C      -1.684189     -2.145152     -3.255009
  H      -1.019729     -2.999448     -3.530330
  H      -2.728902     -2.498990     -3.430986
  C      -1.395886     -0.936880     -4.204885
  H      -1.283790     -1.326270     -5.246798
  H      -0.415711     -0.479986     -3.936008
  C      -2.514669      0.093149     -4.197099
  H      -3.485421     -0.291738     -4.574722
  C      -2.485275      1.385521     -3.787182
  H      -3.430700      1.961356     -3.874371
  C      -1.323925      2.187467     -3.220214
  H      -0.997602      2.939372     -3.984646
  H      -0.436224      1.540899     -3.028851
  C      -1.717839      2.959186     -1.923864
  H      -1.938228      2.220612     -1.118096
  H      -2.677928      3.501940     -2.108972
  C      -0.652329      3.982381     -1.446825
  H       0.276785      3.441411     -1.141930
  H      -0.359022      4.620505     -2.316085
  C      -1.119667      4.907301     -0.285530
  H      -0.339404      5.687382     -0.109441
  H      -2.035255      5.461630     -0.610049
  C      -1.411043      4.178284      1.052473
  H      -0.492520      3.626700      1.365530
  H      -2.198735      3.404022      0.895323
  C      -1.868619      5.118495      2.199119
  H      -1.088497      5.902486      2.368883
  H      -2.784240      5.666441      1.866623
  C      -2.171516      4.389769      3.540366
  H      -2.669691      5.106663      4.235677
  H      -2.915256      3.575831      3.362263
  C      -0.927763      3.794302      4.248982
  H      -0.171682      4.587651      4.462812
  H      -1.211176      3.310891      5.208389
  H      -0.426569      3.021389      3.620758
138
Coordinates from ORCA-job /wrk/rja7/qm_final_3_replicates/qm_final_1.1/qm/8/freq E -2722.591610992645
  N       0.180745     -2.050965      7.012032
  C       0.648903     -0.669343      6.455727
  H       1.369675     -0.913201      5.643325
  H       1.204563     -0.184943      7.289062
  C      -0.589228     -1.896751      8.333996
  H      -0.676712     -2.905646      8.790372
  H      -0.018004     -1.223032      9.003859
  H      -1.600160     -1.493672      8.104389
  C       1.433987     -2.879911      7.260696
  H       1.137625     -3.862070      7.682074
  H       1.968422     -3.028874      6.300069
  H       2.089153     -2.346650      7.980366
  C      -0.715000     -2.773566      5.991985
  H      -0.837333     -3.822156      6.335747
  H      -0.231334     -2.741017      4.996189
  H      -1.695703     -2.252462      5.973257
  C      -0.419258      0.289622      5.889570
  H       0.182118      1.077757      5.363443
  H      -1.013724     -0.221044      5.102858
  P      -2.921840      0.583435      6.906034
  O      -3.521323      1.419689      8.007172
  O      -3.096149     -0.951866      6.789132
  O      -1.220111      0.904683      6.889530
  O      -3.249746      1.240736      5.346246
  C      -4.479680      0.844971      4.718894
  H      -4.849162      1.716116      4.124237
  H      -5.271792      0.589220      5.466132
  C      -4.271512     -0.369583      3.776724
  H      -3.803029     -1.197261      4.347749
  O      -3.357287      0.075451      2.703198
  C      -2.142990     -0.522641      2.546646
  O      -1.766414     -1.531833      3.140833
  C      -1.312182      0.241594      1.506690
  H      -1.458588      1.328466      1.683870
  H      -1.762482      0.043867      0.505199
  C      -5.570887     -0.853836      3.118595
  H      -5.995385     -0.097232      2.420093
  H      -6.336876     -1.067205      3.902589
  O      -5.267275     -2.088096      2.397632
  C      -6.097454     -2.454155      1.358359
  O      -7.082353     -1.818152      1.015351
  C      -5.609583     -3.767002      0.717863
  H      -5.909625     -4.594623      1.406283
  H      -6.190378     -3.900414     -0.222159
  C       0.190718     -0.123941      1.504650
  H       0.304007     -1.220725      1.348647
  H       0.621781      0.089490      2.513730
  C       0.983191      0.664297      0.430127
  H       0.824743      1.757211      0.589225
  H       0.559665      0.440218     -0.579063
  C       2.508713      0.381142      0.407408
  H       2.963498      0.680916      1.384736
  H       2.970495      1.052514     -0.354776
  C       2.893124     -1.093665      0.104109
  H       2.300104     -1.466912     -0.766237
  H       2.599823     -1.736536      0.967722
  C       4.406049     -1.298451     -0.183510
  H       4.649612     -2.387324     -0.127292
  H       5.007758     -0.808996      0.621163
  C       4.874327     -0.757100     -1.573881
  H       5.990475     -0.806200     -1.607712
  H       4.615215      0.320968     -1.672788
  C       4.317847     -1.563840     -2.735864
  H       4.690003     -2.608339     -2.796415
  C       3.417041     -1.162647     -3.667047
  H       3.131646     -1.898619     -4.445326
  C       2.776145      0.216853     -3.788484
  H       2.575868      0.648528     -2.780916
  H       1.779635      0.103062     -4.277956
  C       3.614962      1.244479     -4.613251
  H       4.557856      1.476376     -4.059996
  H       3.044876      2.204491     -4.667755
  C       3.972023      0.768550     -6.043895
  H       3.037272      0.485520     -6.589983
  H       4.578742     -0.162426     -5.969673
  C       4.743683      1.833607     -6.865376
  H       5.665020      2.127047     -6.302392
  H       4.121077      2.760312     -6.923073
  C       5.151112      1.415889     -8.307437
  H       5.588956      2.313313     -8.805093
  H       4.235682      1.162548     -8.897337
  C       6.172550      0.236887     -8.402215
  H       6.832997      0.249120     -7.499374
  H       6.855275      0.410144     -9.269315
  C       5.547507     -1.176151     -8.567612
  H       4.941226     -1.194350     -9.506751
  H       4.826654     -1.377665     -7.741415
  C       6.607176     -2.304394     -8.611741
  H       7.197572     -2.340337     -7.665780
  H       7.330366     -2.151086     -9.447474
  H       6.138357     -3.305521     -8.753027
  C      -4.079244     -3.850101      0.453496
  H      -3.846345     -4.873679      0.071316
  H      -3.530448     -3.743069      1.417472
  C      -3.562081     -2.797823     -0.560285
  H      -3.844185     -1.773718     -0.213787
  H      -4.082083     -2.940237     -1.539002
  C      -2.022734     -2.844205     -0.758614
  H      -1.716131     -3.866517     -1.093309
  H      -1.537461     -2.692251      0.235058
  C      -1.484162     -1.786245     -1.762083
  H      -1.965626     -0.802476     -1.546480
  H      -0.391293     -1.636015     -1.591375
  C      -1.696980     -2.132176     -3.258815
  H      -1.027658     -2.981425     -3.537877
  H      -2.739787     -2.492813     -3.432530
  C      -1.420722     -0.919803     -4.206388
  H      -1.310874     -1.304213     -5.250603
  H      -0.442948     -0.457747     -3.940553
  C      -2.545331      0.102787     -4.188620
  H      -3.516534     -0.287257     -4.560076
  C      -2.520043      1.393875     -3.775940
  H      -3.468962      1.965386     -3.855013
  C      -1.358344      2.197753     -3.212914
  H      -1.040333      2.954705     -3.975954
  H      -0.466743      1.553353     -3.031019
  C      -1.746261      2.959660     -1.909317
  H      -1.962606      2.214609     -1.108080
  H      -2.707389      3.503353     -2.085341
  C      -0.678252      3.978655     -1.431637
  H       0.251943      3.434611     -1.131770
  H      -0.386701      4.619848     -2.299265
  C      -1.140751      4.900371     -0.266079
  H      -0.357038      5.677156     -0.089777
  H      -2.055582      5.458855     -0.585552
  C      -1.428199      4.167335      1.070324
  H      -0.510477      3.609347      1.374394
  H      -2.221505      3.397835      0.916221
  C      -1.871792      5.105865      2.223843
  H      -1.085928      5.885281      2.388371
  H      -2.787964      5.659402      1.902341
  C      -2.163559      4.374602      3.565882
  H      -2.645355      5.093885      4.270807
  H      -2.917587      3.568158      3.396066
  C      -0.915308      3.765579      4.254637
  H      -0.148918      4.551164      4.459711
  H      -1.189180      3.282483      5.217805
  H      -0.429973      2.988976      3.618217
138
Coordinates from ORCA-job /wrk/rja7/qm_final_3_replicates/qm_final_1.1/qm/8/freq E -2722.591670567098
  N       0.167288     -2.055295      7.026168
  C       0.645671     -0.679014      6.465405
  H       1.362911     -0.930981      5.652389
  H       1.206799     -0.196719      7.296054
  C      -0.599316     -1.891682      8.349043
  H      -0.692872     -2.898495      8.808690
  H      -0.022236     -1.219848      9.015808
  H      -1.607688     -1.482368      8.119896
  C       1.414230     -2.893235      7.275107
  H       1.110758     -3.871650      7.700178
  H       1.945574     -3.049680      6.313917
  H       2.075079     -2.363041      7.991988
  C      -0.735296     -2.774627      6.009898
  H      -0.863353     -3.821459      6.356486
  H      -0.253797     -2.747854      5.012744
  H      -1.712949     -2.247886      5.992390
  C      -0.415096      0.287501      5.898449
  H       0.192161      1.068088      5.368689
  H      -1.015762     -0.219872      5.114849
  P      -2.912888      0.609862      6.917489
  O      -3.502826      1.458859      8.014029
  O      -3.102706     -0.924254      6.809939
  O      -1.208314      0.913861      6.897130
  O      -3.235758      1.260927      5.353771
  C      -4.469208      0.871389      4.728989
  H      -4.832636      1.742366      4.130415
  H      -5.262861      0.624883      5.477743
  C      -4.268494     -0.348673      3.792334
  H      -3.805180     -1.176870      4.366936
  O      -3.351928      0.086391      2.716856
  C      -2.142509     -0.521434      2.559697
  O      -1.769784     -1.528079      3.160653
  C      -1.303642      0.241220      1.525075
  H      -1.440063      1.328816      1.708092
  H      -1.755292      0.053300      0.522508
  C      -5.569792     -0.828352      3.134720
  H      -5.990475     -0.071336      2.434387
  H      -6.337096     -1.036900      3.918724
  O      -5.270722     -2.065130      2.415589
  C      -6.096000     -2.425542      1.370411
  O      -7.081439     -1.789715      1.028872
  C      -5.617631     -3.746348      0.738577
  H      -5.923782     -4.567479      1.432142
  H      -6.199977     -3.881832     -0.200191
  C       0.195579     -0.139206      1.520112
  H       0.297698     -1.236279      1.359412
  H       0.630757      0.065981      2.529349
  C       0.992404      0.644968      0.446044
  H       0.844563      1.738495      0.610035
  H       0.562647      0.428667     -0.562182
  C       2.515497      0.348496      0.414988
  H       2.977059      0.635144      1.393012
  H       2.979528      1.023387     -0.342654
  C       2.887401     -1.126352      0.095557
  H       2.288960     -1.486229     -0.776647
  H       2.592014     -1.775620      0.953554
  C       4.397974     -1.339497     -0.198841
  H       4.633374     -2.430763     -0.155680
  H       5.005252     -0.864164      0.610117
  C       4.867828     -0.786191     -1.584162
  H       5.983492     -0.844071     -1.620205
  H       4.618091      0.295125     -1.670962
  C       4.304837     -1.576861     -2.754330
  H       4.670160     -2.623071     -2.825868
  C       3.406863     -1.161058     -3.681991
  H       3.119225     -1.887409     -4.468432
  C       2.770198      0.221290     -3.789389
  H       2.574370      0.645048     -2.777707
  H       1.771604      0.114670     -4.276522
  C       3.609974      1.253831     -4.607365
  H       4.553814      1.479520     -4.053268
  H       3.041590      2.215350     -4.653237
  C       3.965670      0.790106     -6.042493
  H       3.030813      0.509066     -6.589264
  H       4.575078     -0.139956     -5.976945
  C       4.732749      1.864393     -6.856281
  H       5.652515      2.158398     -6.290946
  H       4.105904      2.788681     -6.907646
  C       5.142757      1.458725     -8.301166
  H       5.574841      2.362008     -8.793410
  H       4.228850      1.203337     -8.892430
  C       6.171997      0.287277     -8.403091
  H       6.829172      0.295888     -7.497865
  H       6.856562      0.472724     -9.266237
  C       5.557053     -1.128395     -8.582711
  H       4.954200     -1.142909     -9.524012
  H       4.834800     -1.341930     -7.760578
  C       6.624736     -2.248785     -8.632983
  H       7.211940     -2.289308     -7.685274
  H       7.349791     -2.082625     -9.464559
  H       6.163466     -3.251805     -8.785140
  C      -4.088119     -3.842355      0.473467
  H      -3.862760     -4.870616      0.099448
  H      -3.537555     -3.731287      1.435864
  C      -3.564926     -2.802028     -0.549750
  H      -3.841810     -1.773436     -0.212695
  H      -4.085740     -2.951083     -1.526991
  C      -2.025850     -2.857991     -0.747215
  H      -1.724162     -3.884062     -1.074746
  H      -1.540298     -2.701340      0.245350
  C      -1.481088     -1.809312     -1.757115
  H      -1.957853     -0.821947     -1.548167
  H      -0.387595     -1.663017     -1.586053
  C      -1.692373     -2.162829     -3.252273
  H      -1.024537     -3.014950     -3.525811
  H      -2.735833     -2.521386     -3.425925
  C      -1.410996     -0.956227     -4.205686
  H      -1.299929     -1.346672     -5.247504
  H      -0.432310     -0.495613     -3.940054
  C      -2.532855      0.069736     -4.196539
  H      -3.504471     -0.320240     -4.566663
  C      -2.505435      1.363514     -3.792030
  H      -3.453360      1.935927     -3.875775
  C      -1.343565      2.170101     -3.233096
  H      -1.026638      2.924272     -3.999235
  H      -0.451377      1.526999     -3.050098
  C      -1.731022      2.936960     -1.932079
  H      -1.947858      2.195065     -1.128275
  H      -2.691913      3.480325     -2.110413
  C      -0.662449      3.956683     -1.456675
  H       0.267058      3.412766     -1.155519
  H      -0.370341      4.595682     -2.325730
  C      -1.125658      4.882739     -0.294683
  H      -0.341097      5.658712     -0.119013
  H      -2.038514      5.441619     -0.619133
  C      -1.419911      4.156140      1.043881
  H      -0.505104      3.596951      1.354718
  H      -2.215144      3.388533      0.890198
  C      -1.866208      5.102097      2.190538
  H      -1.077836      5.878503      2.357050
  H      -2.777394      5.658478      1.859869
  C      -2.172162      4.379064      3.533966
  H      -2.658225      5.103598      4.230131
  H      -2.926842      3.574146      3.360676
  C      -0.933233      3.770049      4.239119
  H      -0.166398      4.554117      4.448476
  H      -1.219678      3.293125      5.201341
  H      -0.443759      2.988369      3.612214
138
Coordinates from ORCA-job /wrk/rja7/qm_final_3_replicates/qm_final_1.1/qm/8/freq E -2722.591679534017
  N       0.153161     -2.041363      7.004768
  C       0.626377     -0.662499      6.444762
  H       1.342619     -0.911541      5.629879
  H       1.188643     -0.180243      7.274766
  C      -0.615551     -1.882670      8.326915
  H      -0.703327     -2.890163      8.785953
  H      -0.043541     -1.207437      8.994690
  H      -1.625914     -1.480541      8.096598
  C       1.403716     -2.873075      7.254675
  H       1.104505     -3.852517      7.680550
  H       1.935826     -3.028171      6.293751
  H       2.062191     -2.339514      7.971405
  C      -0.744774     -2.766889      5.988854
  H      -0.861200     -3.815681      6.333395
  H      -0.265994     -2.733513      4.990246
  H      -1.728363     -2.250775      5.976339
  C      -0.436180      0.304593      5.881493
  H       0.170114      1.084751      5.349491
  H      -1.040639     -0.202012      5.099563
  P      -2.929488      0.633122      6.909675
  O      -3.516133      1.496443      7.996860
  O      -3.121604     -0.901934      6.822121
  O      -1.224595      0.934307      6.881951
  O      -3.252461      1.265656      5.338268
  C      -4.483842      0.865706      4.716196
  H      -4.851109      1.730983      4.111815
  H      -5.276737      0.620712      5.466317
  C      -4.276387     -0.358988      3.786994
  H      -3.811449     -1.182695      4.366932
  O      -3.359112      0.073839      2.710649
  C      -2.146059     -0.528621      2.558436
  O      -1.771932     -1.534950      3.158881
  C      -1.305901      0.237802      1.527432
  H      -1.442366      1.325189      1.714430
  H      -1.756551      0.054370      0.523771
  C      -5.574940     -0.844568      3.128477
  H      -5.995474     -0.091383      2.423911
  H      -6.343817     -1.051028      3.911494
  O      -5.273162     -2.084542      2.415598
  C      -6.093135     -2.446772      1.366907
  O      -7.074140     -1.808645      1.016993
  C      -5.610611     -3.766977      0.736098
  H      -5.917990     -4.589282      1.427645
  H      -6.189693     -3.902227     -0.204662
  C       0.193074     -0.144388      1.522464
  H       0.293603     -1.240916      1.357811
  H       0.627825      0.056450      2.532979
  C       0.992020      0.641768      0.451547
  H       0.850339      1.734569      0.622504
  H       0.559646      0.433890     -0.557145
  C       2.513367      0.336684      0.414025
  H       2.979764      0.612863      1.392829
  H       2.978968      1.014603     -0.339820
  C       2.874875     -1.138139      0.081615
  H       2.270767     -1.487505     -0.791167
  H       2.578325     -1.791952      0.935720
  C       4.382931     -1.360296     -0.220165
  H       4.609062     -2.453838     -0.187134
  H       4.996949     -0.897156      0.590850
  C       4.853464     -0.800863     -1.602952
  H       5.968126     -0.873622     -1.644315
  H       4.618323      0.284340     -1.679718
  C       4.275844     -1.574779     -2.777513
  H       4.625790     -2.625583     -2.857528
  C       3.382018     -1.140088     -3.700626
  H       3.083193     -1.857077     -4.491474
  C       2.764132      0.251215     -3.798555
  H       2.582649      0.674663     -2.784299
  H       1.760381      0.160518     -4.278416
  C       3.612154      1.273793     -4.620023
  H       4.561894      1.486449     -4.070927
  H       3.056023      2.242777     -4.662031
  C       3.954973      0.806483     -6.056979
  H       3.014538      0.533964     -6.598351
  H       4.556118     -0.129660     -5.994679
  C       4.726800      1.873643     -6.875240
  H       5.648672      2.165223     -6.311970
  H       4.105046      2.801195     -6.930064
  C       5.134109      1.458216     -8.317815
  H       5.570487      2.356351     -8.815540
  H       4.218671      1.203414     -8.906937
  C       6.157656      0.281115     -8.410613
  H       6.812652      0.293041     -7.503864
  H       6.845140      0.456575     -9.273559
  C       5.535685     -1.132742     -8.579086
  H       4.937071     -1.154075     -9.522954
  H       4.808458     -1.333658     -7.757754
  C       6.597789     -2.259087     -8.612055
  H       7.179967     -2.292352     -7.660931
  H       7.327873     -2.105437     -9.441618
  H       6.132197     -3.261349     -8.755815
  C      -4.079890     -3.861860      0.475604
  H      -3.853134     -4.889889      0.101735
  H      -3.532853     -3.751718      1.440061
  C      -3.552232     -2.820293     -0.543971
  H      -3.832002     -1.792459     -0.207415
  H      -4.066967     -2.968741     -1.524351
  C      -2.011904     -2.875280     -0.731960
  H      -1.707182     -3.900825     -1.058597
  H      -1.533344     -2.719659      0.263810
  C      -1.459315     -1.824209     -1.735081
  H      -1.937633     -0.837300     -1.528210
  H      -0.367523     -1.678794     -1.553613
  C      -1.656223     -2.172909     -3.233093
  H      -0.987124     -3.025423     -3.502848
  H      -2.698206     -2.529699     -3.418428
  C      -1.362378     -0.963131     -4.178907
  H      -1.238497     -1.350878     -5.220234
  H      -0.386537     -0.503407     -3.899983
  C      -2.484594      0.063005     -4.180221
  H      -3.452198     -0.326883     -4.560882
  C      -2.461910      1.357336     -3.776225
  H      -3.409417      1.928804     -3.870532
  C      -1.307117      2.167416     -3.207254
  H      -0.984176      2.920198     -3.972221
  H      -0.415468      1.526855     -3.013750
  C      -1.708380      2.938235     -1.912340
  H      -1.925967      2.198539     -1.106824
  H      -2.671430      3.474954     -2.099819
  C      -0.648805      3.966583     -1.433528
  H       0.282383      3.429392     -1.127824
  H      -0.357259      4.606502     -2.302070
  C      -1.121239      4.890532     -0.273368
  H      -0.343338      5.673065     -0.097600
  H      -2.038205      5.441408     -0.599959
  C      -1.410194      4.163341      1.066233
  H      -0.490124      3.614227      1.379372
  H      -2.197272      3.387876      0.911699
  C      -1.866986      5.106389      2.211046
  H      -1.088056      5.892762      2.375331
  H      -2.785020      5.650945      1.879633
  C      -2.162754      4.382877      3.556760
  H      -2.657195      5.103146      4.251417
  H      -2.907457      3.568367      3.385525
  C      -0.915580      3.790894      4.262382
  H      -0.157956      4.585047      4.467772
  H      -1.194048      3.313017      5.226244
  H      -0.418064      3.013930      3.636591
138
Coordinates from ORCA-job /wrk/rja7/qm_final_3_replicates/qm_final_1.1/qm/8/freq E -2722.591709470256
  N       0.143757     -2.050854      7.036183
  C       0.622823     -0.671060      6.484405
  H       1.348237     -0.918273      5.677121
  H       1.175293     -0.189865      7.321519
  C      -0.637794     -1.895150      8.351367
  H      -0.731196     -2.904022      8.806284
  H      -0.071341     -1.222797      9.026700
  H      -1.645426     -1.490676      8.112259
  C       1.391162     -2.884333      7.295817
  H       1.087061     -3.864736      7.715934
  H       1.932555     -3.037150      6.339697
  H       2.043021     -2.353483      8.020509
  C      -0.744865     -2.771887      6.008960
  H      -0.868384     -3.821023      6.349999
  H      -0.254665     -2.737864      5.016058
  H      -1.726528     -2.252698      5.985922
  C      -0.434324      0.295362      5.910144
  H       0.177057      1.076525      5.385949
  H      -1.028989     -0.211195      5.121016
  P      -2.939488      0.617923      6.911518
  O      -3.538235      1.475835      7.996365
  O      -3.127579     -0.917085      6.815467
  O      -1.235047      0.922531      6.902225
  O      -3.250115      1.256538      5.339838
  C      -4.479570      0.862043      4.710346
  H      -4.841353      1.729626      4.105866
  H      -5.276830      0.618063      5.456095
  C      -4.271905     -0.361703      3.780127
  H      -3.808702     -1.186430      4.359990
  O      -3.352332      0.071643      2.705843
  C      -2.137201     -0.527670      2.559018
  O      -1.764441     -1.534483      3.159536
  C      -1.296401      0.237456      1.527301
  H      -1.433915      1.324855      1.712951
  H      -1.745607      0.052759      0.522984
  C      -5.570504     -0.846135      3.120665
  H      -5.989519     -0.093456      2.414732
  H      -6.340061     -1.050613      3.903539
  O      -5.270951     -2.088581      2.410984
  C      -6.089922     -2.451013      1.361540
  O      -7.065714     -1.808681      1.004864
  C      -5.607055     -3.771728      0.732270
  H      -5.915452     -4.593445      1.424046
  H      -6.184975     -3.907500     -0.209145
  C       0.203058     -0.143073      1.525853
  H       0.305230     -1.239966      1.364391
  H       0.635430      0.060942      2.536709
  C       1.003929      0.641618      0.455127
  H       0.860537      1.734808      0.622945
  H       0.574593      0.430654     -0.554173
  C       2.525778      0.337941      0.422610
  H       2.988904      0.615186      1.402641
  H       2.993212      1.015610     -0.330435
  C       2.888744     -1.136993      0.092925
  H       2.287226     -1.486849     -0.781402
  H       2.589880     -1.790251      0.946638
  C       4.397132     -1.360463     -0.205658
  H       4.621258     -2.454444     -0.173911
  H       5.010349     -0.899317      0.607083
  C       4.870407     -0.800129     -1.586909
  H       5.984346     -0.882433     -1.630789
  H       4.644701      0.287420     -1.659192
  C       4.283025     -1.564122     -2.763072
  H       4.622229     -2.618120     -2.847637
  C       3.390987     -1.117658     -3.682210
  H       3.082608     -1.829042     -4.474491
  C       2.786414      0.279677     -3.773478
  H       2.620825      0.705101     -2.757149
  H       1.776583      0.199586     -4.242389
  C       3.636515      1.293046     -4.604255
  H       4.594699      1.494652     -4.065767
  H       3.090826      2.268177     -4.639681
  C       3.957543      0.823370     -6.045587
  H       3.008204      0.559159     -6.575396
  H       4.551087     -0.118033     -5.991133
  C       4.728423      1.884297     -6.872791
  H       5.659327      2.168490     -6.320677
  H       4.113509      2.816830     -6.919925
  C       5.114409      1.466463     -8.320679
  H       5.548819      2.362150     -8.824575
  H       4.189650      1.216711     -8.897294
  C       6.130135      0.283722     -8.427279
  H       6.795938      0.290616     -7.528371
  H       6.808266      0.456765     -9.298053
  C       5.498588     -1.126495     -8.590447
  H       4.889430     -1.143543     -9.527573
  H       4.779564     -1.324529     -7.761279
  C       6.554305     -2.258441     -8.636795
  H       7.146537     -2.296310     -7.692100
  H       7.276096     -2.107031     -9.473971
  H       6.081932     -3.257993     -8.777197
  C      -4.076209     -3.866474      0.473462
  H      -3.848652     -4.894469      0.100029
  H      -3.530028     -3.755791      1.438384
  C      -3.549097     -2.824973     -0.546357
  H      -3.829291     -1.797130     -0.210121
  H      -4.064380     -2.974316     -1.526366
  C      -2.009044     -2.879096     -0.735460
  H      -1.703898     -3.904772     -1.061137
  H      -1.529206     -2.721687      0.259545
  C      -1.459175     -1.829277     -1.741144
  H      -1.935739     -0.841762     -1.532841
  H      -0.366607     -1.684888     -1.563896
  C      -1.662337     -2.179182     -3.238126
  H      -0.995535     -3.032954     -3.509318
  H      -2.705502     -2.534829     -3.419102
  C      -1.370946     -0.971085     -4.186706
  H      -1.252061     -1.360324     -5.228102
  H      -0.393098     -0.512381     -3.912910
  C      -2.492313      0.056015     -4.185425
  H      -3.462421     -0.334935     -4.558447
  C      -2.466589      1.352287     -3.788082
  H      -3.414220      1.923888     -3.880303
  C      -1.308968      2.163873     -3.227502
  H      -0.990139      2.914784     -3.996012
  H      -0.416231      1.524073     -3.037114
  C      -1.704069      2.937576     -1.932605
  H      -1.924875      2.199441     -1.126327
  H      -2.664167      3.479738     -2.119188
  C      -0.637330      3.959153     -1.456013
  H       0.290009      3.415549     -1.149359
  H      -0.341125      4.595385     -2.325736
  C      -1.103645      4.889074     -0.298322
  H      -0.318790      5.664551     -0.122089
  H      -2.014645      5.447969     -0.627945
  C      -1.402822      4.167023      1.041690
  H      -0.489197      3.608928      1.357611
  H      -2.197795      3.399597      0.887059
  C      -1.851989      5.117180      2.183572
  H      -1.063764      5.893900      2.349517
  H      -2.761901      5.672859      1.848256
  C      -2.161498      4.399521      3.529206
  H      -2.647383      5.127655      4.221615
  H      -2.917218      3.595363      3.357161
  C      -0.924678      3.790877      4.238491
  H      -0.156481      4.574409      4.445209
  H      -1.212650      3.318362      5.202169
  H      -0.436443      3.005751      3.615173
138
Coordinates from ORCA-job /wrk/rja7/qm_final_3_replicates/qm_final_1.1/qm/8/freq E -2722.591682830441
  N       0.139099     -2.035007      7.046295
  C       0.622911     -0.661841      6.483791
  H       1.348521     -0.916912      5.679293
  H       1.174942     -0.174998      7.318008
  C      -0.642609     -1.863420      8.359753
  H      -0.743868     -2.868066      8.822594
  H      -0.071287     -1.190057      9.029913
  H      -1.647165     -1.451823      8.115893
  C       1.382818     -2.872326      7.313371
  H       1.074464     -3.847226      7.742966
  H       1.923174     -3.036605      6.358565
  H       2.037348     -2.337449      8.032389
  C      -0.752446     -2.758065      6.022743
  H      -0.886712     -3.803188      6.372686
  H      -0.258513     -2.736845      5.031854
  H      -1.728555     -2.229542      5.989595
  C      -0.433442      0.300212      5.900564
  H       0.178600      1.080467      5.375224
  H      -1.023291     -0.211561      5.111695
  P      -2.943629      0.617324      6.892193
  O      -3.547220      1.468193      7.979869
  O      -3.127818     -0.917559      6.786082
  O      -1.240143      0.927327      6.888031
  O      -3.255189      1.263064      5.323533
  C      -4.484641      0.868485      4.693756
  H      -4.847576      1.736625      4.090682
  H      -5.281122      0.622856      5.439657
  C      -4.278859     -0.354647      3.762219
  H      -3.816641     -1.180380      4.340874
  O      -3.357757      0.076192      2.688573
  C      -2.140716     -0.521543      2.552356
  O      -1.768394     -1.520888      3.165770
  C      -1.295350      0.239094      1.521494
  H      -1.433775      1.326195      1.703067
  H      -1.740781      0.050865      0.516247
  C      -5.577398     -0.838020      3.102166
  H      -5.995385     -0.085325      2.395817
  H      -6.347462     -1.043245      3.884278
  O      -5.274698     -2.078507      2.391254
  C      -6.085196     -2.437657      1.334363
  O      -7.063438     -1.799976      0.975624
  C      -5.604486     -3.764413      0.718384
  H      -5.919115     -4.579909      1.414810
  H      -6.177126     -3.905826     -0.225549
  C       0.204337     -0.139164      1.526611
  H       0.309027     -1.236708      1.370218
  H       0.632365      0.069768      2.537745
  C       1.008221      0.644735      0.456869
  H       0.866511      1.739071      0.624331
  H       0.579668      0.434472     -0.553512
  C       2.529634      0.338530      0.428700
  H       2.989547      0.615506      1.410253
  H       3.001136      1.014973     -0.322994
  C       2.889635     -1.136354      0.098992
  H       2.289188     -1.482837     -0.777054
  H       2.587658     -1.790290      0.951082
  C       4.397341     -1.364596     -0.196892
  H       4.616617     -2.459616     -0.163688
  H       5.011553     -0.904751      0.615722
  C       4.874950     -0.804804     -1.576698
  H       5.988558     -0.891896     -1.618193
  H       4.653852      0.284072     -1.648023
  C       4.285565     -1.562635     -2.755317
  H       4.617137     -2.619059     -2.841414
  C       3.400568     -1.106477     -3.676383
  H       3.088091     -1.813253     -4.471219
  C       2.809225      0.296621     -3.766190
  H       2.652607      0.725305     -2.749285
  H       1.796833      0.226328     -4.230204
  C       3.665798      1.300004     -4.603164
  H       4.629995      1.490214     -4.071333
  H       3.131387      2.281298     -4.634475
  C       3.970321      0.828490     -6.047966
  H       3.014195      0.573036     -6.569796
  H       4.555386     -0.117980     -5.999530
  C       4.744421      1.882809     -6.880908
  H       5.682262      2.157795     -6.336282
  H       4.137755      2.821013     -6.921397
  C       5.114052      1.465482     -8.333652
  H       5.550443      2.359354     -8.839090
  H       4.181985      1.224998     -8.902455
  C       6.119923      0.275556     -8.454765
  H       6.790088      0.269003     -7.559063
  H       6.795266      0.451847     -9.326985
  C       5.477666     -1.128490     -8.630542
  H       4.866122     -1.131705     -9.566390
  H       4.759569     -1.330285     -7.801972
  C       6.525410     -2.267300     -8.691643
  H       7.119037     -2.319731     -7.748566
  H       7.246524     -2.111134     -9.528531
  H       6.045858     -3.261906     -8.842402
  C      -4.072422     -3.862341      0.471032
  H      -3.842713     -4.891679      0.102840
  H      -3.532665     -3.747926      1.439295
  C      -3.539444     -2.823597     -0.548748
  H      -3.822693     -1.794990     -0.217073
  H      -4.049364     -2.976703     -1.531318
  C      -1.998335     -2.875926     -0.728862
  H      -1.690202     -3.901509     -1.051681
  H      -1.523805     -2.716378      0.268995
  C      -1.445207     -1.826690     -1.733282
  H      -1.923532     -0.839239     -1.527686
  H      -0.353403     -1.680573     -1.552042
  C      -1.644698     -2.179548     -3.230175
  H      -0.972984     -3.029856     -3.499864
  H      -2.686044     -2.540718     -3.411401
  C      -1.359798     -0.970632     -4.179493
  H      -1.237833     -1.358379     -5.221272
  H      -0.385552     -0.506842     -3.904899
  C      -2.484827      0.051330     -4.177422
  H      -3.453707     -0.343272     -4.550067
  C      -2.463054      1.346508     -3.777801
  H      -3.412125      1.916045     -3.868819
  C      -1.306833      2.156605     -3.212607
  H      -0.988006      2.910867     -3.977929
  H      -0.413455      1.516957     -3.023147
  C      -1.704451      2.923542     -1.915114
  H      -1.927400      2.182232     -1.112289
  H      -2.664124      3.466284     -2.101314
  C      -0.639090      3.943149     -1.434125
  H       0.288897      3.398799     -1.126220
  H      -0.341387      4.581299     -2.301903
  C      -1.111535      4.870524     -0.277129
  H      -0.329368      5.648345     -0.098085
  H      -2.023413      5.427042     -0.608141
  C      -1.411209      4.145157      1.060703
  H      -0.495706      3.590528      1.377473
  H      -2.202384      3.373623      0.903965
  C      -1.868449      5.091098      2.203063
  H      -1.085325      5.872687      2.370612
  H      -2.781856      5.641170      1.868125
  C      -2.173852      4.369284      3.547150
  H      -2.664986      5.093036      4.240889
  H      -2.923791      3.559835      3.374654
  C      -0.932848      3.768499      4.255349
  H      -0.169810      4.556796      4.462497
  H      -1.217786      3.293751      5.219624
  H      -0.439155      2.986208      3.632452
138
Coordinates from ORCA-job /wrk/rja7/qm_final_3_replicates/qm_final_1.1/qm/8/freq E -2722.591747391018
  N       0.125649     -2.036723      7.049761
  C       0.611777     -0.663808      6.487470
  H       1.337489     -0.920422      5.683382
  H       1.164750     -0.178115      7.321721
  C      -0.657448     -1.865787      8.362405
  H      -0.757499     -2.870435      8.825263
  H      -0.088063     -1.191330      9.033159
  H      -1.662227     -1.456898      8.117544
  C       1.368424     -2.874411      7.318218
  H       1.058870     -3.848980      7.747841
  H       1.909449     -3.039547      6.363952
  H       2.022805     -2.339987      8.037909
  C      -0.764903     -2.761152      6.026524
  H      -0.895868     -3.806673      6.376046
  H      -0.271927     -2.738485      5.034819
  H      -1.743018     -2.236010      5.995852
  C      -0.440727      0.301843      5.903068
  H       0.174596      1.077918      5.375508
  H      -1.034128     -0.208518      5.115484
  P      -2.948369      0.634752      6.894440
  O      -3.548499      1.497673      7.974533
  O      -3.138507     -0.900256      6.802557
  O      -1.243609      0.937066      6.888332
  O      -3.254970      1.268186      5.319638
  C      -4.484249      0.872473      4.690243
  H      -4.844848      1.738289      4.082496
  H      -5.282342      0.631857      5.436148
  C      -4.277801     -0.354958      3.764478
  H      -3.816481     -1.178427      4.347359
  O      -3.356227      0.071675      2.689290
  C      -2.139543     -0.527034      2.552723
  O      -1.768956     -1.529019      3.162673
  C      -1.292074      0.235389      1.524753
  H      -1.425754      1.322764      1.711845
  H      -1.739026      0.054433      0.518860
  C      -5.576138     -0.839718      3.105120
  H      -5.991995     -0.090051      2.394232
  H      -6.347605     -1.038921      3.887441
  O      -5.276280     -2.085615      2.401995
  C      -6.084721     -2.446780      1.344140
  O      -7.055469     -1.803266      0.975850
  C      -5.602577     -3.773891      0.728704
  H      -5.918219     -4.589557      1.424373
  H      -6.173946     -3.915047     -0.215961
  C       0.205872     -0.150454      1.527029
  H       0.304850     -1.247313      1.363128
  H       0.635590      0.049352      2.539666
  C       1.013067      0.635318      0.461624
  H       0.877909      1.728677      0.636761
  H       0.582517      0.434343     -0.549420
  C       2.532598      0.320190      0.428110
  H       2.996435      0.585381      1.411120
  H       3.006376      1.000725     -0.318345
  C       2.883305     -1.154201      0.084714
  H       2.278916     -1.489998     -0.792990
  H       2.579232     -1.813471      0.931939
  C       4.389188     -1.388946     -0.217004
  H       4.601962     -2.485460     -0.194675
  H       5.007942     -0.940620      0.598672
  C       4.867055     -0.820748     -1.593427
  H       5.979610     -0.918550     -1.640187
  H       4.656980      0.270754     -1.653821
  C       4.266672     -1.562931     -2.776902
  H       4.588980     -2.621252     -2.873314
  C       3.382453     -1.092048     -3.691495
  H       3.062799     -1.789582     -4.491614
  C       2.800738      0.315679     -3.768408
  H       2.651375      0.737602     -2.747943
  H       1.785949      0.256199     -4.229239
  C       3.661475      1.319141     -4.600539
  H       4.627238      1.500791     -4.068546
  H       3.132469      2.303657     -4.626024
  C       3.963016      0.853338     -6.047584
  H       3.005493      0.605426     -6.570499
  H       4.543413     -0.096712     -6.004046
  C       4.742184      1.907907     -6.875222
  H       5.680437      2.177362     -6.328374
  H       4.139384      2.848709     -6.913767
  C       5.112459      1.491942     -8.327869
  H       5.556227      2.383617     -8.830731
  H       4.179986      1.258581     -8.898913
  C       6.109653      0.294627     -8.446559
  H       6.776195      0.282781     -7.548236
  H       6.789722      0.465086     -9.316298
  C       5.456214     -1.104103     -8.622245
  H       4.849960     -1.104848     -9.561467
  H       4.731458     -1.296902     -7.796860
  C       6.494254     -2.252201     -8.673781
  H       7.081688     -2.307122     -7.726938
  H       7.221832     -2.104794     -9.506649
  H       6.006938     -3.243008     -8.824648
  C      -4.070001     -3.873114      0.482419
  H      -3.841082     -4.903490      0.116523
  H      -3.531108     -3.757543      1.450911
  C      -3.534096     -2.837307     -0.538837
  H      -3.816917     -1.807694     -0.210301
  H      -4.041828     -2.992115     -1.522043
  C      -1.992614     -2.892118     -0.715336
  H      -1.684911     -3.918906     -1.034992
  H      -1.520565     -2.731030      0.283053
  C      -1.434686     -1.845727     -1.720197
  H      -1.911623     -0.857091     -1.517918
  H      -0.343254     -1.701671     -1.535592
  C      -1.628972     -2.199718     -3.217417
  H      -0.959078     -3.052709     -3.483327
  H      -2.670535     -2.557931     -3.402718
  C      -1.335573     -0.992771     -4.166800
  H      -1.208569     -1.383249     -5.206855
  H      -0.361273     -0.530333     -3.887682
  C      -2.459605      0.030969     -4.173689
  H      -3.427167     -0.364020     -4.549274
  C      -2.438717      1.328443     -3.780526
  H      -3.387262      1.897593     -3.878616
  C      -1.285190      2.143327     -3.216403
  H      -0.964964      2.893554     -3.985043
  H      -0.391617      1.506100     -3.020818
  C      -1.687176      2.918327     -1.924611
  H      -1.910098      2.181612     -1.117692
  H      -2.647548      3.458126     -2.116356
  C      -0.624316      3.942931     -1.446704
  H       0.303487      3.401734     -1.135744
  H      -0.326595      4.577837     -2.316855
  C      -1.097758      4.874306     -0.293094
  H      -0.316211      5.653105     -0.116336
  H      -2.009644      5.429119     -0.627006
  C      -1.398220      4.154132      1.047590
  H      -0.482877      3.601223      1.367563
  H      -2.188969      3.382260      0.892521
  C      -1.855891      5.104505      2.185968
  H      -1.072291      5.885837      2.352276
  H      -2.767949      5.654469      1.847145
  C      -2.165067      4.387836      3.532196
  H      -2.656238      5.114852      4.222240
  H      -2.916188      3.579385      3.360318
  C      -0.926780      3.786737      4.245262
  H      -0.162699      4.574352      4.451617
  H      -1.214466      3.315080      5.209714
  H      -0.433536      3.002151      3.625197
138
Coordinates from ORCA-job /wrk/rja7/qm_final_3_replicates/qm_final_1.1/qm/8/freq E -2722.591731881533
  N       0.114230     -2.033110      7.050345
  C       0.599379     -0.656862      6.495786
  H       1.332275     -0.908225      5.696685
  H       1.144176     -0.171735      7.335534
  C      -0.682066     -1.868381      8.355991
  H      -0.781165     -2.874280      8.816141
  H      -0.122580     -1.192038      9.033174
  H      -1.686383     -1.464419      8.102066
  C       1.358180     -2.865256      7.329015
  H       1.049052     -3.841429      7.755347
  H       1.908218     -3.027642      6.379406
  H       2.003982     -2.328620      8.054903
  C      -0.762807     -2.760938      6.017719
  H      -0.888393     -3.808393      6.363041
  H      -0.261997     -2.731760      5.029941
  H      -1.744905     -2.243494      5.981301
  C      -0.451171      0.308222      5.906839
  H       0.166740      1.086166      5.385820
  H      -1.038907     -0.200199      5.113901
  P      -2.964854      0.642562      6.884981
  O      -3.570364      1.511691      7.957062
  O      -3.157386     -0.892427      6.799630
  O      -1.260068      0.942447      6.887752
  O      -3.260091      1.268773      5.305011
  C      -4.484688      0.868879      4.669268
  H      -4.843263      1.732164      4.056765
  H      -5.286990      0.628747      5.410835
  C      -4.269163     -0.360576      3.748496
  H      -3.809527     -1.181601      4.336204
  O      -3.341072      0.066022      2.678534
  C      -2.118334     -0.524207      2.556739
  O      -1.745229     -1.518507      3.177699
  C      -1.268039      0.235959      1.528989
  H      -1.410054      1.324287      1.706280
  H      -1.706191      0.044388      0.521262
  C      -5.563526     -0.849682      3.083683
  H      -5.978046     -0.101858      2.370171
  H      -6.337474     -1.049388      3.863439
  O      -5.261731     -2.097155      2.383505
  C      -6.063820     -2.454597      1.319274
  O      -7.030275     -1.807592      0.946021
  C      -5.580393     -3.780226      0.700975
  H      -5.896732     -4.598113      1.393652
  H      -6.150770     -3.918503     -0.244685
  C       0.232318     -0.141244      1.544976
  H       0.338068     -1.239033      1.392107
  H       0.654407      0.070448      2.558474
  C       1.042454      0.638198      0.476971
  H       0.902998      1.732310      0.642411
  H       0.617656      0.427517     -0.534156
  C       2.563020      0.326683      0.451501
  H       3.022738      0.597322      1.434953
  H       3.037788      1.005037     -0.296239
  C       2.917499     -1.148375      0.114216
  H       2.312149     -1.489123     -0.760931
  H       2.617061     -1.804970      0.964636
  C       4.422798     -1.382324     -0.191649
  H       4.635575     -2.478781     -0.168290
  H       5.044279     -0.932200      0.620947
  C       4.895380     -0.817338     -1.571168
  H       6.006714     -0.924680     -1.626445
  H       4.694463      0.275923     -1.629382
  C       4.279350     -1.553116     -2.750760
  H       4.589193     -2.614965     -2.849117
  C       3.393413     -1.072911     -3.658899
  H       3.059787     -1.766823     -4.456494
  C       2.826526      0.340897     -3.731472
  H       2.699598      0.767717     -2.710136
  H       1.803624      0.292229     -4.175326
  C       3.685648      1.330931     -4.581101
  H       4.661238      1.503424     -4.064263
  H       3.167573      2.321311     -4.603406
  C       3.960044      0.855544     -6.030358
  H       2.991983      0.614944     -6.536990
  H       4.531400     -0.100368     -5.991553
  C       4.736554      1.898629     -6.874702
  H       5.686780      2.160298     -6.344941
  H       4.143133      2.845711     -6.906968
  C       5.076708      1.473514     -8.332018
  H       5.523807      2.357486     -8.845293
  H       4.131271      1.251444     -8.885970
  C       6.054923      0.262216     -8.463785
  H       6.735442      0.242867     -7.576099
  H       6.723458      0.421076     -9.344601
  C       5.379183     -1.127573     -8.624899
  H       4.759256     -1.123311     -9.555068
  H       4.664093     -1.307354     -7.788121
  C       6.400283     -2.290274     -8.687467
  H       7.000445     -2.350327     -7.749013
  H       7.117672     -2.155450     -9.531162
  H       5.897117     -3.274633     -8.827997
  C      -4.047947     -3.878750      0.454430
  H      -3.818760     -4.908350      0.086578
  H      -3.508803     -3.764889      1.422916
  C      -3.513673     -2.840596     -0.565024
  H      -3.797026     -1.812027     -0.233843
  H      -4.022257     -2.993536     -1.547993
  C      -1.972653     -2.894032     -0.743709
  H      -1.664153     -3.919883     -1.065559
  H      -1.499327     -2.734352      0.254091
  C      -1.417530     -1.844550     -1.746653
  H      -1.894842     -0.857046     -1.540146
  H      -0.326096     -1.700386     -1.563582
  C      -1.612529     -2.192522     -3.245002
  H      -0.942339     -3.044120     -3.514773
  H      -2.653831     -2.550638     -3.431530
  C      -1.320251     -0.980305     -4.188060
  H      -1.194074     -1.364658     -5.230451
  H      -0.345495     -0.519430     -3.907417
  C      -2.445437      0.042740     -4.188869
  H      -3.411884     -0.351823     -4.567462
  C      -2.429070      1.338177     -3.787733
  H      -3.379820      1.903932     -3.883704
  C      -1.280766      2.156162     -3.217276
  H      -0.961986      2.911179     -3.981770
  H      -0.384567      1.522657     -3.022333
  C      -1.689922      2.924596     -1.923364
  H      -1.914199      2.183767     -1.120682
  H      -2.650783      3.462906     -2.116828
  C      -0.631261      3.949619     -1.436308
  H       0.296847      3.409106     -1.126012
  H      -0.332720      4.590005     -2.302184
  C      -1.109649      4.874833     -0.279635
  H      -0.330187      5.654594     -0.098276
  H      -2.021939      5.428877     -0.613739
  C      -1.411582      4.150499      1.058622
  H      -0.496849      3.596284      1.378194
  H      -2.202600      3.379591      0.900472
  C      -1.870463      5.098832      2.198387
  H      -1.087635      5.880622      2.366158
  H      -2.782682      5.648459      1.859353
  C      -2.180287      4.381281      3.544112
  H      -2.675377      5.106717      4.232618
  H      -2.928163      3.570397      3.370206
  C      -0.942061      3.785038      4.261193
  H      -0.180669      4.575334      4.467433
  H      -1.230695      3.314952      5.225884
  H      -0.445031      3.000919      3.643922
138
Coordinates from ORCA-job /wrk/rja7/qm_final_3_replicates/qm_final_1.1/qm/8/freq E -2722.591800787852
  N       0.096825     -2.022071      7.060465
  C       0.582868     -0.647575      6.502275
  H       1.317092     -0.901098      5.704920
  H       1.126397     -0.159853      7.341336
  C      -0.702993     -1.853210      8.363677
  H      -0.803167     -2.857733      8.826532
  H      -0.145252     -1.174796      9.040210
  H      -1.706548     -1.449931      8.105379
  C       1.340147     -2.853112      7.344757
  H       1.030179     -3.827322      7.775044
  H       1.891691     -3.019958      6.396781
  H       1.984985     -2.313435      8.069230
  C      -0.777672     -2.753405      6.028336
  H      -0.905043     -3.799402      6.377404
  H      -0.273858     -2.728520      5.041986
  H      -1.759265     -2.235635      5.987149
  C      -0.466790      0.314991      5.907859
  H       0.151451      1.091976      5.385822
  H      -1.052156     -0.196251      5.115199
  P      -2.983380      0.646933      6.876833
  O      -3.593624      1.517167      7.945322
  O      -3.171739     -0.888730      6.793957
  O      -1.279290      0.950604      6.884726
  O      -3.275348      1.269543      5.294564
  C      -4.498600      0.867780      4.657088
  H      -4.856825      1.730243      4.043167
  H      -5.301955      0.628024      5.397624
  C      -4.281900     -0.362534      3.737612
  H      -3.824216     -1.183462      4.326824
  O      -3.351310      0.061500      2.668614
  C      -2.128766     -0.530030      2.550756
  O      -1.760985     -1.528049      3.168861
  C      -1.271014      0.233524      1.532022
  H      -1.405602      1.320915      1.720505
  H      -1.708468      0.055841      0.521305
  C      -5.574465     -0.851334      3.069556
  H      -5.984438     -0.106096      2.350797
  H      -6.352152     -1.046569      3.846698
  O      -5.270343     -2.102169      2.376620
  C      -6.059472     -2.460918      1.303354
  O      -7.017850     -1.812017      0.913002
  C      -5.571148     -3.791114      0.699226
  H      -5.891891     -4.604180      1.395477
  H      -6.133084     -3.937180     -0.250297
  C       0.226533     -0.154347      1.547876
  H       0.325186     -1.251245      1.384221
  H       0.647165      0.043860      2.564625
  C       1.045194      0.630677      0.490562
  H       0.913947      1.724010      0.668289
  H       0.621339      0.434901     -0.524201
  C       2.563495      0.307568      0.466035
  H       3.021832      0.564428      1.453747
  H       3.046085      0.990254     -0.272707
  C       2.907335     -1.166532      0.114605
  H       2.301633     -1.493399     -0.765503
  H       2.599913     -1.829664      0.957455
  C       4.411298     -1.409721     -0.191042
  H       4.614807     -2.508094     -0.177636
  H       5.035284     -0.972040      0.626372
  C       4.890571     -0.835508     -1.564448
  H       6.000412     -0.956539     -1.621245
  H       4.703864      0.260848     -1.610350
  C       4.265240     -1.550029     -2.752252
  H       4.560250     -2.614986     -2.861884
  C       3.387006     -1.047676     -3.656001
  H       3.043594     -1.728137     -4.461025
  C       2.840177      0.374566     -3.714114
  H       2.726937      0.795317     -2.688697
  H       1.813814      0.344636     -4.151292
  C       3.708059      1.358008     -4.562612
  H       4.690128      1.510952     -4.051926
  H       3.205194      2.356334     -4.573106
  C       3.963679      0.890571     -6.017976
  H       2.987964      0.668041     -6.518185
  H       4.521365     -0.073914     -5.992117
  C       4.748196      1.929186     -6.860431
  H       5.708287      2.170085     -6.338720
  H       4.170286      2.886254     -6.877296
  C       5.064978      1.512344     -8.325406
  H       5.524713      2.392055     -8.834793
  H       4.109269      1.315295     -8.871122
  C       6.016168      0.282288     -8.478165
  H       6.700895      0.236906     -7.594647
  H       6.683402      0.437470     -9.360605
  C       5.309367     -1.090409     -8.651998
  H       4.690273     -1.064400     -9.582367
  H       4.589992     -1.261638     -7.817013
  C       6.304444     -2.275007     -8.724590
  H       6.901343     -2.357479     -7.785799
  H       7.026082     -2.147540     -9.565757
  H       5.779788     -3.246481     -8.875678
  C      -4.036124     -3.888031      0.467456
  H      -3.801242     -4.919273      0.107921
  H      -3.506642     -3.767046      1.440397
  C      -3.494536     -2.854423     -0.552806
  H      -3.783578     -1.824698     -0.230284
  H      -3.993554     -3.014385     -1.539583
  C      -1.951740     -2.904503     -0.716194
  H      -1.637443     -3.931383     -1.029091
  H      -1.488112     -2.737561      0.285067
  C      -1.389898     -1.860059     -1.720581
  H      -1.870515     -0.872094     -1.524167
  H      -0.300234     -1.712745     -1.529036
  C      -1.572938     -2.217895     -3.218263
  H      -0.899165     -3.069730     -3.478054
  H      -2.612113     -2.579660     -3.409629
  C      -1.277187     -1.011006     -4.166824
  H      -1.143832     -1.401407     -5.206119
  H      -0.304935     -0.546551     -3.883466
  C      -2.404365      0.009694     -4.180215
  H      -3.368851     -0.389977     -4.558409
  C      -2.391288      1.308595     -3.790669
  H      -3.342251      1.872414     -3.895389
  C      -1.246168      2.131963     -3.221864
  H      -0.926150      2.882491     -3.990220
  H      -0.349518      1.501570     -3.019404
  C      -1.660424      2.908465     -1.934493
  H      -1.888629      2.172882     -1.127987
  H      -2.619961      3.446360     -2.135520
  C      -0.602300      3.935252     -1.450032
  H       0.324076      3.395255     -1.133536
  H      -0.300022      4.570160     -2.318622
  C      -1.083248      4.866817     -0.299749
  H      -0.303674      5.646832     -0.119889
  H      -1.994094      5.420113     -0.638968
  C      -1.389351      4.148365      1.040641
  H      -0.475768      3.594526      1.364083
  H      -2.180837      3.377658      0.883786
  C      -1.848660      5.101521      2.176070
  H      -1.063852      5.881363      2.343642
  H      -2.758238      5.653102      1.833165
  C      -2.164157      4.388413      3.522763
  H      -2.655598      5.118004      4.209429
  H      -2.916654      3.581634      3.350014
  C      -0.929851      3.785723      4.241160
  H      -0.164207      4.571883      4.447372
  H      -1.221331      3.317454      5.205953
  H      -0.437028      2.998281      3.624594
138
Coordinates from ORCA-job /wrk/rja7/qm_final_3_replicates/qm_final_1.1/qm/8/freq E -2722.591902240883
  N       0.076670     -2.000103      7.072239
  C       0.567461     -0.632762      6.500964
  H       1.301833     -0.896325      5.706645
  H       1.111550     -0.138217      7.335988
  C      -0.724749     -1.815978      8.372803
  H      -0.828422     -2.815705      8.845195
  H      -0.165812     -1.132657      9.043419
  H      -1.726640     -1.411960      8.108581
  C       1.316434     -2.832975      7.366270
  H       1.002256     -3.801217      7.806910
  H       1.867933     -3.012450      6.420608
  H       1.963190     -2.288413      8.085337
  C      -0.798890     -2.737399      6.045395
  H      -0.934586     -3.778709      6.405570
  H      -0.291041     -2.726829      5.060950
  H      -1.776692     -2.213543      5.993763
  C      -0.479096      0.325934      5.894627
  H       0.141128      1.099180      5.368569
  H      -1.061797     -0.191627      5.103592
  P      -3.000006      0.661138      6.849629
  O      -3.615781      1.534156      7.912616
  O      -3.184259     -0.875284      6.771539
  O      -1.296899      0.969074      6.862375
  O      -3.288377      1.276770      5.263668
  C      -4.509631      0.871279      4.624449
  H      -4.866776      1.730912      4.005802
  H      -5.314729      0.634086      5.363863
  C      -4.289962     -0.363117      3.711115
  H      -3.835204     -1.181885      4.305457
  O      -3.354834      0.055005      2.643897
  C      -2.132602     -0.539114      2.535419
  O      -1.772504     -1.538075      3.156453
  C      -1.263630      0.223549      1.526069
  H      -1.391912      1.310519      1.719814
  H      -1.695491      0.054663      0.511461
  C      -5.578995     -0.854262      3.038701
  H      -5.983069     -0.114064      2.311499
  H      -6.361983     -1.042776      3.812193
  O      -5.269651     -2.109781      2.357206
  C      -6.037428     -2.469972      1.269312
  O      -6.984365     -1.819422      0.854313
  C      -5.540192     -3.805182      0.684355
  H      -5.868762     -4.613086      1.382892
  H      -6.088273     -3.960537     -0.271794
  C       0.231078     -0.174288      1.549975
  H       0.323507     -1.270300      1.377021
  H       0.645140      0.011384      2.571823
  C       1.064213      0.615740      0.507867
  H       0.944344      1.708046      0.699974
  H       0.643795      0.438948     -0.512020
  C       2.578794      0.275260      0.489262
  H       3.033103      0.518651      1.482308
  H       3.074613      0.958743     -0.239903
  C       2.906750     -1.199214      0.125696
  H       2.298078     -1.511213     -0.757714
  H       2.591988     -1.866950      0.962408
  C       4.407973     -1.457012     -0.182202
  H       4.598688     -2.557729     -0.175797
  H       5.037733     -1.030963      0.636898
  C       4.893436     -0.876698     -1.550950
  H       6.001390     -1.013074     -1.609866
  H       4.722340      0.222550     -1.585380
  C       4.256463     -1.567641     -2.746354
  H       4.533254     -2.636028     -2.868771
  C       3.387433     -1.037683     -3.643408
  H       3.030805     -1.699861     -4.457875
  C       2.867747      0.395536     -3.680707
  H       2.769009      0.804399     -2.649067
  H       1.838772      0.392385     -4.112494
  C       3.751506      1.372689     -4.520391
  H       4.739637      1.495824     -4.013093
  H       3.270542      2.381682     -4.512426
  C       3.987229      0.923993     -5.985078
  H       3.002883      0.738874     -6.484038
  H       4.516966     -0.056503     -5.980000
  C       4.799103      1.954095     -6.811835
  H       5.773978      2.145836     -6.297428
  H       4.257215      2.931992     -6.797594
  C       5.079612      1.564161     -8.291542
  H       5.577772      2.433814     -8.782008
  H       4.108430      1.432362     -8.829991
  C       5.962423      0.291070     -8.491397
  H       6.650168      0.178595     -7.616025
  H       6.631240      0.438854     -9.373915
  C       5.180433     -1.034544     -8.704371
  H       4.562077     -0.946052     -9.631543
  H       4.453910     -1.191993     -7.872713
  C       6.108162     -2.269799     -8.817871
  H       6.700389     -2.415709     -7.883686
  H       6.835034     -2.154944     -9.656355
  H       5.530100     -3.205150     -8.999058
  C      -4.001369     -3.898364      0.475068
  H      -3.757303     -4.931668      0.127758
  H      -3.486075     -3.766509      1.454229
  C      -3.450104     -2.870226     -0.545864
  H      -3.746270     -1.839182     -0.234186
  H      -3.936977     -3.038654     -1.537297
  C      -1.905309     -2.915971     -0.691271
  H      -1.584280     -3.943114     -0.996609
  H      -1.453089     -2.743934      0.314552
  C      -1.336111     -1.873571     -1.693957
  H      -1.821672     -0.886196     -1.506403
  H      -0.248877     -1.721583     -1.492135
  C      -1.504904     -2.238997     -3.191714
  H      -0.821607     -3.085691     -3.443365
  H      -2.539550     -2.610924     -3.388342
  C      -1.214485     -1.033579     -4.143698
  H      -1.068925     -1.427446     -5.180024
  H      -0.249174     -0.557578     -3.855576
  C      -2.352599     -0.025341     -4.170212
  H      -3.310195     -0.437521     -4.553074
  C      -2.355763      1.275880     -3.788744
  H      -3.311605      1.829454     -3.903625
  C      -1.222174      2.113443     -3.218137
  H      -0.902679      2.860658     -3.990054
  H      -0.321774      1.492435     -3.003937
  C      -1.650672      2.896931     -1.939690
  H      -1.882144      2.166620     -1.129504
  H      -2.610761      3.429497     -2.152161
  C      -0.599267      3.930838     -1.455839
  H       0.327778      3.395885     -1.132461
  H      -0.295451      4.561813     -2.326747
  C      -1.087913      4.866182     -0.312024
  H      -0.312009      5.650259     -0.133670
  H      -1.999922      5.414335     -0.656480
  C      -1.394721      4.152409      1.030721
  H      -0.480468      3.601755      1.357291
  H      -2.184217      3.379294      0.876036
  C      -1.856989      5.108393      2.162460
  H      -1.073678      5.890004      2.328539
  H      -2.766959      5.657544      1.816688
  C      -2.173239      4.398384      3.510704
  H      -2.666696      5.129167      4.195193
  H      -2.924421      3.589906      3.339473
  C      -0.938854      3.798779      4.231844
  H      -0.173322      4.585984      4.434767
  H      -1.230526      3.334432      5.198517
  H      -0.445719      3.008576      3.618977
138
Coordinates from ORCA-job /wrk/rja7/qm_final_3_replicates/qm_final_1.1/qm/8/freq E -2722.591927330950
  N       0.056641     -1.968796      7.082576
  C       0.544397     -0.602505      6.506818
  H       1.282988     -0.866589      5.716272
  H       1.083024     -0.101884      7.341845
  C      -0.752584     -1.781372      8.378347
  H      -0.854187     -2.779214      8.855180
  H      -0.199956     -1.092180      9.048182
  H      -1.754833     -1.382640      8.106445
  C       1.297868     -2.795598      7.386914
  H       0.985046     -3.762620      7.831234
  H       1.854801     -2.978311      6.445033
  H       1.939367     -2.245211      8.106233
  C      -0.810616     -2.713629      6.054402
  H      -0.947975     -3.752901      6.419987
  H      -0.295261     -2.708565      5.073974
  H      -1.788272     -2.191193      5.991185
  C      -0.504155      0.347682      5.891062
  H       0.113598      1.123404      5.365628
  H      -1.079028     -0.176505      5.098961
  P      -3.033749      0.667807      6.825875
  O      -3.663050      1.537505      7.883584
  O      -3.206489     -0.869914      6.747543
  O      -1.333140      0.987992      6.851225
  O      -3.315342      1.279769      5.237017
  C      -4.530415      0.867674      4.589920
  H      -4.886714      1.724767      3.967139
  H      -5.339572      0.628473      5.324246
  C      -4.300320     -0.367948      3.680692
  H      -3.849569     -1.184937      4.280237
  O      -3.355839      0.049475      2.621611
  C      -2.133531     -0.546605      2.525528
  O      -1.783517     -1.548710      3.147230
  C      -1.250014      0.218078      1.531177
  H      -1.374236      1.304149      1.731408
  H      -1.671793      0.058698      0.510811
  C      -5.581118     -0.863331      2.995822
  H      -5.977321     -0.127393      2.260130
  H      -6.372660     -1.049307      3.761194
  O      -5.260877     -2.121219      2.324134
  C      -6.003130     -2.483349      1.219369
  O      -6.939047     -1.833559      0.778961
  C      -5.492730     -3.821453      0.653014
  H      -5.828250     -4.625630      1.352411
  H      -6.024398     -3.986543     -0.310771
  C       0.241887     -0.188422      1.567837
  H       0.329149     -1.283432      1.386268
  H       0.646611     -0.014847      2.595485
  C       1.091212      0.605438      0.541851
  H       0.981889      1.697076      0.746016
  H       0.675784      0.445634     -0.482934
  C       2.601760      0.246939      0.531268
  H       3.050588      0.476507      1.530074
  H       3.112207      0.930862     -0.187278
  C       2.912811     -1.228026      0.156216
  H       2.301647     -1.524847     -0.730547
  H       2.589111     -1.899336      0.986782
  C       4.410689     -1.502580     -0.153963
  H       4.586910     -2.605700     -0.154462
  H       5.047127     -1.089112      0.666356
  C       4.902391     -0.917604     -1.518676
  H       6.007808     -1.071453     -1.581177
  H       4.748878      0.184461     -1.541557
  C       4.250021     -1.583756     -2.719809
  H       4.503740     -2.656439     -2.853510
  C       3.391884     -1.023743     -3.609394
  H       3.017291     -1.666668     -4.431176
  C       2.909472      0.423103     -3.628422
  H       2.829415      0.822333     -2.591612
  H       1.877818      0.453096     -4.052796
  C       3.815233      1.385191     -4.462710
  H       4.811469      1.468362     -3.963042
  H       3.366661      2.408449     -4.433794
  C       4.019633      0.955468     -5.937936
  H       3.023297      0.823561     -6.430350
  H       4.506453     -0.046782     -5.957996
  C       4.871109      1.964251     -6.751045
  H       5.865098      2.085168     -6.252173
  H       4.385284      2.969864     -6.697586
  C       5.097120      1.607444     -8.248289
  H       5.647016      2.456315     -8.719846
  H       4.108276      1.566152     -8.769389
  C       5.877048      0.281039     -8.513954
  H       6.572751      0.079229     -7.660864
  H       6.537385      0.412819     -9.405356
  C       4.989640     -0.970081     -8.761157
  H       4.361582     -0.794182     -9.669238
  H       4.269415     -1.106730     -7.920344
  C       5.813678     -2.268217     -8.950175
  H       6.411631     -2.502888     -8.037845
  H       6.530043     -2.172574     -9.800031
  H       5.159163     -3.145813     -9.158264
  C      -3.949957     -3.906836      0.468617
  H      -3.693798     -4.941571      0.134630
  H      -3.450940     -3.761925      1.454268
  C      -3.390450     -2.883992     -0.553507
  H      -3.697019     -1.852084     -0.254837
  H      -3.863092     -3.063698     -1.549932
  C      -1.843606     -2.920993     -0.678435
  H      -1.512264     -3.947785     -0.973696
  H      -1.405189     -2.740754      0.332303
  C      -1.268860     -1.880364     -1.680088
  H      -1.764362     -0.895620     -1.504459
  H      -0.185636     -1.718213     -1.465566
  C      -1.415902     -2.256731     -3.177663
  H      -0.718946     -3.095920     -3.416429
  H      -2.443872     -2.641972     -3.383616
  C      -1.130044     -1.053755     -4.133725
  H      -0.969681     -1.451281     -5.166499
  H      -0.173023     -0.565711     -3.839096
  C      -2.279039     -0.058794     -4.176540
  H      -3.227831     -0.483346     -4.567863
  C      -2.300809      1.243328     -3.799636
  H      -3.261146      1.786290     -3.926977
  C      -1.181484      2.092898     -3.219420
  H      -0.858347      2.839044     -3.990913
  H      -0.278678      1.480474     -2.990850
  C      -1.630137      2.879383     -1.949800
  H      -1.868964      2.152398     -1.138966
  H      -2.589432      3.407163     -2.176925
  C      -0.587742      3.918769     -1.459409
  H       0.338363      3.388013     -1.125175
  H      -0.277665      4.547003     -2.330120
  C      -1.090157      4.856508     -0.324002
  H      -0.319257      5.645162     -0.143749
  H      -2.002205      5.398971     -0.677258
  C      -1.402995      4.147051      1.019670
  H      -0.488850      3.600427      1.353323
  H      -2.189307      3.370484      0.864637
  C      -1.874188      5.107118      2.144457
  H      -1.093946      5.891726      2.310443
  H      -2.783815      5.651998      1.791066
  C      -2.196047      4.403447      3.494720
  H      -2.696574      5.136267      4.172055
  H      -2.943122      3.591010      3.324319
  C      -0.963809      3.813292      4.227298
  H      -0.202966      4.604952      4.430453
  H      -1.259643      3.353248      5.194938
  H      -0.463064      3.021314      3.622817
138
Coordinates from ORCA-job /wrk/rja7/qm_final_3_replicates/qm_final_1.1/qm/8/freq E -2722.592012011831
  N       0.086423     -1.964501      7.071489
  C       0.573235     -0.598776      6.493348
  H       1.306874     -0.864403      5.698904
  H       1.117430     -0.099202      7.325407
  C      -0.716385     -1.776352      8.370719
  H      -0.815969     -2.773865      8.848672
  H      -0.160570     -1.086822      9.037581
  H      -1.719945     -1.377896      8.104046
  C       1.328570     -2.792083      7.370347
  H       1.017224     -3.759264      7.815299
  H       1.881680     -2.974434      6.426163
  H       1.973157     -2.242292      8.087349
  C      -0.785997     -2.709110      6.047613
  H      -0.920630     -3.748710      6.413286
  H      -0.276230     -2.703061      5.064219
  H      -1.764438     -2.187240      5.990335
  C      -0.476429      0.353877      5.883401
  H       0.140682      1.126282      5.352116
  H      -1.058658     -0.170061      5.096491
  P      -2.998264      0.687310      6.835860
  O      -3.616283      1.561581      7.896547
  O      -3.179321     -0.849752      6.761591
  O      -1.295706      0.999714      6.848286
  O      -3.287260      1.297636      5.248030
  C      -4.510442      0.895176      4.610453
  H      -4.862758      1.753800      3.987589
  H      -5.316572      0.665997      5.351296
  C      -4.299089     -0.345788      3.703717
  H      -3.849918     -1.164031      4.302812
  O      -3.360623      0.059536      2.634448
  C      -2.144065     -0.546639      2.528483
  O      -1.794409     -1.547876      3.151706
  C      -1.266833      0.205739      1.519187
  H      -1.387978      1.294107      1.708554
  H      -1.696945      0.036018      0.504259
  C      -5.591072     -0.831944      3.032899
  H      -5.986836     -0.094600      2.298278
  H      -6.377216     -1.006865      3.806425
  O      -5.291127     -2.095211      2.362118
  C      -6.052972     -2.452243      1.269025
  O      -6.989643     -1.794096      0.842879
  C      -5.565873     -3.796437      0.696314
  H      -5.901081     -4.596155      1.400965
  H      -6.113133     -3.955404     -0.259737
  C       0.225073     -0.201796      1.547599
  H       0.311252     -1.297859      1.372153
  H       0.637080     -0.021912      2.571245
  C       1.066724      0.586138      0.510559
  H       0.952179      1.678878      0.705164
  H       0.648460      0.414809     -0.511300
  C       2.579470      0.237778      0.499105
  H       3.028099      0.474186      1.496395
  H       3.083860      0.922988     -0.222463
  C       2.902590     -1.235759      0.128526
  H       2.296582     -1.540331     -0.759225
  H       2.581616     -1.907146      0.960018
  C       4.404199     -1.496877     -0.174521
  H       4.591422     -2.598174     -0.175320
  H       5.032280     -1.078523      0.649779
  C       4.897065     -0.905061     -1.535852
  H       6.005097     -1.042011     -1.590553
  H       4.726691      0.194441     -1.560272
  C       4.263186     -1.582071     -2.740654
  H       4.536610     -2.650110     -2.872570
  C       3.400289     -1.037442     -3.635094
  H       3.043019     -1.687382     -4.459031
  C       2.891188      0.400578     -3.657519
  H       2.785327      0.795492     -2.621279
  H       1.866324      0.411345     -4.098887
  C       3.790651      1.383100     -4.474226
  H       4.775483      1.488422     -3.956493
  H       3.318926      2.396139     -4.453094
  C       4.031731      0.957549     -5.944899
  H       3.047623      0.802294     -6.454762
  H       4.542542     -0.032639     -5.954933
  C       4.872629      1.986075     -6.743960
  H       5.853809      2.131698     -6.226495
  H       4.361085      2.979290     -6.701360
  C       5.137267      1.633181     -8.235603
  H       5.668894      2.498585     -8.697745
  H       4.161237      1.559476     -8.776765
  C       5.966096      0.333312     -8.485426
  H       6.658485      0.159071     -7.623674
  H       6.632093      0.485550     -9.369362
  C       5.125988     -0.948657     -8.739644
  H       4.492444     -0.789644     -9.647051
  H       4.410285     -1.116500     -7.900805
  C       5.996423     -2.214626     -8.936647
  H       6.603394     -2.433674     -8.026312
  H       6.708295     -2.088356     -9.786336
  H       5.373830     -3.114008     -9.149826
  C      -4.027111     -3.901927      0.490478
  H      -3.789276     -4.940302      0.154249
  H      -3.513123     -3.762473      1.469113
  C      -3.467035     -2.887407     -0.539513
  H      -3.757198     -1.851431     -0.238565
  H      -3.952595     -3.061559     -1.530683
  C      -1.922157     -2.944707     -0.680597
  H      -1.607506     -3.975753     -0.979226
  H      -1.471717     -2.770644      0.325730
  C      -1.342675     -1.910969     -1.686696
  H      -1.826035     -0.920705     -1.508551
  H      -0.256372     -1.760796     -1.479077
  C      -1.502587     -2.286000     -3.183210
  H      -0.816566     -3.133155     -3.425462
  H      -2.536098     -2.658910     -3.383915
  C      -1.205916     -1.086923     -4.141175
  H      -1.055547     -1.487244     -5.174335
  H      -0.241592     -0.611178     -3.850743
  C      -2.341458     -0.076560     -4.179341
  H      -3.296231     -0.486185     -4.571944
  C      -2.344663      1.223904     -3.795756
  H      -3.297314      1.781046     -3.919541
  C      -1.211902      2.054955     -3.214383
  H      -0.875956      2.795628     -3.985699
  H      -0.319470      1.427727     -2.984963
  C      -1.648604      2.849212     -1.945409
  H      -1.891332      2.127124     -1.131532
  H      -2.603747      3.385154     -2.170955
  C      -0.595950      3.881148     -1.461207
  H       0.327241      3.344143     -1.128636
  H      -0.284113      4.504649     -2.334685
  C      -1.087678      4.825744     -0.326745
  H      -0.311912      5.611079     -0.152972
  H      -1.998606      5.371724     -0.677517
  C      -1.397909      4.122682      1.021004
  H      -0.483624      3.576132      1.354610
  H      -2.185685      3.346541      0.871188
  C      -1.865600      5.088364      2.142584
  H      -1.087214      5.877021      2.298028
  H      -2.779601      5.627399      1.791492
  C      -2.175338      4.393222      3.500215
  H      -2.679193      5.127356      4.173689
  H      -2.915946      3.572717      3.340165
  C      -0.934435      3.820759      4.232419
  H      -0.179436      4.620781      4.424214
  H      -1.221020      3.367169      5.205947
  H      -0.430071      3.027750      3.632660
138
Coordinates from ORCA-job /wrk/rja7/qm_final_3_replicates/qm_final_1.1/qm/8/freq E -2722.592049075492
  N       0.047020     -1.977780      7.094207
  C       0.546407     -0.619856      6.508747
  H       1.283199     -0.895867      5.721165
  H       1.088631     -0.117289      7.339991
  C      -0.765143     -1.773990      8.385149
  H      -0.873923     -2.766715      8.870878
  H      -0.211230     -1.081538      9.050546
  H      -1.764242     -1.372825      8.106762
  C       1.281839     -2.809699      7.410057
  H       0.961206     -3.771094      7.860916
  H       1.841060     -3.003596      6.471803
  H       1.924045     -2.257562      8.127447
  C      -0.821548     -2.727555      6.070584
  H      -0.962402     -3.763372      6.444099
  H      -0.305267     -2.732088      5.090337
  H      -1.798072     -2.203092      6.003011
  C      -0.493563      0.334968      5.886118
  H       0.131588      1.098075      5.351847
  H      -1.075942     -0.191021      5.100689
  P      -3.015882      0.695237      6.829347
  O      -3.629670      1.582044      7.882047
  O      -3.208027     -0.840905      6.766876
  O      -1.310905      0.994536      6.843301
  O      -3.296829      1.295913      5.236531
  C      -4.515672      0.886854      4.595498
  H      -4.869121      1.741618      3.968222
  H      -5.324247      0.656513      5.333386
  C      -4.292154     -0.355824      3.694737
  H      -3.841487     -1.169333      4.299436
  O      -3.349131      0.052440      2.629954
  C      -2.124994     -0.540431      2.537119
  O      -1.767322     -1.531369      3.172341
  C      -1.249219      0.213655      1.526811
  H      -1.377918      1.302647      1.711044
  H      -1.674633      0.037540      0.510590
  C      -5.578110     -0.852304      3.019273
  H      -5.975592     -0.119222      2.281443
  H      -6.366231     -1.030951      3.789922
  O      -5.270491     -2.116867      2.353434
  C      -6.024855     -2.476916      1.255647
  O      -6.960273     -1.820866      0.823728
  C      -5.529685     -3.818628      0.683324
  H      -5.858562     -4.619799      1.389249
  H      -6.076855     -3.981547     -0.271984
  C       0.244797     -0.185730      1.562876
  H       0.338046     -1.282285      1.393963
  H       0.652109      0.002289      2.586808
  C       1.085231      0.598531      0.522542
  H       0.967761      1.692049      0.710305
  H       0.668230      0.419476     -0.498072
  C       2.598476      0.252006      0.510354
  H       3.048266      0.484459      1.507994
  H       3.101006      0.940481     -0.209221
  C       2.921698     -1.221060      0.135868
  H       2.312325     -1.524996     -0.749853
  H       2.603519     -1.893005      0.967710
  C       4.421695     -1.482517     -0.175037
  H       4.607315     -2.584052     -0.180624
  H       5.053903     -1.068370      0.648292
  C       4.907876     -0.892276     -1.539564
  H       6.013536     -1.042482     -1.606948
  H       4.750939      0.209244     -1.559911
  C       4.253165     -1.561732     -2.738045
  H       4.512170     -2.633269     -2.870926
  C       3.386239     -1.010505     -3.624382
  H       3.013204     -1.660050     -4.441634
  C       2.889926      0.431543     -3.646559
  H       2.805285      0.833317     -2.611242
  H       1.857748      0.448865     -4.070521
  C       3.783603      1.401097     -4.484217
  H       4.777162      1.502452     -3.982966
  H       3.319941      2.417987     -4.463533
  C       3.998734      0.961247     -5.954519
  H       3.005841      0.804773     -6.446153
  H       4.506009     -0.030900     -5.963289
  C       4.827750      1.979985     -6.777805
  H       5.816768      2.130487     -6.276729
  H       4.317469      2.974049     -6.739801
  C       5.072937      1.607759     -8.267878
  H       5.590960      2.471053     -8.748625
  H       4.091441      1.517615     -8.795976
  C       5.913358      0.313760     -8.510546
  H       6.626583      0.167229     -7.660862
  H       6.558115      0.457842     -9.411514
  C       5.086568     -0.984710     -8.719631
  H       4.422669     -0.848406     -9.608751
  H       4.399740     -1.150258     -7.856584
  C       5.970328     -2.239800     -8.924124
  H       6.608227     -2.435941     -8.029953
  H       6.653970     -2.115915     -9.796999
  H       5.355634     -3.151672     -9.104639
  C      -3.990778     -3.915585      0.475419
  H      -3.747789     -4.951278      0.134852
  H      -3.477466     -3.777549      1.454592
  C      -3.437279     -2.894327     -0.551003
  H      -3.732727     -1.861094     -0.245934
  H      -3.922805     -3.067452     -1.542290
  C      -1.892399     -2.942998     -0.693151
  H      -1.572007     -3.971371     -0.994880
  H      -1.442503     -2.768805      0.312985
  C      -1.319400     -1.903873     -1.696787
  H      -1.806306     -0.916282     -1.514006
  H      -0.233392     -1.750416     -1.490803
  C      -1.478579     -2.273692     -3.194505
  H      -0.791523     -3.119312     -3.439426
  H      -2.511377     -2.647406     -3.397106
  C      -1.181848     -1.070791     -4.147583
  H      -1.034681     -1.467001     -5.182833
  H      -0.215783     -0.597922     -3.857318
  C      -2.316647     -0.059127     -4.179777
  H      -3.272848     -0.467754     -4.569386
  C      -2.319064      1.241092     -3.794625
  H      -3.272763      1.797102     -3.914924
  C      -1.186645      2.075511     -3.216977
  H      -0.856395      2.818387     -3.988511
  H      -0.290801      1.451753     -2.992652
  C      -1.622297      2.866035     -1.945009
  H      -1.857266      2.140102     -1.131518
  H      -2.581394      3.396812     -2.166160
  C      -0.574096      3.903074     -1.460354
  H       0.352620      3.370537     -1.132596
  H      -0.268131      4.531871     -2.332108
  C      -1.067972      4.841108     -0.321359
  H      -0.293977      5.626873     -0.142708
  H      -1.979500      5.386937     -0.670881
  C      -1.379613      4.131945      1.022673
  H      -0.466119      3.583034      1.355174
  H      -2.168478      3.358211      0.867555
  C      -1.847480      5.094002      2.147048
  H      -1.066441      5.878566      2.310270
  H      -2.757579      5.638693      1.794629
  C      -2.166838      4.393138      3.498916
  H      -2.669650      5.125982      4.173970
  H      -2.911013      3.578015      3.329402
  C      -0.932927      3.809174      4.233114
  H      -0.176985      4.604666      4.439667
  H      -1.227366      3.345292      5.199182
  H      -0.426140      3.022102      3.627123
138
Coordinates from ORCA-job /wrk/rja7/qm_final_3_replicates/qm_final_1.1/qm/8/freq E -2722.592098819569
  N       0.067258     -1.972058      7.081963
  C       0.556374     -0.605256      6.508539
  H       1.296022     -0.868936      5.719339
  H       1.093914     -0.105209      7.344432
  C      -0.748398     -1.786383      8.373540
  H      -0.848954     -2.784195      8.850394
  H      -0.201414     -1.094833      9.045601
  H      -1.750585     -1.391514      8.097255
  C       1.308428     -2.796313      7.392978
  H       0.995194     -3.763612      7.836464
  H       1.870515     -2.978938      6.454147
  H       1.945300     -2.244221      8.115108
  C      -0.793364     -2.720147      6.050459
  H      -0.928527     -3.759618      6.415933
  H      -0.273997     -2.714039      5.071814
  H      -1.773112     -2.201600      5.983434
  C      -0.489933      0.346637      5.891731
  H       0.130618      1.117956      5.363658
  H      -1.067863     -0.177860      5.101889
  P      -3.015486      0.685671      6.835644
  O      -3.634756      1.564921      7.891552
  O      -3.199162     -0.851322      6.766754
  O      -1.312214      0.994646      6.852563
  O      -3.298198      1.291395      5.245179
  C      -4.519284      0.886897      4.605464
  H      -4.871954      1.744362      3.981373
  H      -5.326699      0.656750      5.344659
  C      -4.302450     -0.354387      3.700923
  H      -3.853148     -1.171007      4.302345
  O      -3.360561      0.051938      2.634068
  C      -2.138254     -0.544598      2.538153
  O      -1.780752     -1.534377      3.175242
  C      -1.261982      0.207720      1.526990
  H      -1.388655      1.296708      1.711787
  H      -1.688509      0.032712      0.511121
  C      -5.591893     -0.844448      3.027577
  H      -5.985822     -0.110160      2.289091
  H      -6.380254     -1.018152      3.799098
  O      -5.291164     -2.111040      2.362749
  C      -6.039026     -2.463123      1.258003
  O      -6.963668     -1.797863      0.816926
  C      -5.549870     -3.808554      0.690046
  H      -5.883894     -4.606705      1.396924
  H      -6.094927     -3.970920     -0.266566
  C       0.231527     -0.193816      1.561438
  H       0.323688     -1.290310      1.391062
  H       0.639372     -0.007813      2.585481
  C       1.073121      0.591635      0.522572
  H       0.954465      1.684790      0.711393
  H       0.658149      0.413511     -0.499471
  C       2.586802      0.246945      0.514751
  H       3.032306      0.479713      1.514234
  H       3.091340      0.936605     -0.202297
  C       2.913683     -1.225090      0.140003
  H       2.307098     -1.529471     -0.747390
  H       2.595016     -1.898456      0.970498
  C       4.414998     -1.483044     -0.166836
  H       4.602786     -2.584240     -0.173331
  H       5.043996     -1.068573      0.658731
  C       4.904439     -0.888554     -1.528365
  H       6.010316     -1.038188     -1.593050
  H       4.746904      0.212944     -1.545676
  C       4.252752     -1.553421     -2.730758
  H       4.509031     -2.625424     -2.865139
  C       3.391636     -0.996301     -3.618981
  H       3.019807     -1.641604     -4.440142
  C       2.902346      0.448397     -3.638862
  H       2.811389      0.846530     -2.602530
  H       1.873869      0.472624     -4.070861
  C       3.807122      1.416725     -4.465713
  H       4.797896      1.509556     -3.957204
  H       3.349441      2.436238     -4.443119
  C       4.029075      0.982122     -5.936470
  H       3.038223      0.842823     -6.437490
  H       4.522259     -0.017034     -5.946446
  C       4.880692      1.992873     -6.746218
  H       5.871638      2.115752     -6.241356
  H       4.391764      2.997079     -6.698025
  C       5.122333      1.633400     -8.239708
  H       5.670256      2.486561     -8.705134
  H       4.142020      1.581688     -8.775149
  C       5.921916      0.316852     -8.497792
  H       6.630969      0.137418     -7.650902
  H       6.570276      0.452245     -9.397579
  C       5.054151     -0.951706     -8.723375
  H       4.387475     -0.777397     -9.603868
  H       4.368992     -1.111840     -7.858008
  C       5.895897     -2.229827     -8.958404
  H       6.534942     -2.463198     -8.073930
  H       6.575983     -2.111697     -9.834905
  H       5.250875     -3.118207     -9.149998
  C      -4.010579     -3.911529      0.487580
  H      -3.769737     -4.949505      0.152572
  H      -3.500221     -3.770270      1.467888
  C      -3.450655     -2.896286     -0.541318
  H      -3.743936     -1.860889     -0.241585
  H      -3.933532     -3.071964     -1.533496
  C      -1.905515     -2.950337     -0.678093
  H      -1.587729     -3.981300     -0.973664
  H      -1.457979     -2.772589      0.328575
  C      -1.326052     -1.918653     -1.685602
  H      -1.810474     -0.928446     -1.510456
  H      -0.240166     -1.766964     -1.476848
  C      -1.482134     -2.297679     -3.181404
  H      -0.797257     -3.147275     -3.418601
  H      -2.515634     -2.669161     -3.384634
  C      -1.177768     -1.102142     -4.141644
  H      -1.029099     -1.506063     -5.173662
  H      -0.210619     -0.631210     -3.851645
  C      -2.308571     -0.086355     -4.184458
  H      -3.264155     -0.493032     -4.577754
  C      -2.308344      1.215312     -3.803972
  H      -3.259228      1.774486     -3.931714
  C      -1.175676      2.047149     -3.223231
  H      -0.834854      2.782750     -3.997199
  H      -0.285315      1.419818     -2.987640
  C      -1.615944      2.848620     -1.959789
  H      -1.862012      2.129603     -1.143586
  H      -2.569751      3.384302     -2.191724
  C      -0.564439      3.881533     -1.473687
  H       0.357507      3.344991     -1.138632
  H      -0.249989      4.504734     -2.346452
  C      -1.059592      4.826993     -0.341399
  H      -0.283396      5.610655     -0.162807
  H      -1.967432      5.374895     -0.697225
  C      -1.379973      4.124728      1.004208
  H      -0.470054      3.573689      1.342656
  H      -2.170877      3.353195      0.848796
  C      -1.849419      5.092378      2.123078
  H      -1.066727      5.875291      2.286356
  H      -2.756653      5.638357      1.765313
  C      -2.175860      4.396822      3.476042
  H      -2.680439      5.132612      4.146725
  H      -2.920557      3.582113      3.306439
  C      -0.945825      3.813258      4.216934
  H      -0.190081      4.608410      4.425528
  H      -1.244731      3.351226      5.182671
  H      -0.436828      3.024777      3.614637
138
Coordinates from ORCA-job /wrk/rja7/qm_final_3_replicates/qm_final_1.1/qm/8/freq E -2722.592103978385
  N       0.058576     -1.955873      7.101516
  C       0.553911     -0.594280      6.521196
  H       1.294123     -0.865364      5.734983
  H       1.091518     -0.091372      7.355314
  C      -0.758614     -1.759711      8.390686
  H      -0.863965     -2.754443      8.873002
  H      -0.209930     -1.066540      9.059696
  H      -1.758805     -1.361941      8.110522
  C       1.295865     -2.783370      7.419448
  H       0.978001     -3.747123      7.867323
  H       1.859281     -2.973138      6.482819
  H       1.933382     -2.229936      8.139978
  C      -0.802883     -2.706007      6.072292
  H      -0.945799     -3.742048      6.444615
  H      -0.279730     -2.710073      5.095743
  H      -1.779110     -2.182173      5.997274
  C      -0.488175      0.357443      5.896785
  H       0.135624      1.124132      5.365587
  H      -1.065703     -0.169848      5.108779
  P      -3.014626      0.706944      6.835501
  O      -3.632927      1.590814      7.888139
  O      -3.201534     -0.829892      6.771489
  O      -1.310757      1.012714      6.852392
  O      -3.296626      1.307666      5.243139
  C      -4.517754      0.900745      4.604795
  H      -4.870190      1.755806      3.977260
  H      -5.325323      0.673852      5.344837
  C      -4.301392     -0.344392      3.705292
  H      -3.854913     -1.159645      4.310590
  O      -3.356170      0.056777      2.639738
  C      -2.135450     -0.543413      2.548224
  O      -1.785045     -1.537583      3.182421
  C      -1.257221      0.200825      1.532987
  H      -1.376586      1.290743      1.715836
  H      -1.687394      0.026638      0.518695
  C      -5.590039     -0.834403      3.030434
  H      -5.980726     -0.101993      2.288412
  H      -6.380422     -1.003904      3.800775
  O      -5.290746     -2.103989      2.370472
  C      -6.029724     -2.452750      1.258595
  O      -6.945126     -1.781922      0.806740
  C      -5.541659     -3.800587      0.695624
  H      -5.875956     -4.595942      1.405467
  H      -6.086958     -3.966001     -0.260348
  C       0.234019     -0.208981      1.564600
  H       0.320345     -1.305713      1.392371
  H       0.644410     -0.026526      2.588250
  C       1.077613      0.574409      0.525755
  H       0.964339      1.667799      0.717136
  H       0.659804      0.400397     -0.495773
  C       2.589572      0.223458      0.514924
  H       3.036650      0.450469      1.515042
  H       3.096325      0.914179     -0.199575
  C       2.910945     -1.248114      0.134078
  H       2.300541     -1.547770     -0.752165
  H       2.593943     -1.923908      0.963328
  C       4.410552     -1.506933     -0.179228
  H       4.597684     -2.608237     -0.190893
  H       5.042858     -1.096145      0.645613
  C       4.894905     -0.906155     -1.539750
  H       6.000897     -1.053279     -1.607894
  H       4.735127      0.195152     -1.552557
  C       4.242125     -1.568298     -2.742878
  H       4.500912     -2.639202     -2.881321
  C       3.378534     -1.010109     -3.628023
  H       3.008535     -1.653309     -4.451650
  C       2.883482      0.432801     -3.641352
  H       2.783807      0.823877     -2.602921
  H       1.857607      0.455205     -4.079628
  C       3.789598      1.410814     -4.455793
  H       4.776283      1.504930     -3.939489
  H       3.327140      2.427990     -4.429461
  C       4.024557      0.987553     -5.927988
  H       3.038204      0.851225     -6.438784
  H       4.518766     -0.010832     -5.940904
  C       4.883360      2.004797     -6.721932
  H       5.871967      2.118212     -6.210303
  H       4.397533      3.009971     -6.664455
  C       5.133678      1.663773     -8.218380
  H       5.690574      2.520079     -8.667431
  H       4.157693      1.625554     -8.763032
  C       5.927569      0.346812     -8.490909
  H       6.635558      0.154067     -7.645939
  H       6.577007      0.491256     -9.388556
  C       5.055113     -0.915044     -8.734944
  H       4.384635     -0.722751     -9.608843
  H       4.373450     -1.088606     -7.869539
  C       5.891570     -2.191494     -8.995400
  H       6.534595     -2.441520     -8.118402
  H       6.567588     -2.061409     -9.873395
  H       5.242626     -3.074600     -9.197934
  C      -4.002429     -3.904929      0.492392
  H      -3.762166     -4.944707      0.162685
  H      -3.490858     -3.758418      1.471323
  C      -3.444077     -2.895643     -0.543427
  H      -3.734428     -1.858241     -0.247681
  H      -3.931180     -3.075358     -1.532845
  C      -1.899619     -2.953502     -0.686710
  H      -1.585419     -3.985810     -0.981378
  H      -1.447140     -2.774694      0.317674
  C      -1.322433     -1.925346     -1.699313
  H      -1.805724     -0.934190     -1.526389
  H      -0.236093     -1.772966     -1.494224
  C      -1.482466     -2.309447     -3.193292
  H      -0.797967     -3.159575     -3.429651
  H      -2.516594     -2.681320     -3.392508
  C      -1.180802     -1.116747     -4.157814
  H      -1.036291     -1.523205     -5.189453
  H      -0.212406     -0.645903     -3.872351
  C      -2.310625     -0.100064     -4.198007
  H      -3.267088     -0.505132     -4.590876
  C      -2.308779      1.200336     -3.813699
  H      -3.259051      1.761088     -3.939288
  C      -1.174618      2.028253     -3.230455
  H      -0.830570      2.763357     -4.003525
  H      -0.286328      1.398140     -2.994258
  C      -1.613714      2.829682     -1.966778
  H      -1.862684      2.111163     -1.151192
  H      -2.565666      3.368382     -2.199189
  C      -0.559739      3.859468     -1.479871
  H       0.361445      3.320524     -1.145486
  H      -0.244498      4.482551     -2.352425
  C      -1.053749      4.805855     -0.347738
  H      -0.277360      5.589702     -0.170550
  H      -1.961722      5.353620     -0.703433
  C      -1.372927      4.105506      0.999326
  H      -0.462000      3.556997      1.339005
  H      -2.162328      3.331896      0.845532
  C      -1.845148      5.074649      2.115956
  H      -1.065130      5.860695      2.276756
  H      -2.754214      5.616647      1.756845
  C      -2.168731      4.382270      3.471494
  H      -2.680086      5.117121      4.138123
  H      -2.906889      3.561185      3.304252
  C      -0.935727      3.811921      4.217760
  H      -0.186972      4.614003      4.424805
  H      -1.233567      3.351772      5.184819
  H      -0.418716      3.024908      3.620420
138
Coordinates from ORCA-job /wrk/rja7/qm_final_3_replicates/qm_final_1.1/qm/8/freq E -2722.592124526408
  N       0.055948     -1.966284      7.102766
  C       0.554673     -0.606669      6.520391
  H       1.294058     -0.881099      5.734411
  H       1.093919     -0.104131      7.353668
  C      -0.758993     -1.766955      8.392911
  H      -0.865690     -2.761002      8.876312
  H      -0.207877     -1.074268      9.060419
  H      -1.758771     -1.367628      8.113636
  C       1.291265     -2.796932      7.419823
  H       0.971285     -3.759197      7.869418
  H       1.852783     -2.989605      6.482640
  H       1.931408     -2.244432      8.138765
  C      -0.808894     -2.715122      6.075573
  H      -0.955083     -3.749907      6.450023
  H      -0.286244     -2.722944      5.098696
  H      -1.783537     -2.188501      6.000547
  C      -0.484312      0.347747      5.894368
  H       0.142365      1.110452      5.360714
  H      -1.064606     -0.179144      5.107949
  P      -3.008071      0.709029      6.835636
  O      -3.621711      1.597859      7.886869
  O      -3.199706     -0.827370      6.776340
  O      -1.303300      1.009556      6.848421
  O      -3.290701      1.306667      5.242301
  C      -4.515555      0.903693      4.608609
  H      -4.866998      1.759280      3.981198
  H      -5.321523      0.680931      5.351641
  C      -4.307276     -0.343488      3.709978
  H      -3.859574     -1.158978      4.314105
  O      -3.367627      0.052666      2.637620
  C      -2.146918     -0.547142      2.543692
  O      -1.792491     -1.537046      3.182218
  C      -1.271805      0.195649      1.524736
  H      -1.393234      1.285946      1.704813
  H      -1.703209      0.018156      0.511642
  C      -5.600823     -0.830308      3.042622
  H      -5.991670     -0.098481      2.300162
  H      -6.388544     -0.994790      3.816756
  O      -5.309407     -2.102924      2.384820
  C      -6.042328     -2.444046      1.266549
  O      -6.948059     -1.764817      0.807816
  C      -5.562459     -3.796335      0.707413
  H      -5.900743     -4.588076      1.419362
  H      -6.108357     -3.960908     -0.248322
  C       0.220623     -0.209976      1.556365
  H       0.310823     -1.306524      1.384779
  H       0.630035     -0.025496      2.580142
  C       1.062130      0.575869      0.517704
  H       0.945237      1.668508      0.709656
  H       0.645929      0.400668     -0.504134
  C       2.575312      0.230320      0.507747
  H       3.020471      0.456617      1.508941
  H       3.080547      0.924247     -0.204767
  C       2.902179     -1.239229      0.124049
  H       2.293706     -1.538874     -0.763601
  H       2.586706     -1.918097      0.951457
  C       4.402906     -1.492698     -0.188350
  H       4.593101     -2.593440     -0.202465
  H       5.033080     -1.082086      0.638231
  C       4.887307     -0.888031     -1.547131
  H       5.992975     -1.037357     -1.616660
  H       4.729976      0.213649     -1.556363
  C       4.232532     -1.544895     -2.752053
  H       4.486284     -2.616855     -2.891825
  C       3.372069     -0.982100     -3.637353
  H       2.999598     -1.623762     -4.461087
  C       2.882995      0.462807     -3.651328
  H       2.785358      0.855531     -2.613113
  H       1.857133      0.488960     -4.089326
  C       3.792145      1.436302     -4.467939
  H       4.779279      1.529091     -3.952118
  H       3.332460      2.454797     -4.444325
  C       4.026708      1.007816     -5.938788
  H       3.040507      0.869389     -6.449301
  H       4.520567      0.009178     -5.947597
  C       4.884875      2.022246     -6.737067
  H       5.873516      2.139078     -6.226169
  H       4.398122      3.027186     -6.683462
  C       5.136952      1.674573     -8.231803
  H       5.693885      2.529363     -8.683952
  H       4.162194      1.632045     -8.778422
  C       5.934346      0.357877     -8.495646
  H       6.645661      0.177389     -7.650760
  H       6.580028      0.496441     -9.396959
  C       5.067330     -0.910667     -8.723668
  H       4.393240     -0.732209     -9.597700
  H       4.389343     -1.077665     -7.854036
  C       5.910506     -2.185565     -8.969294
  H       6.556549     -2.419878     -8.090254
  H       6.584143     -2.063526     -9.850261
  H       5.266344     -3.075104     -9.158542
  C      -4.023509     -3.909118      0.505245
  H      -3.788407     -4.950745      0.177630
  H      -3.512071     -3.763650      1.484427
  C      -3.458413     -2.904145     -0.531143
  H      -3.744619     -1.864999     -0.237612
  H      -3.944143     -3.083111     -1.521293
  C      -1.913849     -2.969747     -0.670732
  H      -1.604241     -4.004065     -0.963240
  H      -1.462995     -2.791912      0.334529
  C      -1.328388     -1.945979     -1.683132
  H      -1.805785     -0.951598     -1.512560
  H      -0.241620     -1.800175     -1.475509
  C      -1.488190     -2.330747     -3.176877
  H      -0.810324     -3.186948     -3.410682
  H      -2.524570     -2.695427     -3.377550
  C      -1.175464     -1.141540     -4.142494
  H      -1.027872     -1.551555     -5.172245
  H      -0.206110     -0.674350     -3.853345
  C      -2.300794     -0.119984     -4.191045
  H      -3.257175     -0.522163     -4.587083
  C      -2.294955      1.182036     -3.812084
  H      -3.242216      1.746426     -3.944126
  C      -1.159799      2.007948     -3.227891
  H      -0.808062      2.736365     -4.003856
  H      -0.275973      1.374710     -2.983634
  C      -1.600887      2.819025     -1.971208
  H      -1.856745      2.106147     -1.152935
  H      -2.549288      3.360850     -2.210780
  C      -0.544146      3.846497     -1.485403
  H       0.374265      3.305110     -1.147747
  H      -0.224777      4.465765     -2.359211
  C      -1.036407      4.798342     -0.356882
  H      -0.257920      5.580601     -0.181878
  H      -1.942530      5.347386     -0.715251
  C      -1.357693      4.103660      0.992727
  H      -0.448117      3.554519      1.334497
  H      -2.148602      3.331323      0.841082
  C      -1.827861      5.076929      2.106448
  H      -1.046374      5.862000      2.264875
  H      -2.735963      5.619652      1.745985
  C      -2.151899      4.388791      3.464274
  H      -2.660896      5.126626      4.129364
  H      -2.892217      3.568962      3.299953
  C      -0.919398      3.817628      4.210930
  H      -0.168913      4.618719      4.415488
  H      -1.217427      3.360662      5.179305
  H      -0.404359      3.028042      3.615289
138
Coordinates from ORCA-job /wrk/rja7/qm_final_3_replicates/qm_final_1.1/qm/8/freq E -2722.592135524451
  N       0.075900     -1.969006      7.097480
  C       0.568279     -0.604763      6.520785
  H       1.309973     -0.872450      5.734791
  H       1.103931     -0.102492      7.356399
  C      -0.739608     -1.779177      8.388749
  H      -0.841903     -2.775949      8.867431
  H      -0.191232     -1.087362      9.059400
  H      -1.741359     -1.382818      8.111798
  C       1.315132     -2.795220      7.410794
  H       0.999686     -3.761419      7.855122
  H       1.878242     -2.980187      6.472971
  H       1.952040     -2.243322      8.133065
  C      -0.785618     -2.717395      6.067326
  H      -0.928848     -3.753673      6.438596
  H      -0.261784     -2.720722      5.091035
  H      -1.761943     -2.193985      5.992862
  C      -0.475161      0.346360      5.897510
  H       0.147605      1.112776      5.365113
  H      -1.053728     -0.181350      5.110459
  P      -2.999476      0.696092      6.843249
  O      -3.613864      1.580063      7.898103
  O      -3.185695     -0.840774      6.780444
  O      -1.295619      1.002487      6.853915
  O      -3.287673      1.297165      5.252501
  C      -4.514945      0.894969      4.623060
  H      -4.869015      1.751353      3.998226
  H      -5.317992      0.670865      5.368816
  C      -4.310122     -0.350958      3.722075
  H      -3.860406     -1.167507      4.323298
  O      -3.374243      0.046748      2.646931
  C      -2.151796     -0.549237      2.551170
  O      -1.789216     -1.530950      3.197782
  C      -1.282178      0.193109      1.526888
  H      -1.407651      1.283882      1.702639
  H      -1.715452      0.009594      0.515523
  C      -5.606833     -0.836124      3.059166
  H      -6.000903     -0.102031      2.320776
  H      -6.390990     -1.003313      3.836344
  O      -5.319927     -2.107378      2.396553
  C      -6.045873     -2.437668      1.270243
  O      -6.943920     -1.750785      0.807938
  C      -5.569810     -3.790159      0.708719
  H      -5.907100     -4.582485      1.420353
  H      -6.116692     -3.952610     -0.246731
  C       0.211938     -0.206447      1.556966
  H       0.306031     -1.303472      1.390655
  H       0.622830     -0.015036      2.578871
  C       1.048763      0.577218      0.512759
  H       0.929818      1.670406      0.700334
  H       0.630817      0.396716     -0.507418
  C       2.562451      0.233820      0.500226
  H       3.009580      0.463420      1.499837
  H       3.065471      0.925986     -0.215567
  C       2.889889     -1.236661      0.119914
  H       2.279785     -1.539289     -0.765686
  H       2.576320     -1.913335      0.949699
  C       4.390480     -1.490273     -0.193505
  H       4.581846     -2.590828     -0.203492
  H       5.021210     -1.075962      0.630823
  C       4.873240     -0.890649     -1.555055
  H       5.979443     -1.036672     -1.623550
  H       4.711992      0.210397     -1.569758
  C       4.220874     -1.555026     -2.757042
  H       4.476985     -2.627096     -2.891573
  C       3.360340     -0.997534     -3.645381
  H       2.989565     -1.643347     -4.466639
  C       2.870368      0.447055     -3.665151
  H       2.762793      0.840052     -2.628119
  H       1.848522      0.472111     -4.112375
  C       3.785636      1.421339     -4.473689
  H       4.769113      1.513861     -3.950950
  H       3.325762      2.439808     -4.452110
  C       4.030201      0.994441     -5.943199
  H       3.047770      0.858370     -6.461460
  H       4.522379     -0.004967     -5.949234
  C       4.895963      2.008689     -6.733193
  H       5.880764      2.123326     -6.214322
  H       4.410080      3.014170     -6.681164
  C       5.161001      1.664713     -8.226468
  H       5.720203      2.522081     -8.670584
  H       4.191971      1.621373     -8.783117
  C       5.965379      0.351874     -8.488231
  H       6.677399      0.176936     -7.642786
  H       6.610374      0.493843     -9.389553
  C       5.106612     -0.922160     -8.716621
  H       4.429452     -0.746849     -9.588757
  H       4.431852     -1.095615     -7.845886
  C       5.958311     -2.190721     -8.965239
  H       6.608284     -2.420468     -8.087941
  H       6.628853     -2.064071     -9.847922
  H       5.320148     -3.084922     -9.152903
  C      -4.031112     -3.903376      0.504795
  H      -3.796773     -4.944504      0.175075
  H      -3.518884     -3.760202      1.483878
  C      -3.466584     -2.896726     -0.530119
  H      -3.751548     -1.857882     -0.234156
  H      -3.953531     -3.073163     -1.520100
  C      -1.922249     -2.963227     -0.671525
  H      -1.613672     -3.997195     -0.966213
  H      -1.470275     -2.787650      0.333552
  C      -1.337769     -1.937956     -1.682830
  H      -1.814444     -0.943630     -1.509743
  H      -0.250533     -1.793226     -1.476618
  C      -1.499997     -2.320023     -3.176995
  H      -0.824677     -3.177799     -3.412671
  H      -2.537324     -2.682223     -3.377333
  C      -1.186394     -1.129702     -4.141071
  H      -1.039054     -1.538527     -5.171304
  H      -0.216990     -0.663064     -3.851285
  C      -2.312148     -0.108422     -4.188901
  H      -3.268237     -0.510762     -4.585207
  C      -2.307258      1.193538     -3.809841
  H      -3.255102      1.757039     -3.941422
  C      -1.172321      2.021207     -3.227703
  H      -0.819722      2.747012     -4.005748
  H      -0.288823      1.388223     -2.981583
  C      -1.613936      2.835050     -1.973187
  H      -1.868326      2.123182     -1.153495
  H      -2.563095      3.375200     -2.213317
  C      -0.558642      3.864740     -1.489317
  H       0.361721      3.325405     -1.154296
  H      -0.242552      4.485662     -2.363186
  C      -1.050099      4.813891     -0.358352
  H      -0.272105      5.596551     -0.183038
  H      -1.957384      5.362619     -0.714195
  C      -1.368585      4.115661      0.990071
  H      -0.458303      3.565503      1.328569
  H      -2.159878      3.343849      0.837705
  C      -1.836237      5.085293      2.107760
  H      -1.053365      5.868418      2.268991
  H      -2.743712      5.630990      1.750180
  C      -2.160551      4.391579      3.462634
  H      -2.666334      5.127699      4.131834
  H      -2.903816      3.575078      3.295356
  C      -0.928970      3.812986      4.204993
  H      -0.177341      4.611369      4.415775
  H      -1.227895      3.349513      5.169989
  H      -0.414620      3.026989      3.603587
138
Coordinates from ORCA-job /wrk/rja7/qm_final_3_replicates/qm_final_1.1/qm/8/freq E -2722.592153407242
  N       0.072780     -1.961457      7.101573
  C       0.566495     -0.600020      6.519379
  H       1.307873     -0.871300      5.734315
  H       1.102801     -0.095059      7.352959
  C      -0.742580     -1.765343      8.392070
  H      -0.846168     -2.760058      8.874672
  H      -0.193194     -1.071626      9.059934
  H      -1.743701     -1.368637      8.113168
  C       1.311037     -2.787816      7.418302
  H       0.994394     -3.751477      7.867294
  H       1.873643     -2.978018      6.481237
  H       1.948913     -2.233437      8.137814
  C      -0.789482     -2.713336      6.074722
  H      -0.934165     -3.747690      6.450762
  H      -0.265117     -2.721921      5.098709
  H      -1.765246     -2.189379      5.997691
  C      -0.475850      0.350160      5.892684
  H       0.147986      1.113645      5.357346
  H      -1.055367     -0.179530      5.107604
  P      -2.999096      0.706409      6.839321
  O      -3.611079      1.595513      7.891281
  O      -3.186978     -0.830486      6.782931
  O      -1.295120      1.011334      6.846545
  O      -3.288934      1.301347      5.246584
  C      -4.517809      0.897123      4.621392
  H      -4.873545      1.751615      3.994926
  H      -5.319068      0.675078      5.369649
  C      -4.315185     -0.351357      3.723398
  H      -3.865035     -1.166720      4.325865
  O      -3.380816      0.042397      2.645447
  C      -2.157296     -0.551971      2.552687
  O      -1.795212     -1.533329      3.200121
  C      -1.287166      0.189142      1.528046
  H      -1.410343      1.280023      1.705277
  H      -1.721972      0.007840      0.516908
  C      -5.613535     -0.837064      3.063930
  H      -6.007916     -0.105040      2.323772
  H      -6.396273     -1.001525      3.843094
  O      -5.330449     -2.111202      2.404994
  C      -6.038737     -2.431631      1.264449
  O      -6.919345     -1.733872      0.785252
  C      -5.565025     -3.787469      0.709353
  H      -5.904629     -4.576797      1.423039
  H      -6.108887     -3.952107     -0.247391
  C       0.206281     -0.212919      1.557083
  H       0.298578     -1.310000      1.390250
  H       0.617829     -0.022631      2.578838
  C       1.044024      0.569685      0.512837
  H       0.927521      1.662950      0.701127
  H       0.625392      0.390738     -0.507237
  C       2.557006      0.222967      0.499208
  H       3.005039      0.450485      1.498847
  H       3.061398      0.914667     -0.216058
  C       2.880604     -1.247943      0.117392
  H       2.268538     -1.548223     -0.767647
  H       2.566797     -1.924765      0.946947
  C       4.379919     -1.505138     -0.198992
  H       4.567810     -2.606240     -0.212589
  H       5.013334     -1.095066      0.625396
  C       4.861920     -0.903063     -1.559595
  H       5.966952     -1.055840     -1.632582
  H       4.707713      0.199018     -1.569308
  C       4.201035     -1.557991     -2.762158
  H       4.448879     -2.631355     -2.901733
  C       3.341860     -0.990734     -3.645715
  H       2.964057     -1.630627     -4.468410
  C       2.862001      0.457345     -3.658070
  H       2.757067      0.845627     -2.618933
  H       1.840464      0.491993     -4.105078
  C       3.784158      1.429244     -4.461546
  H       4.768661      1.511272     -3.939064
  H       3.332029      2.451049     -4.433911
  C       4.024708      1.008699     -5.933602
  H       3.041095      0.882422     -6.452030
  H       4.509622      0.005705     -5.945398
  C       4.897245      2.021280     -6.718321
  H       5.883017      2.126337     -6.199286
  H       4.418296      3.029792     -6.660021
  C       5.160215      1.685037     -8.213729
  H       5.725089      2.541795     -8.651901
  H       4.191473      1.651249     -8.771481
  C       5.957300      0.369580     -8.483707
  H       6.671429      0.188631     -7.641369
  H       6.599530      0.512541     -9.386879
  C       5.092548     -0.899973     -8.714367
  H       4.414341     -0.719261     -9.584506
  H       4.419017     -1.073700     -7.842767
  C       5.938837     -2.171197     -8.968210
  H       6.589260     -2.405549     -8.092472
  H       6.608490     -2.044985     -9.851630
  H       5.296958     -3.062473     -9.157110
  C      -4.025699     -3.902470      0.509794
  H      -3.791167     -4.945023      0.184768
  H      -3.515980     -3.755851      1.489704
  C      -3.458385     -2.900307     -0.528017
  H      -3.742059     -1.859922     -0.236200
  H      -3.944822     -3.079608     -1.517721
  C      -1.914104     -2.970010     -0.668200
  H      -1.607317     -4.005518     -0.959272
  H      -1.462182     -2.791802      0.336457
  C      -1.327238     -1.949462     -1.682839
  H      -1.800378     -0.953092     -1.511919
  H      -0.239380     -1.807773     -1.478064
  C      -1.492264     -2.334403     -3.175966
  H      -0.819626     -3.194460     -3.410890
  H      -2.530769     -2.694594     -3.373979
  C      -1.177825     -1.146490     -4.142705
  H      -1.032672     -1.557213     -5.172492
  H      -0.207300     -0.681023     -3.855154
  C      -2.302040     -0.123475     -4.190597
  H      -3.259023     -0.524881     -4.585674
  C      -2.295457      1.178692     -3.812220
  H      -3.242799      1.743069     -3.943582
  C      -1.159413      2.005697     -3.231063
  H      -0.804558      2.728671     -4.010748
  H      -0.277288      1.371725     -2.982802
  C      -1.600484      2.823146     -1.978758
  H      -1.856140      2.113464     -1.157488
  H      -2.548834      3.363937     -2.220649
  C      -0.544276      3.852779     -1.496765
  H       0.375745      3.313314     -1.160995
  H      -0.227827      4.471964     -2.371731
  C      -1.035366      4.804503     -0.367755
  H      -0.256922      5.586984     -0.193606
  H      -1.942072      5.353106     -0.725213
  C      -1.355219      4.109285      0.981885
  H      -0.445253      3.559855      1.322556
  H      -2.146455      3.337234      0.830407
  C      -1.824010      5.081362      2.096992
  H      -1.040811      5.864178      2.258208
  H      -2.730520      5.627092      1.737035
  C      -2.150969      4.390314      3.452590
  H      -2.657022      5.128106      4.119731
  H      -2.894780      3.574265      3.285724
  C      -0.921028      3.811994      4.197747
  H      -0.169023      4.610133      4.408111
  H      -1.221754      3.350523      5.163188
  H      -0.406546      3.024386      3.598652
138
Coordinates from ORCA-job /wrk/rja7/qm_final_3_replicates/qm_final_1.1/qm/8/freq E -2722.592178032609
  N       0.067349     -1.958956      7.115566
  C       0.564733     -0.603179      6.523006
  H       1.304258     -0.882626      5.738998
  H       1.103877     -0.093856      7.352393
  C      -0.743979     -1.751326      8.406797
  H      -0.849933     -2.742514      8.896069
  H      -0.190135     -1.055382      9.068681
  H      -1.744282     -1.352691      8.127695
  C       1.303100     -2.788267      7.434725
  H       0.983679     -3.747947      7.890226
  H       1.863048     -2.986407      6.497794
  H       1.944719     -2.232102      8.149487
  C      -0.800434     -2.713836      6.095883
  H      -0.950092     -3.744670      6.479923
  H      -0.277218     -2.732652      5.119347
  H      -1.773838     -2.185857      6.016144
  C      -0.475240      0.346131      5.890776
  H       0.150625      1.103638      5.348461
  H      -1.057996     -0.187546      5.110153
  P      -2.995464      0.716258      6.841612
  O      -3.601834      1.613695      7.889834
  O      -3.186970     -0.820546      6.795885
  O      -1.291111      1.017926      6.840372
  O      -3.290080      1.301390      5.246249
  C      -4.520192      0.890966      4.627399
  H      -4.881134      1.741944      3.999151
  H      -5.317908      0.668760      5.379323
  C      -4.316198     -0.359951      3.732831
  H      -3.860669     -1.171671      4.336190
  O      -3.387882      0.033603      2.649819
  C      -2.162575     -0.556696      2.555108
  O      -1.798148     -1.540307      3.197788
  C      -1.295796      0.188461      1.530838
  H      -1.420265      1.278624      1.711209
  H      -1.732694      0.009153      0.520334
  C      -5.615614     -0.852260      3.080254
  H      -6.017363     -0.122957      2.341518
  H      -6.392342     -1.020845      3.864455
  O      -5.333176     -2.126763      2.421483
  C      -6.006574     -2.427374      1.254236
  O      -6.859815     -1.713370      0.749998
  C      -5.530014     -3.783824      0.703703
  H      -5.865671     -4.573031      1.419002
  H      -6.070677     -3.951855     -0.254192
  C       0.198284     -0.211259      1.556706
  H       0.291299     -1.307985      1.388481
  H       0.611621     -0.021590      2.577763
  C       1.032933      0.573177      0.511559
  H       0.915949      1.666187      0.701131
  H       0.611867      0.394953     -0.507272
  C       2.546173      0.227415      0.493721
  H       2.997048      0.456683      1.491701
  H       3.048257      0.918142     -0.223970
  C       2.868656     -1.243916      0.112656
  H       2.251510     -1.545771     -0.768249
  H       2.560215     -1.919790      0.945065
  C       4.365911     -1.501727     -0.212728
  H       4.553565     -2.602894     -0.223767
  H       5.005102     -1.088672      0.605703
  C       4.838759     -0.904347     -1.578642
  H       5.942839     -1.060008     -1.659800
  H       4.687078      0.197972     -1.589827
  C       4.166116     -1.559330     -2.774854
  H       4.404239     -2.635256     -2.911176
  C       3.307206     -0.987709     -3.656221
  H       2.919074     -1.627129     -4.474410
  C       2.843526      0.466017     -3.672285
  H       2.734674      0.854569     -2.633651
  H       1.825905      0.512918     -4.126845
  C       3.783973      1.427426     -4.467150
  H       4.765917      1.494438     -3.937804
  H       3.345767      2.455348     -4.439859
  C       4.028556      1.007234     -5.938794
  H       3.046907      0.899437     -6.465133
  H       4.496119     -0.004048     -5.949971
  C       4.924916      2.007153     -6.713105
  H       5.908279      2.092904     -6.186156
  H       4.463209      3.023604     -6.653642
  C       5.193921      1.675700     -8.208543
  H       5.774943      2.526847     -8.637045
  H       4.229287      1.660041     -8.774378
  C       5.973377      0.351066     -8.482934
  H       6.689974      0.161346     -7.644648
  H       6.611754      0.487642     -9.389873
  C       5.092633     -0.907878     -8.710952
  H       4.412025     -0.717381     -9.577202
  H       4.421841     -1.076505     -7.836366
  C       5.922879     -2.188277     -8.972892
  H       6.575395     -2.431844     -8.101058
  H       6.589170     -2.068042     -9.859726
  H       5.269859     -3.071756     -9.160288
  C      -3.989471     -3.891173      0.504876
  H      -3.749313     -4.933900      0.184510
  H      -3.480753     -3.737621      1.484360
  C      -3.427856     -2.891066     -0.538230
  H      -3.712663     -1.850116     -0.249341
  H      -3.917883     -3.074574     -1.525346
  C      -1.884054     -2.959197     -0.685584
  H      -1.577783     -3.994824     -0.976877
  H      -1.427189     -2.779498      0.316702
  C      -1.303282     -1.939350     -1.704590
  H      -1.774962     -0.942760     -1.530853
  H      -0.214273     -1.797594     -1.507558
  C      -1.477881     -2.324084     -3.196663
  H      -0.804524     -3.182107     -3.437111
  H      -2.516917     -2.686886     -3.387429
  C      -1.174964     -1.133981     -4.164300
  H      -1.033902     -1.542328     -5.195562
  H      -0.205230     -0.664030     -3.881818
  C      -2.304375     -0.116309     -4.203472
  H      -3.260526     -0.520240     -4.598423
  C      -2.304079      1.182892     -3.815090
  H      -3.254783      1.743110     -3.939982
  C      -1.170774      2.010921     -3.229801
  H      -0.816163      2.736710     -4.007108
  H      -0.287625      1.377800     -2.983197
  C      -1.613732      2.822983     -1.974676
  H      -1.869857      2.110059     -1.156363
  H      -2.562152      3.364343     -2.215212
  C      -0.558102      3.851140     -1.488234
  H       0.362524      3.310896     -1.154990
  H      -0.242434      4.473790     -2.361000
  C      -1.048896      4.799545     -0.356148
  H      -0.270995      5.582562     -0.181933
  H      -1.956760      5.347888     -0.711154
  C      -1.365581      4.102521      0.993356
  H      -0.454718      3.552948      1.331635
  H      -2.156985      3.330381      0.843283
  C      -1.832251      5.074214      2.109947
  H      -1.049790      5.858297      2.268372
  H      -2.740742      5.618411      1.752687
  C      -2.153395      4.384131      3.467501
  H      -2.661778      5.121197      4.134196
  H      -2.893878      3.564236      3.303829
  C      -0.919246      3.814419      4.212463
  H      -0.171070      4.617211      4.418888
  H      -1.216417      3.354941      5.180106
  H      -0.401481      3.027480      3.615644
138
Coordinates from ORCA-job /wrk/rja7/qm_final_3_replicates/qm_final_1.1/qm/8/freq E -2722.592207745046
  N       0.078429     -1.953897      7.116614
  C       0.574413     -0.597826      6.523530
  H       1.313147     -0.876493      5.738547
  H       1.114366     -0.088291      7.352195
  C      -0.730067     -1.746202      8.409618
  H      -0.835746     -2.737488      8.898759
  H      -0.174238     -1.051006      9.070621
  H      -1.730581     -1.346644      8.132463
  C       1.314887     -2.783309      7.432860
  H       0.996419     -3.742903      7.889178
  H       1.872568     -2.981502      6.494582
  H       1.958272     -2.227049      8.145936
  C      -0.791731     -2.708486      6.098791
  H      -0.940183     -3.739627      6.482522
  H      -0.271101     -2.726592      5.120910
  H      -1.765668     -2.181023      6.022317
  C      -0.467131      0.350800      5.893177
  H       0.157147      1.108490      5.349600
  H      -1.050851     -0.183075      5.113758
  P      -2.985955      0.719994      6.848965
  O      -3.590155      1.621014      7.895368
  O      -3.177432     -0.816980      6.808428
  O      -1.281735      1.021931      6.844188
  O      -3.284069      1.299920      5.252280
  C      -4.517825      0.889820      4.640002
  H      -4.880214      1.739487      4.010828
  H      -5.312511      0.670941      5.396006
  C      -4.320297     -0.364031      3.748018
  H      -3.862132     -1.174279      4.351308
  O      -3.398166      0.024989      2.658300
  C      -2.170432     -0.560387      2.564110
  O      -1.802021     -1.541845      3.207930
  C      -1.308464      0.184072      1.535245
  H      -1.433718      1.274231      1.714775
  H      -1.749294      0.002786      0.526644
  C      -5.624768     -0.857233      3.105914
  H      -6.032536     -0.129525      2.369098
  H      -6.393918     -1.025533      3.897503
  O      -5.350953     -2.134409      2.448444
  C      -5.992693     -2.415552      1.258277
  O      -6.813417     -1.681988      0.728969
  C      -5.520837     -3.776437      0.715424
  H      -5.852868     -4.561705      1.436297
  H      -6.061638     -3.949318     -0.241440
  C       0.186025     -0.213858      1.556329
  H       0.279014     -1.311093      1.391563
  H       0.603255     -0.020186      2.574983
  C       1.015557      0.567755      0.505179
  H       0.900216      1.661398      0.692364
  H       0.589306      0.387130     -0.511137
  C       2.528420      0.220437      0.480149
  H       2.985347      0.452235      1.474734
  H       3.027101      0.908310     -0.242628
  C       2.846444     -1.252452      0.101629
  H       2.223752     -1.555513     -0.774868
  H       2.541638     -1.925658      0.937525
  C       4.341090     -1.514229     -0.232018
  H       4.525703     -2.615932     -0.243762
  H       4.986147     -1.102606      0.582495
  C       4.807453     -0.918167     -1.600630
  H       5.910266     -1.078495     -1.689321
  H       4.660559      0.184820     -1.609970
  C       4.123566     -1.568955     -2.792903
  H       4.352381     -2.646824     -2.929835
  C       3.265690     -0.990397     -3.670847
  H       2.868934     -1.626435     -4.487520
  C       2.815547      0.467786     -3.684720
  H       2.699161      0.851450     -2.644990
  H       1.803297      0.527151     -4.149346
  C       3.774327      1.424137     -4.463388
  H       4.751620      1.475644     -3.924009
  H       3.347892      2.456896     -4.432815
  C       4.028803      1.011500     -5.935478
  H       3.051421      0.918446     -6.472440
  H       4.485069     -0.004888     -5.949332
  C       4.943368      2.007448     -6.693439
  H       5.921360      2.081066     -6.154851
  H       4.490251      3.027746     -6.632026
  C       5.225985      1.684838     -8.188296
  H       5.812942      2.537582     -8.605306
  H       4.266929      1.675083     -8.763626
  C       6.006069      0.361115     -8.463838
  H       6.718283      0.168765     -7.622455
  H       6.648695      0.501115     -9.367235
  C       5.127093     -0.897334     -8.701322
  H       4.456112     -0.706994     -9.575111
  H       4.447196     -1.066721     -7.834110
  C       5.960366     -2.177631     -8.955275
  H       6.602823     -2.421379     -8.076128
  H       6.636530     -2.056611     -9.834448
  H       5.309719     -3.061070     -9.150796
  C      -3.980006     -3.881997      0.513764
  H      -3.738550     -4.926073      0.198836
  H      -3.469844     -3.722071      1.491513
  C      -3.422740     -2.887074     -0.536576
  H      -3.705787     -1.844435     -0.251866
  H      -3.917692     -3.074918     -1.520378
  C      -1.879717     -2.957146     -0.691040
  H      -1.575985     -3.993800     -0.981380
  H      -1.417668     -2.775561      0.308470
  C      -1.302606     -1.940206     -1.714754
  H      -1.769806     -0.941995     -1.538157
  H      -0.211679     -1.802081     -1.525567
  C      -1.488438     -2.325043     -3.205614
  H      -0.818541     -3.184383     -3.450622
  H      -2.529468     -2.685739     -3.389380
  C      -1.190682     -1.135455     -4.175417
  H      -1.055895     -1.543569     -5.207613
  H      -0.219242     -0.665775     -3.898794
  C      -2.320174     -0.117685     -4.207572
  H      -3.278557     -0.521341     -4.597257
  C      -2.318015      1.180887     -3.817354
  H      -3.269707      1.740794     -3.935610
  C      -1.181296      2.008275     -3.237550
  H      -0.831009      2.734873     -4.016036
  H      -0.296583      1.375076     -2.996629
  C      -1.618020      2.818240     -1.979115
  H      -1.868879      2.104018     -1.160160
  H      -2.568436      3.358587     -2.213932
  C      -0.561765      3.847730     -1.497030
  H       0.360731      3.308968     -1.166369
  H      -0.249924      4.470378     -2.371165
  C      -1.050741      4.795842     -0.364008
  H      -0.273438      5.579850     -0.191679
  H      -1.960147      5.342987     -0.716893
  C      -1.363897      4.098179      0.985860
  H      -0.451328      3.550505      1.322725
  H      -2.153916      3.324303      0.837100
  C      -1.830611      5.068964      2.103191
  H      -1.049198      5.854375      2.260361
  H      -2.740779      5.611605      1.747915
  C      -2.147481      4.378043      3.461159
  H      -2.653240      5.114689      4.130200
  H      -2.888872      3.558625      3.299679
  C      -0.910682      3.807169      4.200640
  H      -0.161718      4.609657      4.405286
  H      -1.203987      3.346271      5.168743
  H      -0.395384      3.020973      3.600593
138
Coordinates from ORCA-job /wrk/rja7/qm_final_3_replicates/qm_final_1.1/qm/8/freq E -2722.592257684165
  N       0.099239     -1.947391      7.108552
  C       0.592516     -0.594178      6.506745
  H       1.326218     -0.876444      5.718398
  H       1.138030     -0.081720      7.329778
  C      -0.698489     -1.733004      8.407135
  H      -0.803046     -2.722222      8.900728
  H      -0.135594     -1.037111      9.061358
  H      -1.700114     -1.331850      8.136290
  C       1.337078     -2.777324      7.417765
  H       1.020974     -3.734632      7.880413
  H       1.886471     -2.979789      6.475481
  H       1.987228     -2.219090      8.123127
  C      -0.780489     -2.704517      6.100824
  H      -0.923731     -3.735341      6.487256
  H      -0.270684     -2.723169      5.117327
  H      -1.755962     -2.178462      6.034994
  C      -0.452403      0.352272      5.879420
  H       0.168303      1.106660      5.328013
  H      -1.041881     -0.184365      5.106725
  P      -2.964857      0.730257      6.849617
  O      -3.560124      1.641074      7.892581
  O      -3.160135     -0.806502      6.821934
  O      -1.260037      1.028348      6.832791
  O      -3.271285      1.298618      5.250112
  C      -4.511316      0.888950      4.649847
  H      -4.875883      1.735783      4.018194
  H      -5.300685      0.676827      5.413195
  C      -4.324435     -0.370855      3.763996
  H      -3.860356     -1.177137      4.368155
  O      -3.414114      0.010324      2.661955
  C      -2.181783     -0.565601      2.568190
  O      -1.804637     -1.540673      3.216797
  C      -1.327288      0.179247      1.532980
  H      -1.456893      1.269458      1.709177
  H      -1.770793     -0.007895      0.526382
  C      -5.637540     -0.868083      3.142228
  H      -6.056549     -0.145114      2.407322
  H      -6.392739     -1.033686      3.947523
  O      -5.378610     -2.151479      2.490765
  C      -5.970966     -2.408203      1.269242
  O      -6.740495     -1.647841      0.702563
  C      -5.507596     -3.777575      0.741882
  H      -5.831043     -4.554835      1.474464
  H      -6.050905     -3.960960     -0.211464
  C       0.168545     -0.213338      1.550615
  H       0.263214     -1.311192      1.391257
  H       0.588884     -0.013472      2.566863
  C       0.992832      0.564590      0.492842
  H       0.881843      1.658917      0.678259
  H       0.559572      0.382931     -0.520337
  C       2.504196      0.211041      0.457735
  H       2.970734      0.445064      1.447333
  H       2.999746      0.893371     -0.272510
  C       2.810652     -1.265154      0.082635
  H       2.178742     -1.567520     -0.787487
  H       2.508167     -1.933223      0.923471
  C       4.300388     -1.539619     -0.262169
  H       4.475334     -2.642947     -0.272862
  H       4.955603     -1.131931      0.546185
  C       4.761221     -0.950025     -1.635361
  H       5.861322     -1.122826     -1.733695
  H       4.626842      0.154513     -1.643616
  C       4.058379     -1.592409     -2.821395
  H       4.266936     -2.674518     -2.957243
  C       3.205558     -0.999646     -3.694825
  H       2.791686     -1.628653     -4.508416
  C       2.785053      0.467747     -3.705556
  H       2.658578      0.844078     -2.664153
  H       1.782285      0.552998     -4.186144
  C       3.778654      1.410314     -4.456562
  H       4.747759      1.429801     -3.900876
  H       3.377659      2.452925     -4.418743
  C       4.046570      1.011106     -5.929749
  H       3.075810      0.948828     -6.482971
  H       4.479208     -0.015343     -5.951116
  C       4.993985      1.997158     -6.659626
  H       5.964361      2.043833     -6.104530
  H       4.560372      3.025548     -6.591148
  C       5.292204      1.690754     -8.154838
  H       5.886643      2.546317     -8.554843
  H       4.339309      1.691970     -8.740334
  C       6.071297      0.368372     -8.438390
  H       6.778657      0.166990     -7.594953
  H       6.719005      0.515994     -9.336898
  C       5.192293     -0.886620     -8.693112
  H       4.530452     -0.688682     -9.572244
  H       4.503891     -1.062332     -7.834088
  C       6.026105     -2.165899     -8.951677
  H       6.659251     -2.419544     -8.068681
  H       6.710928     -2.036539     -9.822837
  H       5.376089     -3.046106     -9.163054
  C      -3.966751     -3.879433      0.531677
  H      -3.723059     -4.925763      0.226240
  H      -3.452245     -3.707256      1.505122
  C      -3.419395     -2.892772     -0.531413
  H      -3.703119     -1.848084     -0.254920
  H      -3.920821     -3.089782     -1.510024
  C      -1.877307     -2.961240     -0.695599
  H      -1.574138     -3.997698     -0.987257
  H      -1.409083     -2.778480      0.300659
  C      -1.307738     -1.942868     -1.721611
  H      -1.770850     -0.944396     -1.535917
  H      -0.214288     -1.808777     -1.543511
  C      -1.509227     -2.321495     -3.212204
  H      -0.842265     -3.180134     -3.467209
  H      -2.552151     -2.680346     -3.388063
  C      -1.219736     -1.128048     -4.180087
  H      -1.089992     -1.532316     -5.214402
  H      -0.247780     -0.656773     -3.907632
  C      -2.352704     -0.113661     -4.202009
  H      -3.312251     -0.519366     -4.586374
  C      -2.352438      1.183889     -3.808299
  H      -3.307307      1.740157     -3.917081
  C      -1.213603      2.014453     -3.236978
  H      -0.873302      2.744269     -4.016788
  H      -0.324142      1.384200     -3.005650
  C      -1.642859      2.819814     -1.973165
  H      -1.882172      2.102668     -1.153189
  H      -2.598473      3.355037     -2.198295
  C      -0.588520      3.854864     -1.498785
  H       0.337687      3.320921     -1.171150
  H      -0.283441      4.476901     -2.375793
  C      -1.075235      4.802971     -0.364943
  H      -0.299195      5.589058     -0.196751
  H      -1.987641      5.347388     -0.714311
  C      -1.381001      4.105375      0.986485
  H      -0.466216      3.558991      1.319212
  H      -2.170677      3.330425      0.841729
  C      -1.842850      5.076021      2.105809
  H      -1.061816      5.862915      2.257509
  H      -2.756327      5.616691      1.756049
  C      -2.149358      4.385075      3.465933
  H      -2.647893      5.122003      4.139746
  H      -2.893609      3.567201      3.310497
  C      -0.906996      3.810933      4.193390
  H      -0.154435      4.611736      4.391408
  H      -1.191834      3.349994      5.163668
  H      -0.399234      3.024130      3.587466
138
Coordinates from ORCA-job /wrk/rja7/qm_final_3_replicates/qm_final_1.1/qm/8/freq E -2722.592313707445
  N       0.130284     -1.947469      7.094802
  C       0.614216     -0.591470      6.491528
  H       1.343128     -0.869938      5.697531
  H       1.163762     -0.078038      7.311252
  C      -0.656402     -1.738079      8.400849
  H      -0.755162     -2.728810      8.892605
  H      -0.088844     -1.043261      9.052181
  H      -1.661073     -1.337701      8.140281
  C       1.373535     -2.774110      7.391179
  H       1.064830     -3.733293      7.854900
  H       1.914793     -2.972961      6.443396
  H       2.028392     -2.214838      8.091319
  C      -0.756455     -2.704731      6.093198
  H      -0.890889     -3.737945      6.476490
  H      -0.258026     -2.716509      5.103906
  H      -1.734806     -2.182264      6.040800
  C      -0.439135      0.350842      5.872656
  H       0.173968      1.107457      5.315858
  H      -1.032662     -0.188313      5.104975
  P      -2.945850      0.722009      6.861660
  O      -3.535277      1.634503      7.906458
  O      -3.138601     -0.815224      6.838663
  O      -1.241589      1.023397      6.832836
  O      -3.264715      1.286484      5.262862
  C      -4.510076      0.876771      4.673523
  H      -4.879253      1.722903      4.043680
  H      -5.292802      0.666271      5.444041
  C      -4.332181     -0.384603      3.787743
  H      -3.862136     -1.189710      4.389011
  O      -3.433123     -0.005564      2.676057
  C      -2.198076     -0.574925      2.576647
  O      -1.812348     -1.546523      3.225475
  C      -1.351040      0.175755      1.539319
  H      -1.486715      1.264955      1.716352
  H      -1.795923     -0.014029      0.533818
  C      -5.652138     -0.883517      3.181517
  H      -6.080186     -0.162083      2.450473
  H      -6.395435     -1.049826      3.997430
  O      -5.405237     -2.169173      2.530021
  C      -5.947340     -2.398360      1.279539
  O      -6.665251     -1.610950      0.682909
  C      -5.491046     -3.772185      0.759351
  H      -5.804543     -4.545994      1.499098
  H      -6.037961     -3.961244     -0.190748
  C       0.146761     -0.209183      1.551934
  H       0.245305     -1.306778      1.393083
  H       0.569725     -0.006846      2.566644
  C       0.963575      0.572008      0.490772
  H       0.852308      1.665931      0.678561
  H       0.524236      0.391545     -0.519952
  C       2.474986      0.220096      0.445500
  H       2.949126      0.457398      1.430712
  H       2.963719      0.901073     -0.290649
  C       2.779240     -1.256931      0.072344
  H       2.139235     -1.562529     -0.790663
  H       2.484948     -1.922393      0.918097
  C       4.265531     -1.532482     -0.285027
  H       4.439726     -2.636010     -0.293952
  H       4.928263     -1.122904      0.516192
  C       4.714698     -0.947013     -1.663777
  H       5.813151     -1.124226     -1.772408
  H       4.584592      0.158010     -1.672262
  C       3.997563     -1.589061     -2.841333
  H       4.191594     -2.674753     -2.970054
  C       3.148037     -0.991863     -3.714899
  H       2.722481     -1.621257     -4.522127
  C       2.749011      0.481841     -3.734511
  H       2.610130      0.860681     -2.695232
  H       1.755778      0.582052     -4.231366
  C       3.770797      1.408719     -4.467159
  H       4.729750      1.409836     -3.894066
  H       3.387909      2.458203     -4.434447
  C       4.058514      1.006742     -5.935653
  H       3.097623      0.966433     -6.508011
  H       4.470282     -0.028200     -5.951203
  C       5.038695      1.975506     -6.645104
  H       5.999025      2.002121     -6.071562
  H       4.623565      3.011830     -6.582162
  C       5.357750      1.666726     -8.135549
  H       5.960739      2.519847     -8.527667
  H       4.412942      1.671143     -8.734009
  C       6.136823      0.341926     -8.407244
  H       6.836275      0.142576     -7.556638
  H       6.793285      0.485405     -9.300057
  C       5.258763     -0.912923     -8.665685
  H       4.605569     -0.717208     -9.551916
  H       4.562087     -1.085111     -7.812765
  C       6.093335     -2.193798     -8.913907
  H       6.717348     -2.447853     -8.024624
  H       6.786691     -2.065608     -9.778456
  H       5.444009     -3.073080     -9.131114
  C      -3.950418     -3.867369      0.537927
  H      -3.703393     -4.915001      0.240058
  H      -3.430088     -3.683320      1.506267
  C      -3.416455     -2.886641     -0.537561
  H      -3.702493     -1.840962     -0.267493
  H      -3.925576     -3.092363     -1.510339
  C      -1.875578     -2.950751     -0.714475
  H      -1.572047     -3.986187     -1.009366
  H      -1.399398     -2.767192      0.277857
  C      -1.316716     -1.928941     -1.742729
  H      -1.778722     -0.931600     -1.548171
  H      -0.221367     -1.795408     -1.575769
  C      -1.532465     -2.302367     -3.232682
  H      -0.865829     -3.158428     -3.497101
  H      -2.576338     -2.661790     -3.400854
  C      -1.252424     -1.105016     -4.199067
  H      -1.128390     -1.505939     -5.235385
  H      -0.279919     -0.632343     -3.931284
  C      -2.387655     -0.092998     -4.210079
  H      -3.348816     -0.498962     -4.590063
  C      -2.386966      1.202807     -3.810562
  H      -3.343555      1.757868     -3.909737
  C      -1.244855      2.032017     -3.243934
  H      -0.914803      2.769347     -4.021001
  H      -0.351436      1.402428     -3.026283
  C      -1.664570      2.826928     -1.970308
  H      -1.895409      2.103516     -1.153588
  H      -2.623409      3.361348     -2.183384
  C      -0.608779      3.861188     -1.497216
  H       0.318637      3.326908     -1.173382
  H      -0.306725      4.485230     -2.373843
  C      -1.092407      4.806608     -0.359733
  H      -0.316073      5.592421     -0.191608
  H      -2.005806      5.351852     -0.705268
  C      -1.395017      4.105655      0.990693
  H      -0.479536      3.558614      1.320257
  H      -2.184678      3.330693      0.845607
  C      -1.855021      5.073668      2.113150
  H      -1.074197      5.860882      2.264390
  H      -2.769740      5.614260      1.766522
  C      -2.158504      4.379998      3.472600
  H      -2.654734      5.115661      4.149436
  H      -2.903815      3.563038      3.317239
  C      -0.914842      3.802660      4.195453
  H      -0.160784      4.601956      4.394028
  H      -1.197616      3.339243      5.165152
  H      -0.409752      3.017227      3.585657
138
Coordinates from ORCA-job /wrk/rja7/qm_final_3_replicates/qm_final_1.1/qm/8/freq E -2722.592397260709
  N       0.145390     -1.951008      7.088710
  C       0.623595     -0.594660      6.481159
  H       1.346661     -0.873089      5.681972
  H       1.178899     -0.080222      7.296433
  C      -0.628183     -1.742304      8.402440
  H      -0.724201     -2.733623      8.893506
  H      -0.052976     -1.049833      9.049601
  H      -1.634705     -1.339735      8.153051
  C       1.391696     -2.777589      7.372577
  H       1.087905     -3.736371      7.840289
  H       1.922537     -2.977138      6.419051
  H       2.054086     -2.217631      8.065040
  C      -0.751849     -2.707728      6.095656
  H      -0.877416     -3.743118      6.476150
  H      -0.268052     -2.713082      5.099163
  H      -1.732303     -2.187204      6.059583
  C      -0.435358      0.345415      5.868605
  H       0.172349      1.102092      5.305687
  H      -1.033984     -0.195994      5.106076
  P      -2.935602      0.718118      6.874707
  O      -3.518168      1.638349      7.916555
  O      -3.129604     -0.819134      6.862906
  O      -1.231240      1.018360      6.834003
  O      -3.263266      1.273176      5.273885
  C      -4.515297      0.866870      4.696812
  H      -4.886530      1.712555      4.067622
  H      -5.291610      0.661920      5.475195
  C      -4.350601     -0.397990      3.813078
  H      -3.877494     -1.202981      4.412482
  O      -3.461947     -0.025656      2.690873
  C      -2.223775     -0.588191      2.587719
  O      -1.829509     -1.554829      3.238834
  C      -1.383519      0.167176      1.547897
  H      -1.524129      1.255643      1.725691
  H      -1.829745     -0.024777      0.543499
  C      -5.679206     -0.894220      3.222817
  H      -6.111125     -0.174241      2.492797
  H      -6.411886     -1.055646      4.048877
  O      -5.452095     -2.185603      2.575711
  C      -5.901201     -2.375420      1.281927
  O      -6.529161     -1.548795      0.638469
  C      -5.458235     -3.759211      0.779539
  H      -5.765810     -4.524850      1.529027
  H      -6.004770     -3.956565     -0.169023
  C       0.116061     -0.211831      1.554859
  H       0.217524     -1.308767      1.393587
  H       0.541292     -0.010370      2.568881
  C       0.926652      0.575241      0.492995
  H       0.816298      1.667849      0.687855
  H       0.481368      0.401046     -0.515950
  C       2.438026      0.224744      0.435997
  H       2.920005      0.462504      1.417393
  H       2.919325      0.906871     -0.303997
  C       2.740823     -1.251835      0.059753
  H       2.091414     -1.558910     -0.795690
  H       2.457145     -1.917198      0.909120
  C       4.223239     -1.526495     -0.313071
  H       4.396546     -2.630188     -0.325935
  H       4.893820     -1.119154      0.482740
  C       4.660773     -0.938716     -1.694649
  H       5.756972     -1.122965     -1.815007
  H       4.538223      0.167072     -1.697393
  C       3.928006     -1.573042     -2.866553
  H       4.100028     -2.663266     -2.988279
  C       3.087590     -0.965618     -3.741815
  H       2.647114     -1.592848     -4.542697
  C       2.720000      0.516541     -3.772047
  H       2.572572      0.901166     -2.735651
  H       1.736865      0.636774     -4.283869
  C       3.773183      1.419970     -4.489764
  H       4.723364      1.397158     -3.902948
  H       3.415699      2.478408     -4.460987
  C       4.072505      1.012574     -5.954068
  H       3.120401      1.002367     -6.542518
  H       4.454733     -0.033522     -5.965594
  C       5.089363      1.955980     -6.645951
  H       6.042168      1.953599     -6.059313
  H       4.701951      3.002931     -6.584273
  C       5.418526      1.643183     -8.133518
  H       6.030282      2.491625     -8.522062
  H       4.477927      1.653317     -8.738534
  C       6.191916      0.313528     -8.397916
  H       6.889235      0.115743     -7.545010
  H       6.851395      0.450625     -9.289590
  C       5.310448     -0.939654     -8.652449
  H       4.655848     -0.743921     -9.537793
  H       4.614885     -1.108131     -7.797867
  C       6.141241     -2.222837     -8.900657
  H       6.765724     -2.479757     -8.012563
  H       6.833683     -2.095427     -9.766085
  H       5.488845     -3.099941     -9.117515
  C      -3.916757     -3.851366      0.552301
  H      -3.666833     -4.902715      0.270935
  H      -3.394037     -3.648581      1.515915
  C      -3.391451     -2.885052     -0.540645
  H      -3.679917     -1.836493     -0.285829
  H      -3.905121     -3.105213     -1.507726
  C      -1.851440     -2.947696     -0.725000
  H      -1.548003     -3.983186     -1.019853
  H      -1.370122     -2.761396      0.264361
  C      -1.298729     -1.925224     -1.755761
  H      -1.755707     -0.927216     -1.552956
  H      -0.201145     -1.797067     -1.599849
  C      -1.530181     -2.293159     -3.244568
  H      -0.864181     -3.146729     -3.519108
  H      -2.575038     -2.653023     -3.404167
  C      -1.259785     -1.091673     -4.209612
  H      -1.139286     -1.490599     -5.247081
  H      -0.287811     -0.615901     -3.945175
  C      -2.399252     -0.084030     -4.213084
  H      -3.359974     -0.492354     -4.591702
  C      -2.402200      1.210525     -3.808895
  H      -3.361163      1.762392     -3.902959
  C      -1.261466      2.041809     -3.242963
  H      -0.940400      2.786695     -4.016565
  H      -0.364047      1.415108     -3.034319
  C      -1.678599      2.828384     -1.962953
  H      -1.903827      2.099993     -1.149429
  H      -2.640263      3.360510     -2.169252
  C      -0.623871      3.863454     -1.488247
  H       0.303025      3.329482     -1.163140
  H      -0.320835      4.487883     -2.364227
  C      -1.108114      4.808224     -0.350226
  H      -0.331769      5.593801     -0.181020
  H      -2.021255      5.353950     -0.695762
  C      -1.411092      4.106689      0.999991
  H      -0.496772      3.557040      1.328278
  H      -2.202583      3.333810      0.854249
  C      -1.867302      5.074622      2.124084
  H      -1.085949      5.861899      2.272181
  H      -2.783234      5.615064      1.780370
  C      -2.166229      4.381236      3.484900
  H      -2.658883      5.117290      4.163983
  H      -2.913097      3.565053      3.332146
  C      -0.920357      3.801319      4.202304
  H      -0.162741      4.598526      4.396078
  H      -1.198985      3.339648      5.173995
  H      -0.421158      3.014391      3.589859
138
Coordinates from ORCA-job /wrk/rja7/qm_final_3_replicates/qm_final_1.1/qm/8/freq E -2722.592375475138
  N       0.132185     -1.971179      7.079130
  C       0.605292     -0.614702      6.466670
  H       1.318455     -0.894564      5.659145
  H       1.170402     -0.101528      7.276105
  C      -0.624066     -1.764229      8.402399
  H      -0.716767     -2.756675      8.891782
  H      -0.039087     -1.075180      9.044556
  H      -1.633043     -1.358935      8.169346
  C       1.381195     -2.799394      7.346998
  H       1.082578     -3.757323      7.819673
  H       1.898151     -3.000501      6.386182
  H       2.053742     -2.239520      8.029679
  C      -0.779347     -2.726052      6.096412
  H      -0.892357     -3.764812      6.471483
  H      -0.316305     -2.720458      5.090268
  H      -1.761288     -2.206124      6.081889
  C      -0.459667      0.325737      5.864427
  H       0.141925      1.084101      5.296262
  H      -1.064848     -0.216496      5.106771
  P      -2.951896      0.699886      6.887190
  O      -3.530171      1.624407      7.927607
  O      -3.148977     -0.837003      6.880670
  O      -1.246660      0.996236      6.838949
  O      -3.282012      1.253233      5.285359
  C      -4.536016      0.853756      4.710334
  H      -4.904802      1.702875      4.084257
  H      -5.310851      0.651122      5.490980
  C      -4.379807     -0.409878      3.822650
  H      -3.913618     -1.221193      4.419690
  O      -3.487221     -0.039734      2.702114
  C      -2.252699     -0.609634      2.591526
  O      -1.862067     -1.581694      3.236488
  C      -1.406517      0.155965      1.563605
  H      -1.552540      1.242903      1.747038
  H      -1.841746     -0.031614      0.553955
  C      -5.711390     -0.893480      3.226965
  H      -6.125493     -0.169682      2.490061
  H      -6.451278     -1.042979      4.048100
  O      -5.502799     -2.190267      2.585235
  C      -5.858113     -2.342100      1.257926
  O      -6.403253     -1.480539      0.584330
  C      -5.430643     -3.731717      0.760889
  H      -5.743462     -4.495820      1.508505
  H      -5.973435     -3.925058     -0.190971
  C       0.095215     -0.218293      1.577376
  H       0.202481     -1.312358      1.401217
  H       0.511049     -0.030683      2.598069
  C       0.910466      0.589547      0.533715
  H       0.789683      1.677593      0.745386
  H       0.475090      0.429454     -0.481186
  C       2.426126      0.258145      0.484759
  H       2.898190      0.498495      1.470546
  H       2.901066      0.951671     -0.248793
  C       2.755909     -1.211689      0.104692
  H       2.111611     -1.530211     -0.750408
  H       2.486372     -1.883060      0.954004
  C       4.243537     -1.455352     -0.267731
  H       4.437938     -2.555429     -0.288395
  H       4.903624     -1.041418      0.533452
  C       4.675158     -0.850504     -1.644128
  H       5.774490     -1.019380     -1.761575
  H       4.537846      0.253444     -1.639000
  C       3.958483     -1.492297     -2.820730
  H       4.130411     -2.584406     -2.925660
  C       3.128722     -0.899158     -3.715416
  H       2.698180     -1.542461     -4.508975
  C       2.757886      0.581057     -3.781205
  H       2.622099      0.998218     -2.755364
  H       1.767806      0.682110     -4.283966
  C       3.794540      1.467637     -4.544018
  H       4.754403      1.471071     -3.972490
  H       3.430669      2.524187     -4.543425
  C       4.073141      1.015460     -5.998739
  H       3.113319      0.990499     -6.574400
  H       4.454562     -0.030714     -5.982905
  C       5.079824      1.936083     -6.735547
  H       6.045627      1.942489     -6.170217
  H       4.699183      2.986043     -6.693855
  C       5.371892      1.574362     -8.220253
  H       5.965476      2.411771     -8.657742
  H       4.413070      1.555180     -8.795685
  C       6.146851      0.239643     -8.457507
  H       6.860732      0.071688     -7.611658
  H       6.792198      0.351552     -9.363142
  C       5.267549     -1.025203     -8.655069
  H       4.577855     -0.851918     -9.518210
  H       4.604684     -1.176863     -7.771156
  C       6.097061     -2.308036     -8.903768
  H       6.756029     -2.545657     -8.035436
  H       6.756221     -2.193288     -9.796719
  H       5.441717     -3.192510     -9.077945
  C      -3.887475     -3.829392      0.536116
  H      -3.640085     -4.885844      0.273168
  H      -3.366359     -3.610481      1.497623
  C      -3.357787     -2.880572     -0.570296
  H      -3.652544     -1.829899     -0.336409
  H      -3.863952     -3.116912     -1.537452
  C      -1.816722     -2.940912     -0.743781
  H      -1.508611     -3.975340     -1.037374
  H      -1.341753     -2.752746      0.248530
  C      -1.260072     -1.914310     -1.768543
  H      -1.720453     -0.918220     -1.563955
  H      -0.163504     -1.787099     -1.607243
  C      -1.484543     -2.277232     -3.258862
  H      -0.810000     -3.124107     -3.534908
  H      -2.526099     -2.642991     -3.424210
  C      -1.213835     -1.069665     -4.217709
  H      -1.084700     -1.467409     -5.254587
  H      -0.245498     -0.591393     -3.944335
  C      -2.356435     -0.065363     -4.227200
  H      -3.312526     -0.474826     -4.616362
  C      -2.364703      1.229032     -3.821319
  H      -3.322563      1.781157     -3.925837
  C      -1.232873      2.059263     -3.237964
  H      -0.916301      2.819957     -3.997969
  H      -0.333255      1.435113     -3.033449
  C      -1.661143      2.830299     -1.950859
  H      -1.892099      2.092866     -1.147800
  H      -2.621881      3.363847     -2.158215
  C      -0.608459      3.859304     -1.456875
  H       0.311227      3.318867     -1.122975
  H      -0.291203      4.487165     -2.325207
  C      -1.100749      4.800221     -0.318486
  H      -0.322867      5.581732     -0.137231
  H      -2.007956      5.351634     -0.670589
  C      -1.418654      4.095013      1.027021
  H      -0.510839      3.537744      1.360226
  H      -2.213782      3.328040      0.870458
  C      -1.877849      5.061239      2.151599
  H      -1.095355      5.846357      2.304661
  H      -2.790361      5.604554      1.803149
  C      -2.187898      4.366756      3.510017
  H      -2.685882      5.102458      4.185810
  H      -2.933418      3.550507      3.349518
  C      -0.948792      3.784127      4.237761
  H      -0.188172      4.577966      4.434171
  H      -1.235170      3.326357      5.209201
  H      -0.450149      2.994254      3.629649
138
Coordinates from ORCA-job /wrk/rja7/qm_final_3_replicates/qm_final_1.1/qm/8/freq E -2722.592451410118
  N       0.155678     -1.966591      7.062637
  C       0.623837     -0.616101      6.433745
  H       1.328671     -0.902676      5.620955
  H       1.197573     -0.097249      7.233068
  C      -0.583424     -1.745695      8.393535
  H      -0.671332     -2.733304      8.893571
  H       0.011129     -1.051642      9.021239
  H      -1.594628     -1.340865      8.168163
  C       1.405946     -2.795704      7.321423
  H       1.110545     -3.749616      7.804093
  H       1.911572     -3.004494      6.356213
  H       2.087454     -2.232736      7.992539
  C      -0.769449     -2.727852      6.098562
  H      -0.883059     -3.761588      6.486796
  H      -0.315332     -2.736040      5.088325
  H      -1.750022     -2.206431      6.088342
  C      -0.446442      0.321950      5.837871
  H       0.149289      1.073859      5.256739
  H      -1.061765     -0.223853      5.092500
  P      -2.924555      0.708799      6.889843
  O      -3.485498      1.642075      7.931897
  O      -3.124632     -0.827406      6.896679
  O      -1.220394      1.002039      6.815644
  O      -3.276531      1.251910      5.289571
  C      -4.538230      0.845004      4.735547
  H      -4.920637      1.690133      4.112249
  H      -5.300545      0.640853      5.527912
  C      -4.391073     -0.420744      3.849459
  H      -3.909493     -1.227463      4.440018
  O      -3.521324     -0.052115      2.711322
  C      -2.282173     -0.610220      2.596010
  O      -1.883343     -1.582458      3.235880
  C      -1.448337      0.153378      1.557281
  H      -1.597208      1.240658      1.737072
  H      -1.891916     -0.040983      0.552132
  C      -5.732007     -0.913420      3.281839
  H      -6.168221     -0.192940      2.555120
  H      -6.450548     -1.072010      4.119938
  O      -5.531762     -2.209547      2.635050
  C      -5.815284     -2.335048      1.286808
  O      -6.293596     -1.450678      0.593001
  C      -5.394491     -3.729370      0.798593
  H      -5.698928     -4.488455      1.554204
  H      -5.939026     -3.929605     -0.150620
  C       0.054701     -0.213923      1.566170
  H       0.164519     -1.309455      1.401659
  H       0.475864     -0.013021      2.581892
  C       0.862058      0.582017      0.508409
  H       0.745580      1.672802      0.707894
  H       0.418662      0.410487     -0.500952
  C       2.375864      0.242689      0.450684
  H       2.857403      0.489090      1.430197
  H       2.849943      0.925270     -0.293606
  C       2.690618     -1.232865      0.081322
  H       2.037218     -1.551408     -0.766669
  H       2.421292     -1.895784      0.937655
  C       4.172502     -1.494402     -0.301721
  H       4.353902     -2.596653     -0.321744
  H       4.844358     -1.086335      0.492651
  C       4.599009     -0.895700     -1.682045
  H       5.694146     -1.081436     -1.812199
  H       4.478809      0.210312     -1.674299
  C       3.856143     -1.519668     -2.852464
  H       4.001062     -2.615231     -2.962248
  C       3.037648     -0.900877     -3.740649
  H       2.587378     -1.527662     -4.536420
  C       2.709652      0.589991     -3.795375
  H       2.558306      0.995015     -2.766987
  H       1.736504      0.727541     -4.321899
  C       3.792473      1.456704     -4.514725
  H       4.737363      1.419275     -3.919798
  H       3.461325      2.523971     -4.502665
  C       4.093085      1.023044     -5.971216
  H       3.146387      1.032034     -6.568202
  H       4.446819     -0.033065     -5.966179
  C       5.140051      1.931079     -6.666847
  H       6.091321      1.904786     -6.078108
  H       4.783036      2.989125     -6.612645
  C       5.463567      1.598380     -8.151792
  H       6.085833      2.434259     -8.551245
  H       4.522103      1.613481     -8.755356
  C       6.219278      0.256706     -8.405578
  H       6.928971      0.067835     -7.560890
  H       6.865889      0.374056     -9.309621
  C       5.324256     -0.993211     -8.625185
  H       4.643315     -0.799772     -9.490678
  H       4.654253     -1.151040     -7.748187
  C       6.140197     -2.282769     -8.887009
  H       6.790875     -2.536323     -8.017022
  H       6.806043     -2.166620     -9.774660
  H       5.476331     -3.157928     -9.075160
  C      -3.851468     -3.822053      0.565670
  H      -3.600533     -4.878955      0.307434
  H      -3.326324     -3.596465      1.523270
  C      -3.333683     -2.878308     -0.550572
  H      -3.624945     -1.825879     -0.318514
  H      -3.852248     -3.119533     -1.509889
  C      -1.794930     -2.941697     -0.744028
  H      -1.492812     -3.977351     -1.039178
  H      -1.306226     -2.752897      0.241328
  C      -1.250511     -1.919149     -1.779480
  H      -1.701605     -0.920310     -1.567406
  H      -0.150622     -1.797315     -1.637829
  C      -1.502150     -2.281536     -3.266172
  H      -0.839191     -3.133632     -3.552720
  H      -2.548836     -2.640876     -3.413633
  C      -1.243814     -1.076049     -4.230651
  H      -1.129563     -1.473806     -5.269221
  H      -0.271955     -0.597217     -3.971629
  C      -2.387767     -0.073194     -4.225868
  H      -3.347438     -0.484600     -4.603463
  C      -2.396241      1.220224     -3.817318
  H      -3.358159      1.767529     -3.907644
  C      -1.259840      2.055455     -3.248675
  H      -0.948054      2.809690     -4.017098
  H      -0.357871      1.433183     -3.047818
  C      -1.678169      2.831335     -1.962098
  H      -1.896452      2.096603     -1.152706
  H      -2.643699      3.358635     -2.161832
  C      -0.627557      3.869275     -1.484941
  H       0.301922      3.337680     -1.162945
  H      -0.327883      4.498267     -2.358820
  C      -1.113781      4.808306     -0.342909
  H      -0.340053      5.596377     -0.172778
  H      -2.029591      5.351317     -0.685463
  C      -1.410993      4.102896      1.006866
  H      -0.493649      3.557116      1.333073
  H      -2.198916      3.326163      0.860756
  C      -1.871120      5.067208      2.132696
  H      -1.094612      5.859538      2.279220
  H      -2.791217      5.601627      1.790645
  C      -2.163414      4.372360      3.494362
  H      -2.659811      5.105570      4.173527
  H      -2.905021      3.551186      3.342967
  C      -0.913009      3.801214      4.210895
  H      -0.159232      4.602765      4.401531
  H      -1.187079      3.340756      5.184314
  H      -0.410657      3.015766      3.599593
138
Coordinates from ORCA-job /wrk/rja7/qm_final_3_replicates/qm_final_1.1/qm/8/freq E -2722.592460707138
  N       0.117733     -1.957997      7.097635
  C       0.604286     -0.613526      6.470984
  H       1.315906     -0.907552      5.666845
  H       1.173273     -0.097345      7.275530
  C      -0.638220     -1.725948      8.417357
  H      -0.738431     -2.710394      8.921375
  H      -0.048316     -1.031678      9.049103
  H      -1.643606     -1.316430      8.174708
  C       1.357543     -2.796266      7.376383
  H       1.047327     -3.747410      7.855225
  H       1.876865     -3.009935      6.419649
  H       2.032767     -2.238247      8.057887
  C      -0.798851     -2.715403      6.123212
  H      -0.933806     -3.743746      6.518980
  H      -0.322824     -2.740000      5.123088
  H      -1.773008     -2.183795      6.087317
  C      -0.451810      0.332914      5.863475
  H       0.156413      1.080010      5.289529
  H      -1.062910     -0.207865      5.111095
  P      -2.938659      0.734602      6.886504
  O      -3.507335      1.666500      7.925622
  O      -3.145154     -0.800595      6.886613
  O      -1.232533      1.019463      6.831607
  O      -3.270664      1.282151      5.284509
  C      -4.525054      0.874008      4.714381
  H      -4.901062      1.718003      4.085558
  H      -5.298380      0.668238      5.495591
  C      -4.361561     -0.391672      3.832038
  H      -3.885354     -1.195838      4.429668
  O      -3.476682     -0.019278      2.706794
  C      -2.241443     -0.585981      2.598208
  O      -1.852248     -1.561982      3.238671
  C      -1.403699      0.162901      1.552219
  H      -1.544376      1.252527      1.723191
  H      -1.851723     -0.035592      0.549516
  C      -5.692173     -0.890241      3.246292
  H      -6.124493     -0.170406      2.516436
  H      -6.423627     -1.052477      4.072855
  O      -5.469097     -2.184325      2.601616
  C      -5.882010     -2.357913      1.293282
  O      -6.482455     -1.518860      0.639639
  C      -5.443560     -3.742845      0.789712
  H      -5.752834     -4.507105      1.539784
  H      -5.991822     -3.940118     -0.158067
  C       0.096958     -0.212512      1.562950
  H       0.202038     -1.310246      1.410658
  H       0.522007     -0.000955      2.574771
  C       0.904318      0.565985      0.493326
  H       0.786354      1.660264      0.673860
  H       0.461704      0.375257     -0.513472
  C       2.418429      0.225787      0.442121
  H       2.896256      0.473768      1.422878
  H       2.897066      0.905467     -0.301578
  C       2.734524     -1.250467      0.075865
  H       2.091583     -1.567152     -0.780649
  H       2.453611     -1.914019      0.927992
  C       4.221011     -1.512425     -0.291278
  H       4.403739     -2.614390     -0.309538
  H       4.884551     -1.103849      0.509844
  C       4.659669     -0.913061     -1.667586
  H       5.757559     -1.089201     -1.785423
  H       4.529686      0.192065     -1.664426
  C       3.934412     -1.542444     -2.846826
  H       4.103030     -2.633329     -2.968232
  C       3.112060     -0.928702     -3.735162
  H       2.680826     -1.553208     -4.543147
  C       2.754094      0.554764     -3.773660
  H       2.610590      0.948768     -2.740770
  H       1.771003      0.676518     -4.286241
  C       3.809114      1.447446     -4.501777
  H       4.762492      1.430098     -3.919029
  H       3.452451      2.506539     -4.481002
  C       4.100490      1.027733     -5.965058
  H       3.143830      1.004462     -6.545113
  H       4.488834     -0.016464     -5.969365
  C       5.108393      1.969595     -6.673405
  H       6.067567      1.973143     -6.097255
  H       4.719257      3.016043     -6.611659
  C       5.426190      1.654385     -8.163174
  H       6.048851      2.494648     -8.553423
  H       4.484592      1.678180     -8.766416
  C       6.178342      0.314798     -8.436348
  H       6.887774      0.110885     -7.595310
  H       6.822509      0.443025     -9.340532
  C       5.277664     -0.927986     -8.673242
  H       4.601738     -0.721942     -9.539549
  H       4.603630     -1.093525     -7.800925
  C       6.089280     -2.218812     -8.944180
  H       6.737027     -2.477756     -8.073381
  H       6.757898     -2.102007     -9.829589
  H       5.423490     -3.091177     -9.138394
  C      -3.902254     -3.842573      0.560735
  H      -3.657633     -4.897041      0.285653
  H      -3.378139     -3.638631      1.523255
  C      -3.371927     -2.887061     -0.538795
  H      -3.654860     -1.835559     -0.291025
  H      -3.887559     -3.112750     -1.503654
  C      -1.832461     -2.959322     -0.724666
  H      -1.534628     -3.996706     -1.018329
  H      -1.348694     -2.774917      0.263862
  C      -1.276789     -1.942295     -1.759904
  H      -1.729350     -0.941684     -1.560461
  H      -0.179015     -1.817596     -1.605152
  C      -1.510379     -2.312795     -3.247862
  H      -0.852269     -3.172640     -3.520823
  H      -2.558102     -2.665921     -3.405700
  C      -1.235552     -1.113959     -4.213829
  H      -1.117443     -1.513305     -5.251379
  H      -0.261849     -0.641120     -3.950358
  C      -2.373208     -0.104636     -4.217932
  H      -3.333555     -0.512045     -4.598361
  C      -2.377487      1.189315     -3.813078
  H      -3.336335      1.740823     -3.910236
  C      -1.240145      2.021311     -3.241168
  H      -0.909689      2.760866     -4.016097
  H      -0.345845      1.394041     -3.020951
  C      -1.666759      2.813550     -1.967969
  H      -1.896809      2.088551     -1.151861
  H      -2.626937      3.344525     -2.182805
  C      -0.615547      3.851363     -1.493571
  H       0.314200      3.320008     -1.171165
  H      -0.316021      4.477930     -2.369258
  C      -1.101845      4.793914     -0.355155
  H      -0.327155      5.581305     -0.186532
  H      -2.016632      5.337074     -0.700104
  C      -1.402063      4.091552      0.994942
  H      -0.486126      3.543564      1.321762
  H      -2.192608      3.317091      0.851106
  C      -1.858202      5.059068      2.119214
  H      -1.077444      5.847027      2.266769
  H      -2.775117      5.598789      1.777069
  C      -2.152742      4.365272      3.480253
  H      -2.644340      5.101112      4.160279
  H      -2.899103      3.548253      3.330154
  C      -0.903549      3.788969      4.193903
  H      -0.148251      4.588664      4.385677
  H      -1.178548      3.327171      5.166467
  H      -0.402440      3.002688      3.581413
138
Coordinates from ORCA-job /wrk/rja7/qm_final_3_replicates/qm_final_1.1/qm/8/freq E -2722.592542010017
  N       0.118126     -1.968701      7.087017
  C       0.598667     -0.621790      6.460335
  H       1.306001     -0.913377      5.651807
  H       1.171255     -0.105876      7.262710
  C      -0.628612     -1.741936      8.412602
  H      -0.726155     -2.728475      8.912950
  H      -0.033865     -1.050985      9.043505
  H      -1.635480     -1.330912      8.179731
  C       1.361417     -2.805612      7.354866
  H       1.056566     -3.758043      7.834575
  H       1.873263     -3.016848      6.393577
  H       2.041098     -2.247408      8.031761
  C      -0.804788     -2.724707      6.116893
  H      -0.930034     -3.756561      6.506815
  H      -0.341050     -2.739281      5.110920
  H      -1.781344     -2.195915      6.095954
  C      -0.462582      0.322581      5.858636
  H       0.140899      1.071539      5.281189
  H      -1.076554     -0.219999      5.109242
  P      -2.945809      0.721001      6.891982
  O      -3.512609      1.656300      7.929072
  O      -3.151663     -0.814336      6.897260
  O      -1.239611      1.006610      6.831646
  O      -3.281817      1.264453      5.288739
  C      -4.538686      0.859016      4.722906
  H      -4.915325      1.704412      4.096380
  H      -5.309022      0.654356      5.507344
  C      -4.381950     -0.406238      3.838173
  H      -3.907735     -1.213605      4.433515
  O      -3.498092     -0.035277      2.711343
  C      -2.262545     -0.601535      2.599300
  O      -1.871565     -1.577941      3.238006
  C      -1.422748      0.157462      1.561917
  H      -1.568329      1.245412      1.738978
  H      -1.864642     -0.036618      0.555923
  C      -5.716338     -0.898109      3.254315
  H      -6.142965     -0.175847      2.523441
  H      -6.447043     -1.055706      4.082007
  O      -5.507285     -2.194676      2.610324
  C      -5.848223     -2.339573      1.277867
  O      -6.380306     -1.473096      0.600612
  C      -5.420379     -3.729123      0.780145
  H      -5.733147     -4.491651      1.529665
  H      -5.964472     -3.924391     -0.170559
  C       0.079536     -0.212875      1.574758
  H       0.188822     -1.308858      1.412861
  H       0.499911     -0.009423      2.590304
  C       0.887651      0.579742      0.515393
  H       0.766833      1.671364      0.708834
  H       0.447189      0.400661     -0.494237
  C       2.402984      0.245936      0.462741
  H       2.879896      0.492411      1.444449
  H       2.877446      0.931219     -0.278557
  C       2.726834     -1.227370      0.091551
  H       2.082924     -1.546081     -0.763477
  H       2.452898     -1.894356      0.943135
  C       4.213731     -1.479922     -0.279722
  H       4.401456     -2.581033     -0.302228
  H       4.876699     -1.071118      0.521751
  C       4.647789     -0.874895     -1.654950
  H       5.745129     -1.052609     -1.776942
  H       4.520034      0.230377     -1.646506
  C       3.918802     -1.500589     -2.833312
  H       4.073682     -2.594433     -2.946533
  C       3.104661     -0.884734     -3.727460
  H       2.667327     -1.512050     -4.530020
  C       2.762444      0.601975     -3.781451
  H       2.631050      1.012272     -2.752861
  H       1.776820      0.727100     -4.288076
  C       3.819700      1.474419     -4.531023
  H       4.777120      1.458159     -3.955188
  H       3.472600      2.536807     -4.524190
  C       4.097261      1.029596     -5.989135
  H       3.136763      1.007257     -6.563138
  H       4.476259     -0.017896     -5.979765
  C       5.107513      1.952116     -6.718934
  H       6.071478      1.956183     -6.150708
  H       4.727426      3.002382     -6.670264
  C       5.408132      1.608524     -8.206042
  H       6.021231      2.443169     -8.622034
  H       4.457457      1.615662     -8.795293
  C       6.163319      0.266594     -8.460993
  H       6.878237      0.079361     -7.620500
  H       6.803320      0.381468     -9.369974
  C       5.266359     -0.983708     -8.671120
  H       4.580829     -0.793864     -9.533774
  H       4.601265     -1.137849     -7.789698
  C       6.080790     -2.274972     -8.929977
  H       6.737891     -2.520252     -8.062236
  H       6.740400     -2.166988     -9.823292
  H       5.416347     -3.152290     -9.105763
  C      -3.877884     -3.831142      0.554218
  H      -3.633414     -4.888669      0.291636
  H      -3.355584     -3.615783      1.515639
  C      -3.346076     -2.886725     -0.554426
  H      -3.633958     -1.833889     -0.320473
  H      -3.857282     -3.123861     -1.518802
  C      -1.805904     -2.956283     -0.734063
  H      -1.504509     -3.992841     -1.027137
  H      -1.326011     -2.770371      0.256147
  C      -1.248363     -1.935955     -1.764866
  H      -1.703214     -0.936866     -1.562991
  H      -0.151030     -1.811653     -1.607034
  C      -1.477945     -2.301286     -3.254325
  H      -0.814233     -3.156271     -3.529827
  H      -2.523532     -2.658383     -3.415999
  C      -1.204393     -1.096913     -4.214739
  H      -1.079545     -1.493046     -5.252757
  H      -0.233985     -0.621163     -3.944531
  C      -2.345545     -0.091354     -4.221075
  H      -3.302945     -0.500936     -4.606841
  C      -2.355014      1.202175     -3.814121
  H      -3.314758      1.751576     -3.915006
  C      -1.223044      2.035905     -3.234672
  H      -0.897989      2.784820     -4.002822
  H      -0.325546      1.411948     -3.018772
  C      -1.655003      2.818335     -1.956523
  H      -1.884652      2.087747     -1.145970
  H      -2.616613      3.347479     -2.170115
  C      -0.606994      3.855780     -1.472993
  H       0.320357      3.323516     -1.145745
  H      -0.301747      4.484130     -2.345357
  C      -1.099565      4.796423     -0.335185
  H      -0.325586      5.583278     -0.160722
  H      -2.012180      5.340599     -0.684405
  C      -1.407080      4.092613      1.012860
  H      -0.493839      3.542196      1.343052
  H      -2.198302      3.319966      0.863680
  C      -1.866594      5.059185      2.136796
  H      -1.085890      5.846567      2.287516
  H      -2.781848      5.599665      1.791315
  C      -2.167958      4.364840      3.496533
  H      -2.661127      5.101098      4.175211
  H      -2.915083      3.549102      3.342252
  C      -0.923307      3.784599      4.215595
  H      -0.164961      4.581130      4.409092
  H      -1.203347      3.324868      5.187862
  H      -0.424120      2.996050      3.605203
138
Coordinates from ORCA-job /wrk/rja7/qm_final_3_replicates/qm_final_1.1/qm/8/freq E -2722.592553994016
  N       0.130829     -1.976810      7.074127
  C       0.606354     -0.631005      6.440891
  H       1.305165     -0.924211      5.625609
  H       1.187425     -0.114763      7.236847
  C      -0.601941     -1.747558      8.406888
  H      -0.695713     -2.733344      8.909424
  H       0.000300     -1.056754      9.030807
  H      -1.610627     -1.335537      8.184348
  C       1.376187     -2.814259      7.330609
  H       1.075482     -3.765814      7.814600
  H       1.878053     -3.027052      6.364400
  H       2.063024     -2.255551      7.999846
  C      -0.802723     -2.733842      6.114880
  H      -0.921103     -3.766167      6.505596
  H      -0.352091     -2.746672      5.102987
  H      -1.780382     -2.206538      6.107316
  C      -0.460130      0.313425      5.848924
  H       0.137620      1.061847      5.264984
  H      -1.081448     -0.229509      5.105998
  P      -2.933534      0.713744      6.903977
  O      -3.491186      1.650746      7.944449
  O      -3.140643     -0.821361      6.912919
  O      -1.227634      0.997782      6.829138
  O      -3.281613      1.255959      5.302733
  C      -4.542074      0.850129      4.745593
  H      -4.923896      1.695931      4.122779
  H      -5.306562      0.643796      5.535307
  C      -4.390677     -0.413878      3.858035
  H      -3.913390     -1.222604      4.449275
  O      -3.513317     -0.041503      2.726778
  C      -2.279266     -0.609081      2.605765
  O      -1.886272     -1.588484      3.238650
  C      -1.444282      0.151268      1.565509
  H      -1.593031      1.239208      1.740596
  H      -1.887414     -0.046675      0.560785
  C      -5.728440     -0.904463      3.280431
  H      -6.158559     -0.179699      2.554091
  H      -6.453847     -1.065960      4.111777
  O      -5.524709     -2.199165      2.630906
  C      -5.828467     -2.325898      1.287567
  O      -6.328706     -1.445581      0.603783
  C      -5.407225     -3.716644      0.788651
  H      -5.717192     -4.479526      1.538576
  H      -5.953876     -3.910553     -0.160918
  C       0.059289     -0.214616      1.575800
  H       0.171157     -1.310756      1.416809
  H       0.481368     -0.006880      2.589805
  C       0.862352      0.577652      0.512278
  H       0.735434      1.669240      0.700726
  H       0.422076      0.391632     -0.496054
  C       2.379704      0.253509      0.460109
  H       2.856587      0.511967      1.438779
  H       2.847924      0.935365     -0.288286
  C       2.713908     -1.220530      0.101357
  H       2.071274     -1.551171     -0.750014
  H       2.446312     -1.882367      0.958995
  C       4.202296     -1.464523     -0.269420
  H       4.396832     -2.564506     -0.290110
  H       4.862508     -1.050352      0.531547
  C       4.633173     -0.858542     -1.645087
  H       5.731067     -1.032936     -1.767749
  H       4.502263      0.246316     -1.636757
  C       3.905687     -1.486284     -2.823108
  H       4.054786     -2.581615     -2.929648
  C       3.099719     -0.870595     -3.724735
  H       2.663400     -1.499833     -4.526351
  C       2.765106      0.617453     -3.788601
  H       2.631585      1.034988     -2.763067
  H       1.782117      0.744331     -4.299966
  C       3.829423      1.480969     -4.538697
  H       4.783882      1.465364     -3.957925
  H       3.486205      2.544615     -4.540401
  C       4.113082      1.026336     -5.992477
  H       3.155500      1.003634     -6.571407
  H       4.488955     -0.022231     -5.975026
  C       5.129627      1.941874     -6.722086
  H       6.091483      1.944786     -6.150188
  H       4.753218      2.993733     -6.679452
  C       5.434116      1.590681     -8.206371
  H       6.049959      2.422119     -8.624625
  H       4.485009      1.596784     -8.798185
  C       6.187369      0.246225     -8.453201
  H       6.905424      0.064973     -7.614026
  H       6.824062      0.353399     -9.365465
  C       5.288709     -1.005055     -8.649006
  H       4.595305     -0.819535     -9.506262
  H       4.631660     -1.154609     -7.760671
  C       6.100639     -2.297724     -8.908344
  H       6.767047     -2.537617     -8.046239
  H       6.750619     -2.195310     -9.809343
  H       5.434468     -3.176171     -9.071497
  C      -3.865200     -3.818196      0.556383
  H      -3.621301     -4.876716      0.297438
  H      -3.339321     -3.598693      1.515094
  C      -3.338838     -2.877711     -0.558227
  H      -3.626182     -1.824316     -0.326963
  H      -3.854971     -3.118197     -1.519092
  C      -1.799657     -2.947478     -0.746130
  H      -1.499817     -3.983840     -1.041458
  H      -1.313797     -2.761877      0.241248
  C      -1.248185     -1.926439     -1.779488
  H      -1.701122     -0.927350     -1.573277
  H      -0.149624     -1.803451     -1.629244
  C      -1.488322     -2.289734     -3.267774
  H      -0.825912     -3.143819     -3.549200
  H      -2.534749     -2.647395     -3.422407
  C      -1.222227     -1.083859     -4.228680
  H      -1.102999     -1.479155     -5.267685
  H      -0.250812     -0.606952     -3.963881
  C      -2.365135     -0.080116     -4.228102
  H      -3.323779     -0.491231     -4.609008
  C      -2.375084      1.213231     -3.820205
  H      -3.336549      1.760557     -3.915684
  C      -1.242392      2.049333     -3.245621
  H      -0.925128      2.801899     -4.013429
  H      -0.341313      1.428192     -3.036887
  C      -1.669571      2.826998     -1.962843
  H      -1.892189      2.093508     -1.153184
  H      -2.634093      3.353574     -2.169591
  C      -0.622137      3.866265     -1.481700
  H       0.308382      3.335703     -1.161014
  H      -0.323411      4.498321     -2.353647
  C      -1.111693      4.801588     -0.338163
  H      -0.338803      5.589576     -0.164047
  H      -2.026997      5.344950     -0.681607
  C      -1.412303      4.092344      1.008705
  H      -0.496292      3.543886      1.334398
  H      -2.201404      3.317534      0.859292
  C      -1.871936      5.053933      2.136974
  H      -1.093917      5.844087      2.287129
  H      -2.790434      5.591680      1.795885
  C      -2.165995      4.355244      3.496207
  H      -2.659963      5.087895      4.178041
  H      -2.910193      3.536735      3.342466
  C      -0.916586      3.778607      4.209904
  H      -0.159892      4.577391      4.400494
  H      -1.190964      3.317632      5.183144
  H      -0.417726      2.992087      3.596943
138
Coordinates from ORCA-job /wrk/rja7/qm_final_3_replicates/qm_final_1.1/qm/8/freq E -2722.592566101250
  N       0.119114     -1.979624      7.082010
  C       0.595781     -0.635223      6.446835
  H       1.292844     -0.930317      5.630815
  H       1.178684     -0.118891      7.241394
  C      -0.608470     -1.747785      8.417121
  H      -0.704278     -2.733287      8.919863
  H      -0.001301     -1.059475      9.039000
  H      -1.616428     -1.332045      8.198022
  C       1.363319     -2.820086      7.334697
  H       1.061858     -3.771023      7.819391
  H       1.861823     -3.033761      6.366946
  H       2.053378     -2.263008      8.001940
  C      -0.819549     -2.734313      6.125929
  H      -0.939669     -3.766263      6.517206
  H      -0.372209     -2.748465      5.112649
  H      -1.795741     -2.204178      6.121406
  C      -0.470673      0.309356      5.855587
  H       0.126333      1.055538      5.268228
  H      -1.094449     -0.234659      5.115692
  P      -2.941932      0.715771      6.913161
  O      -3.497217      1.657282      7.950767
  O      -3.151422     -0.818878      6.927215
  O      -1.235376      0.996609      6.836024
  O      -3.290625      1.253164      5.310414
  C      -4.551884      0.846583      4.755631
  H      -4.935791      1.691889      4.133403
  H      -5.314814      0.639250      5.546535
  C      -4.400876     -0.417437      3.867992
  H      -3.922061     -1.225860      4.458417
  O      -3.525710     -0.044305      2.735623
  C      -2.291250     -0.610297      2.612840
  O      -1.895835     -1.588827      3.245732
  C      -1.459690      0.150040      1.569986
  H      -1.610097      1.237955      1.743219
  H      -1.904792     -0.050669      0.566626
  C      -5.739698     -0.909155      3.293076
  H      -6.171504     -0.183953      2.568216
  H      -6.462523     -1.072403      4.126158
  O      -5.539542     -2.204277      2.642999
  C      -5.811489     -2.320939      1.291745
  O      -6.283041     -1.431257      0.599716
  C      -5.392713     -3.713405      0.795937
  H      -5.704256     -4.474719      1.546567
  H      -5.937762     -3.908053     -0.154477
  C       0.044682     -0.212483      1.577438
  H       0.158611     -1.308749      1.420999
  H       0.469293     -0.000832      2.589589
  C       0.842144      0.578548      0.508932
  H       0.714060      1.670429      0.694760
  H       0.397845      0.388627     -0.496759
  C       2.359717      0.256535      0.450540
  H       2.840760      0.515221      1.427141
  H       2.823640      0.938817     -0.300089
  C       2.694175     -1.216931      0.089780
  H       2.051109     -1.546314     -0.761666
  H       2.427309     -1.880211      0.946541
  C       4.182307     -1.460531     -0.282477
  H       4.375376     -2.560688     -0.308387
  H       4.843300     -1.051137      0.520292
  C       4.613871     -0.848989     -1.655355
  H       5.710621     -1.028519     -1.781111
  H       4.489157      0.256554     -1.640886
  C       3.880567     -1.465344     -2.835821
  H       4.014810     -2.562470     -2.943761
  C       3.087030     -0.836900     -3.739683
  H       2.645192     -1.458640     -4.544145
  C       2.774343      0.655613     -3.803972
  H       2.651191      1.076899     -2.778726
  H       1.791503      0.796503     -4.312139
  C       3.848767      1.502368     -4.558851
  H       4.803556      1.478064     -3.978821
  H       3.518340      2.570047     -4.564929
  C       4.125930      1.038539     -6.011141
  H       3.166865      1.019614     -6.587753
  H       4.494141     -0.012622     -5.989449
  C       5.147841      1.943130     -6.746788
  H       6.110335      1.942833     -6.175975
  H       4.778452      2.997687     -6.708742
  C       5.448688      1.583969     -8.229900
  H       6.070121      2.409685     -8.651325
  H       4.499509      1.594798     -8.821566
  C       6.192730      0.233813     -8.473448
  H       6.911835      0.050672     -7.635621
  H       6.827255      0.333848     -9.387992
  C       5.285681     -1.012447     -8.662694
  H       4.590028     -0.824840     -9.517650
  H       4.631589     -1.156574     -7.771424
  C       6.088980     -2.310529     -8.922401
  H       6.759305     -2.550294     -8.063269
  H       6.733981     -2.215648     -9.827784
  H       5.417213     -3.186086     -9.077982
  C      -3.850372     -3.817273      0.565012
  H      -3.607463     -4.877492      0.312077
  H      -3.325156     -3.593574      1.523157
  C      -3.322055     -2.883735     -0.554572
  H      -3.608734     -1.828853     -0.329792
  H      -3.837804     -3.129649     -1.514291
  C      -1.782766     -2.956586     -0.741209
  H      -1.484555     -3.993507     -1.036220
  H      -1.297454     -2.771870      0.246605
  C      -1.228090     -1.936628     -1.774016
  H      -1.679246     -0.936695     -1.568115
  H      -0.129537     -1.815876     -1.622506
  C      -1.466851     -2.297962     -3.262973
  H      -0.805799     -3.152951     -3.544672
  H      -2.513776     -2.653528     -3.419387
  C      -1.197753     -1.090917     -4.221480
  H      -1.075595     -1.484173     -5.260941
  H      -0.227110     -0.614413     -3.953161
  C      -2.340766     -0.087396     -4.222461
  H      -3.298311     -0.498483     -4.606177
  C      -2.352816      1.205256     -3.812691
  H      -3.314622      1.751675     -3.909907
  C      -1.222411      2.042020     -3.234428
  H      -0.902115      2.793660     -4.001888
  H      -0.321815      1.421418     -3.021488
  C      -1.654793      2.820658     -1.954001
  H      -1.878051      2.087961     -1.143792
  H      -2.619828      3.344807     -2.164307
  C      -0.611138      3.863059     -1.471898
  H       0.320044      3.335108     -1.148582
  H      -0.312019      4.494574     -2.344124
  C      -1.105605      4.799251     -0.331222
  H      -0.334123      5.588363     -0.155967
  H      -2.020496      5.340959     -0.678357
  C      -1.409642      4.091607      1.015652
  H      -0.494465      3.543409      1.344227
  H      -2.198491      3.316647      0.865481
  C      -1.871857      5.054534      2.141711
  H      -1.093914      5.844543      2.293021
  H      -2.789403      5.592203      1.797957
  C      -2.169174      4.357239      3.500915
  H      -2.662757      5.091325      4.181504
  H      -2.914691      3.539980      3.346953
  C      -0.921735      3.779289      4.216937
  H      -0.164730      4.577387      4.409082
  H      -1.198528      3.318562      5.189605
  H      -0.422236      2.992211      3.605044
138
Coordinates from ORCA-job /wrk/rja7/qm_final_3_replicates/qm_final_1.1/qm/8/freq E -2722.592573450609
  N       0.122691     -1.975070      7.079557
  C       0.598093     -0.632903      6.438599
  H       1.292809     -0.930899      5.621599
  H       1.183308     -0.114197      7.229920
  C      -0.602203     -1.738195      8.415252
  H      -0.697241     -2.721878      8.921699
  H       0.006559     -1.047882      9.033325
  H      -1.610518     -1.323076      8.196609
  C       1.367411     -2.814552      7.332974
  H       1.066967     -3.764115      7.820987
  H       1.864588     -3.031044      6.365165
  H       2.058373     -2.255251      7.997389
  C      -0.817695     -2.733177      6.128102
  H      -0.939033     -3.763022      6.524595
  H      -0.370932     -2.753167      5.114647
  H      -1.793327     -2.202102      6.121575
  C      -0.469975      0.309785      5.847695
  H       0.124739      1.053671      5.255221
  H      -1.096393     -0.236879      5.112143
  P      -2.938351      0.720853      6.909978
  O      -3.490238      1.664577      7.947377
  O      -3.148750     -0.813643      6.927057
  O      -1.231524      1.000239      6.828368
  O      -3.290513      1.255773      5.307258
  C      -4.551815      0.846514      4.754345
  H      -4.938020      1.690886      4.132280
  H      -5.313459      0.637874      5.546121
  C      -4.399937     -0.417462      3.866682
  H      -3.921626     -1.225912      4.457381
  O      -3.523496     -0.043849      2.735589
  C      -2.290316     -0.612381      2.612220
  O      -1.897528     -1.593470      3.242865
  C      -1.456794      0.147535      1.570725
  H      -1.607248      1.235513      1.742987
  H      -1.900432     -0.053450      0.566658
  C      -5.738857     -0.908713      3.291316
  H      -6.171388     -0.182196      2.568191
  H      -6.461012     -1.073481      4.124671
  O      -5.539715     -2.203210      2.639582
  C      -5.815224     -2.318448      1.288879
  O      -6.285731     -1.426948      0.598518
  C      -5.398738     -3.710664      0.790168
  H      -5.711370     -4.472523      1.539877
  H      -5.945328     -3.902918     -0.159869
  C       0.047565     -0.215006      1.581458
  H       0.161840     -1.311416      1.426229
  H       0.470439     -0.002078      2.594088
  C       0.846502      0.575352      0.513749
  H       0.716681      1.667406      0.697611
  H       0.404297      0.382824     -0.492456
  C       2.364416      0.254641      0.458412
  H       2.843888      0.514180      1.435525
  H       2.828945      0.936485     -0.292157
  C       2.700433     -1.218737      0.099006
  H       2.058809     -1.548588     -0.753270
  H       2.432877     -1.882203      0.955464
  C       4.189038     -1.461448     -0.272298
  H       4.382686     -2.561511     -0.297985
  H       4.849676     -1.051521      0.530489
  C       4.620020     -0.849981     -1.645269
  H       5.716370     -1.030755     -1.772715
  H       4.496951      0.255759     -1.630366
  C       3.883881     -1.463819     -2.825420
  H       4.014450     -2.561257     -2.934489
  C       3.092175     -0.831548     -3.728234
  H       2.648369     -1.450248     -4.533971
  C       2.783446      0.661693     -3.789695
  H       2.667807      1.082485     -2.763507
  H       1.798139      0.806072     -4.292144
  C       3.856520      1.505659     -4.549559
  H       4.813405      1.480155     -3.973003
  H       3.527837      2.573898     -4.555356
  C       4.127398      1.040374     -6.002684
  H       3.165613      1.019651     -6.574647
  H       4.496324     -0.010542     -5.981383
  C       5.145753      1.944604     -6.743573
  H       6.110361      1.945779     -6.176412
  H       4.775852      2.999016     -6.705185
  C       5.441647      1.585284     -8.227650
  H       6.062552      2.410793     -8.650328
  H       4.491015      1.597226     -8.816947
  C       6.184283      0.235025     -8.474341
  H       6.906947      0.051513     -7.639719
  H       6.814393      0.334925     -9.391908
  C       5.276163     -1.011142     -8.659694
  H       4.578050     -0.824327     -9.512824
  H       4.625051     -1.154902     -7.766340
  C       6.078638     -2.309630     -8.920703
  H       6.753068     -2.546622     -8.064007
  H       6.719264     -2.217138     -9.829421
  H       5.406592     -3.185891     -9.070970
  C      -3.857081     -3.817904      0.557493
  H      -3.616833     -4.878391      0.302948
  H      -3.330253     -3.597079      1.515374
  C      -3.327835     -2.884029     -0.561237
  H      -3.612141     -1.828881     -0.334497
  H      -3.844779     -3.127912     -1.520843
  C      -1.788856     -2.959618     -0.749137
  H      -1.492852     -3.996762     -1.045671
  H      -1.302513     -2.777442      0.238620
  C      -1.233018     -1.939392     -1.781011
  H      -1.683807     -0.939271     -1.575273
  H      -0.134674     -1.818867     -1.628271
  C      -1.470414     -2.299408     -3.270557
  H      -0.810956     -3.155644     -3.552072
  H      -2.517842     -2.652909     -3.428692
  C      -1.198371     -1.091592     -4.226972
  H      -1.074204     -1.482884     -5.266944
  H      -0.227992     -0.615895     -3.956149
  C      -2.341113     -0.087836     -4.228251
  H      -3.298298     -0.498205     -4.613672
  C      -2.353490      1.204173     -3.816807
  H      -3.315119      1.750802     -3.914529
  C      -1.223430      2.039912     -3.236399
  H      -0.900017      2.790364     -4.003720
  H      -0.323906      1.418509     -3.020860
  C      -1.657687      2.819303     -1.957166
  H      -1.883114      2.087033     -1.146975
  H      -2.621829      3.344267     -2.169500
  C      -0.614014      3.861016     -1.473815
  H       0.317208      3.332609     -1.151168
  H      -0.314843      4.493328     -2.345462
  C      -1.108170      4.796272     -0.332344
  H      -0.336624      5.585307     -0.157089
  H      -2.023311      5.338194     -0.678503
  C      -1.411155      4.087508      1.014095
  H      -0.495603      3.539213      1.341450
  H      -2.199961      3.312481      0.864092
  C      -1.872372      5.049392      2.141327
  H      -1.094325      5.839298      2.292665
  H      -2.790304      5.587405      1.799160
  C      -2.167957      4.350658      3.500048
  H      -2.659924      5.084328      4.182290
  H      -2.914354      3.534140      3.346654
  C      -0.919495      3.771433      4.213204
  H      -0.162577      4.569421      4.406075
  H      -1.195030      3.308734      5.185284
  H      -0.420378      2.985570      3.599231
138
Coordinates from ORCA-job /wrk/rja7/qm_final_3_replicates/qm_final_1.1/qm/8/freq E -2722.592577151070
  N       0.118942     -1.979310      7.084967
  C       0.597076     -0.638851      6.442303
  H       1.290377     -0.939378      5.625086
  H       1.184116     -0.120691      7.232655
  C      -0.604118     -1.739549      8.421100
  H      -0.700872     -2.722560      8.928499
  H       0.006977     -1.050163      9.037906
  H      -1.611741     -1.322481      8.203300
  C       1.361898     -2.821462      7.338335
  H       1.059622     -3.769733      7.827714
  H       1.857765     -3.040280      6.370375
  H       2.054726     -2.262952      8.001460
  C      -0.824037     -2.736212      6.135099
  H      -0.947463     -3.765343      6.532803
  H      -0.378261     -2.758347      5.121201
  H      -1.798467     -2.202734      6.128971
  C      -0.469349      0.305537      5.851219
  H       0.126417      1.047205      5.256849
  H      -1.097865     -0.240939      5.117150
  P      -2.935577      0.723127      6.915937
  O      -3.484281      1.668464      7.953532
  O      -3.148686     -0.811017      6.934245
  O      -1.228181      0.999031      6.831942
  O      -3.288810      1.257556      5.313356
  C      -4.550490      0.848628      4.761308
  H      -4.937398      1.693214      4.139959
  H      -5.311443      0.639185      5.553525
  C      -4.398435     -0.414854      3.873012
  H      -3.920393     -1.223620      4.463537
  O      -3.521702     -0.040530      2.742566
  C      -2.290025     -0.611527      2.616247
  O      -1.896978     -1.592378      3.247147
  C      -1.458703      0.145173      1.570657
  H      -1.608616      1.233804      1.739387
  H      -1.904721     -0.059270      0.568319
  C      -5.737060     -0.906133      3.296918
  H      -6.170288     -0.178442      2.575329
  H      -6.459062     -1.073015      4.129984
  O      -5.536545     -2.199246      2.642999
  C      -5.813918     -2.313339      1.292680
  O      -6.287417     -1.421877      0.604266
  C      -5.398502     -3.705227      0.791958
  H      -5.712022     -4.467591      1.540817
  H      -5.946193     -3.896034     -0.157810
  C       0.045641     -0.217772      1.578974
  H       0.159575     -1.314445      1.425219
  H       0.470469     -0.003164      2.590440
  C       0.842510      0.571201      0.508706
  H       0.710887      1.663379      0.690258
  H       0.399858      0.375577     -0.496773
  C       2.360927      0.253268      0.453142
  H       2.840625      0.515614      1.429392
  H       2.823402      0.934439     -0.299231
  C       2.700069     -1.220164      0.096500
  H       2.060008     -1.552546     -0.755995
  H       2.432864     -1.882810      0.953671
  C       4.189650     -1.460440     -0.272520
  H       4.384818     -2.560221     -0.298997
  H       4.848279     -1.050526      0.531930
  C       4.622226     -0.846994     -1.643961
  H       5.718755     -1.027552     -1.770468
  H       4.499420      0.258749     -1.627812
  C       3.887863     -1.458973     -2.826138
  H       4.018003     -2.556298     -2.936654
  C       3.098373     -0.824825     -3.729483
  H       2.656410     -1.441764     -4.537585
  C       2.789053      0.668252     -3.788556
  H       2.676761      1.088240     -2.761743
  H       1.802019      0.812527     -4.287697
  C       3.859393      1.513394     -4.550906
  H       4.816664      1.491288     -3.974761
  H       3.528139      2.580836     -4.558469
  C       4.130679      1.045958     -6.003191
  H       3.168733      1.021593     -6.574753
  H       4.502114     -0.004022     -5.979800
  C       5.146796      1.950884     -6.746144
  H       6.111571      1.954944     -6.179252
  H       4.774883      3.004628     -6.709722
  C       5.442894      1.589115     -8.229530
  H       6.064621      2.413551     -8.652989
  H       4.492517      1.600984     -8.819247
  C       6.184430      0.237857     -8.474132
  H       6.907945      0.055599     -7.639999
  H       6.813360      0.335130     -9.392781
  C       5.275125     -1.008148     -8.655125
  H       4.574361     -0.822089     -9.506243
  H       4.626944     -1.150371     -7.759398
  C       6.076055     -2.307470     -8.916657
  H       6.754754     -2.542318     -8.062728
  H       6.712078     -2.217807     -9.828916
  H       5.403059     -3.183976     -9.061205
  C      -3.857199     -3.814521      0.558151
  H      -3.618753     -4.875438      0.303700
  H      -3.329272     -3.594461      1.515628
  C      -3.327198     -2.881708     -0.561124
  H      -3.609608     -1.826152     -0.334245
  H      -3.845277     -3.125057     -1.520262
  C      -1.788462     -2.959749     -0.750365
  H      -1.494318     -3.997689     -1.046005
  H      -1.300753     -2.777024      0.236651
  C      -1.232297     -1.941864     -1.784353
  H      -1.680989     -0.940579     -1.579742
  H      -0.133544     -1.822860     -1.633292
  C      -1.472616     -2.303667     -3.273010
  H      -0.814292     -3.160748     -3.554712
  H      -2.520558     -2.656762     -3.428613
  C      -1.201753     -1.097068     -4.231300
  H      -1.080016     -1.489367     -5.271176
  H      -0.230494     -0.621681     -3.963129
  C      -2.343895     -0.092630     -4.230883
  H      -3.301940     -0.502513     -4.614723
  C      -2.354954      1.199380     -3.819396
  H      -3.316440      1.746508     -3.915851
  C      -1.223909      2.034736     -3.240401
  H      -0.900119      2.784047     -4.008707
  H      -0.324776      1.412910     -3.024532
  C      -1.657086      2.815765     -1.961760
  H      -1.882553      2.084373     -1.150756
  H      -2.621028      3.341103     -2.174198
  C      -0.612745      3.857463     -1.479685
  H       0.318490      3.329040     -1.157272
  H      -0.314021      4.489124     -2.351946
  C      -1.106110      4.793538     -0.338516
  H      -0.334375      5.582572     -0.164033
  H      -2.021258      5.335448     -0.684668
  C      -1.408653      4.085714      1.008515
  H      -0.492744      3.538434      1.336592
  H      -2.196848      3.309993      0.858948
  C      -1.870948      5.048097      2.134869
  H      -1.093574      5.838708      2.285980
  H      -2.789120      5.585217      1.791935
  C      -2.166521      4.350067      3.493971
  H      -2.659822      5.083646      4.175404
  H      -2.911812      3.532438      3.340796
  C      -0.917685      3.772913      4.208163
  H      -0.161526      4.571859      4.400046
  H      -1.193044      3.311255      5.180826
  H      -0.417834      2.986818      3.595102
138
Coordinates from ORCA-job /wrk/rja7/qm_final_3_replicates/qm_final_1.1/qm/8/freq E -2722.592579209328
  N       0.120985     -1.975976      7.080992
  C       0.597030     -0.636986      6.433513
  H       1.286539     -0.939494      5.613808
  H       1.187756     -0.117719      7.220343
  C      -0.596346     -1.732986      8.419607
  H      -0.691903     -2.714951      8.929261
  H       0.018044     -1.043075      9.032534
  H      -1.604546     -1.315535      8.205314
  C       1.364685     -2.818045      7.331045
  H       1.064134     -3.765013      7.823969
  H       1.856276     -3.039369      6.361467
  H       2.060607     -2.258162      7.989757
  C      -0.826324     -2.734641      6.136887
  H      -0.948142     -3.762926      6.537241
  H      -0.385299     -2.758934      5.120958
  H      -1.800671     -2.200944      6.134310
  C      -0.471733      0.306551      5.845455
  H       0.121124      1.047304      5.247143
  H      -1.103299     -0.241244      5.115084
  P      -2.934130      0.726604      6.917899
  O      -3.478784      1.673921      7.955778
  O      -3.148206     -0.807400      6.939069
  O      -1.226599      1.001168      6.828436
  O      -3.291620      1.258922      5.315600
  C      -4.553837      0.848340      4.766172
  H      -4.942905      1.692360      4.145377
  H      -5.312930      0.637947      5.559900
  C      -4.402129     -0.415174      3.877763
  H      -3.923761     -1.223964      4.468059
  O      -3.526176     -0.040939      2.746983
  C      -2.295891     -0.614316      2.618143
  O      -1.903806     -1.596481      3.247603
  C      -1.464900      0.141335      1.571607
  H      -1.613848      1.230206      1.739760
  H      -1.912016     -0.063493      0.569830
  C      -5.741226     -0.906484      3.302598
  H      -6.175598     -0.178065      2.582419
  H      -6.461846     -1.074655      4.136581
  O      -5.541751     -2.198867      2.647130
  C      -5.811438     -2.309771      1.294974
  O      -6.278116     -1.415725      0.605261
  C      -5.397568     -3.702225      0.794553
  H      -5.711272     -4.464243      1.543598
  H      -5.945487     -3.892757     -0.155157
  C       0.039159     -0.222942      1.578750
  H       0.152005     -1.319679      1.424773
  H       0.464874     -0.008822      2.589959
  C       0.835827      0.565635      0.508043
  H       0.703965      1.657745      0.689321
  H       0.393094      0.369625     -0.497219
  C       2.354275      0.248114      0.452193
  H       2.834387      0.510512      1.428236
  H       2.816069      0.929420     -0.300452
  C       2.693668     -1.225228      0.095401
  H       2.054113     -1.557311     -0.757591
  H       2.425859     -1.888093      0.952231
  C       4.183450     -1.465498     -0.272792
  H       4.377705     -2.565367     -0.302355
  H       4.841450     -1.058657      0.533724
  C       4.618313     -0.848260     -1.641806
  H       5.714449     -1.031266     -1.768372
  H       4.498670      0.257747     -1.621893
  C       3.883247     -1.454215     -2.826687
  H       4.008853     -2.551790     -2.939752
  C       3.098020     -0.814474     -3.729864
  H       2.654649     -1.427568     -4.540121
  C       2.795143      0.680059     -3.786436
  H       2.686960      1.099216     -2.758888
  H       1.807517      0.829187     -4.283071
  C       3.867529      1.521691     -4.550050
  H       4.824942      1.497046     -3.974211
  H       3.539478      2.590102     -4.558002
  C       4.136800      1.052607     -6.002179
  H       3.174351      1.029510     -6.572979
  H       4.506211      0.001952     -5.978084
  C       5.153850      1.954925     -6.747093
  H       6.119250      1.957645     -6.181226
  H       4.783986      3.009412     -6.711320
  C       5.447252      1.591010     -8.230576
  H       6.069144      2.414312     -8.656080
  H       4.495810      1.603168     -8.818548
  C       6.187004      0.238734     -8.474735
  H       6.912819      0.057533     -7.642373
  H       6.813252      0.333527     -9.395464
  C       5.276258     -1.007063     -8.650171
  H       4.572593     -0.822265     -9.499149
  H       4.631378     -1.147241     -7.751756
  C       6.075516     -2.307308     -8.912289
  H       6.758425     -2.540199     -8.061211
  H       6.706840     -2.220208     -9.828056
  H       5.401502     -3.183928     -9.051293
  C      -3.856333     -3.812496      0.559999
  H      -3.618680     -4.873857      0.306705
  H      -3.327771     -3.591685      1.516989
  C      -3.326285     -2.881212     -0.560580
  H      -3.607830     -1.825285     -0.334582
  H      -3.845064     -3.125060     -1.519190
  C      -1.787680     -2.960581     -0.750735
  H      -1.494562     -3.999023     -1.045627
  H      -1.299190     -2.777317      0.235788
  C      -1.231245     -1.943935     -1.785806
  H      -1.678920     -0.942102     -1.581651
  H      -0.132302     -1.825853     -1.635572
  C      -1.472752     -2.306403     -3.274145
  H      -0.814760     -3.163722     -3.555962
  H      -2.520815     -2.659425     -3.428864
  C      -1.202335     -1.100144     -4.233128
  H      -1.081157     -1.492763     -5.272933
  H      -0.230856     -0.624702     -3.965701
  C      -2.344471     -0.095601     -4.232288
  H      -3.302646     -0.505317     -4.615918
  C      -2.355317      1.196244     -3.820146
  H      -3.316822      1.743455     -3.915849
  C      -1.223929      2.031263     -3.241349
  H      -0.900087      2.780635     -4.009586
  H      -0.324952      1.409137     -3.025802
  C      -1.656612      2.812280     -1.962482
  H      -1.881423      2.080795     -1.151443
  H      -2.620807      3.337353     -2.174399
  C      -0.612324      3.854210     -1.480686
  H       0.318903      3.325921     -1.158146
  H      -0.313650      4.485684     -2.353100
  C      -1.105400      4.790332     -0.339382
  H      -0.333529      5.579279     -0.165085
  H      -2.020575      5.332396     -0.685218
  C      -1.407568      4.082465      1.007744
  H      -0.491708      3.534817      1.335311
  H      -2.196077      3.307047      0.858345
  C      -1.868866      5.044747      2.134618
  H      -1.091219      5.835176      2.285266
  H      -2.787165      5.582132      1.792411
  C      -2.163712      4.346577      3.493866
  H      -2.656183      5.080196      4.175805
  H      -2.909476      3.529273      3.341230
  C      -0.914542      3.768731      4.206989
  H      -0.157824      4.567286      4.398297
  H      -1.189147      3.307022      5.179806
  H      -0.415702      2.982660      3.593178
138
Coordinates from ORCA-job /wrk/rja7/qm_final_3_replicates/qm_final_1.1/qm/8/freq E -2722.592581294365
  N       0.122350     -1.973776      7.081912
  C       0.598537     -0.637022      6.429732
  H       1.285415     -0.942648      5.608985
  H       1.191934     -0.116624      7.213759
  C      -0.590310     -1.726554      8.422257
  H      -0.685761     -2.707257      8.934354
  H       0.027295     -1.036353      9.031608
  H      -1.598595     -1.308132      8.210417
  C       1.365569     -2.817125      7.330113
  H       1.065197     -3.762315      7.826522
  H       1.853634     -3.041817      6.359520
  H       2.064541     -2.256484      7.984926
  C      -0.829199     -2.733264      6.142809
  H      -0.951380     -3.760326      6.546178
  H      -0.391682     -2.760904      5.125433
  H      -1.802721     -2.198022      6.142254
  C      -0.470815      0.305970      5.842082
  H       0.120714      1.044474      5.239739
  H      -1.104836     -0.243538      5.115226
  P      -2.930311      0.731572      6.918854
  O      -3.471297      1.682604      7.955214
  O      -3.146283     -0.802137      6.944741
  O      -1.222388      1.003577      6.825423
  O      -3.290178      1.259981      5.315877
  C      -4.552816      0.848238      4.768394
  H      -4.943178      1.691721      4.147680
  H      -5.310641      0.637583      5.563248
  C      -4.401761     -0.415659      3.880293
  H      -3.923023     -1.224259      4.470580
  O      -3.526842     -0.041960      2.748801
  C      -2.297759     -0.617422      2.617836
  O      -1.905986     -1.599681      3.247333
  C      -1.467254      0.136665      1.569809
  H      -1.616767      1.225856      1.735493
  H      -1.914338     -0.070722      0.568528
  C      -5.741656     -0.907032      3.306802
  H      -6.177697     -0.177938      2.588301
  H      -6.460367     -1.076338      4.142202
  O      -5.543729     -2.198631      2.649665
  C      -5.808353     -2.306279      1.296231
  O      -6.268735     -1.409289      0.606133
  C      -5.397507     -3.699386      0.795183
  H      -5.711685     -4.461151      1.544206
  H      -5.946347     -3.888496     -0.154277
  C       0.036942     -0.227051      1.577870
  H       0.150163     -1.323865      1.424858
  H       0.462072     -0.012015      2.589125
  C       0.833980      0.560962      0.507004
  H       0.702042      1.653116      0.687934
  H       0.391662      0.364665     -0.498363
  C       2.352303      0.243099      0.451599
  H       2.832469      0.505036      1.427740
  H       2.814185      0.924470     -0.300891
  C       2.690869     -1.230347      0.094514
  H       2.050447     -1.561919     -0.758010
  H       2.423259     -1.893148      0.951456
  C       4.180075     -1.471591     -0.275073
  H       4.372702     -2.571662     -0.307629
  H       4.839067     -1.067822      0.532172
  C       4.615014     -0.851328     -1.642656
  H       5.710182     -1.038357     -1.771825
  H       4.500116      0.255083     -1.618699
  C       3.875461     -1.450262     -2.828315
  H       3.996186     -2.547968     -2.945226
  C       3.091620     -0.804204     -3.728213
  H       2.644620     -1.412677     -4.539960
  C       2.795094      0.691840     -3.779841
  H       2.691562      1.108496     -2.750839
  H       1.806587      0.846555     -4.273060
  C       3.869184      1.530960     -4.544005
  H       4.826707      1.503264     -3.968474
  H       3.544255      2.600307     -4.551297
  C       4.136492      1.061509     -5.996325
  H       3.173942      1.041657     -6.567096
  H       4.502403      0.009685     -5.972276
  C       5.156407      1.960424     -6.741453
  H       6.121661      1.960296     -6.175321
  H       4.789815      3.016065     -6.706212
  C       5.448861      1.594925     -8.224824
  H       6.071642      2.417160     -8.651061
  H       4.497158      1.607922     -8.812351
  C       6.186872      0.241668     -8.468510
  H       6.913394      0.060541     -7.636754
  H       6.812176      0.334943     -9.390037
  C       5.274878     -1.003561     -8.641980
  H       4.570262     -0.818777     -9.490145
  H       4.631248     -1.142678     -7.742567
  C       6.072784     -2.304548     -8.904511
  H       6.757897     -2.536872     -8.055076
  H       6.701526     -2.218912     -9.822203
  H       5.397859     -3.180908     -9.040717
  C      -3.856650     -3.811915      0.558906
  H      -3.620886     -4.873679      0.305610
  H      -3.326553     -3.591572      1.515177
  C      -3.326692     -2.881549     -0.562514
  H      -3.606324     -1.825207     -0.336111
  H      -3.847114     -3.124460     -1.520454
  C      -1.788480     -2.963416     -0.754939
  H      -1.497522     -4.002388     -1.050054
  H      -1.298269     -2.780787      0.230810
  C      -1.231872     -1.947578     -1.790708
  H      -1.678196     -0.945165     -1.586374
  H      -0.132655     -1.830703     -1.641570
  C      -1.475093     -2.310274     -3.278761
  H      -0.817716     -3.167942     -3.561008
  H      -2.523427     -2.662852     -3.432450
  C      -1.204980     -1.104391     -4.238447
  H      -1.084814     -1.497397     -5.278206
  H      -0.233095     -0.629239     -3.971977
  C      -2.346714     -0.099352     -4.236619
  H      -3.305246     -0.508319     -4.620085
  C      -2.356591      1.192179     -3.823403
  H      -3.317812      1.740070     -3.918005
  C      -1.224096      2.025963     -3.244999
  H      -0.899904      2.775186     -4.013247
  H      -0.325678      1.402793     -3.030174
  C      -1.655225      2.807156     -1.965744
  H      -1.879701      2.075720     -1.154569
  H      -2.619351      3.332695     -2.176786
  C      -0.610160      3.848678     -1.484770
  H       0.320654      3.320093     -1.161512
  H      -0.310953      4.479149     -2.357725
  C      -1.102707      4.785996     -0.344232
  H      -0.330660      5.574988     -0.170858
  H      -2.017870      5.327967     -0.690222
  C      -1.404412      4.079323      1.003624
  H      -0.488105      3.532776      1.331813
  H      -2.192266      3.303076      0.854875
  C      -1.866582      5.042330      2.129525
  H      -1.089800      5.833806      2.279135
  H      -2.785552      5.578319      1.786915
  C      -2.160356      4.345318      3.489594
  H      -2.653798      5.078957      4.170772
  H      -2.904943      3.526771      3.338026
  C      -0.910250      3.769982      4.203149
  H      -0.154705      4.569820      4.393736
  H      -1.183997      3.308678      5.176387
  H      -0.410348      2.984301      3.589720
138
Coordinates from ORCA-job /wrk/rja7/qm_final_3_replicates/qm_final_1.1/qm/8/freq E -2722.592582596578
  N       0.126087     -1.969902      7.080347
  C       0.601724     -0.635555      6.422802
  H       1.285668     -0.944413      5.600848
  H       1.197980     -0.113541      7.203585
  C      -0.582205     -1.717958      8.422144
  H      -0.677110     -2.697102      8.937294
  H       0.038157     -1.026743      9.027526
  H      -1.590690     -1.299079      8.212257
  C       1.369257     -2.813730      7.327361
  H       1.069535     -3.756998      7.827789
  H       1.854049     -3.042125      6.355990
  H       2.070848     -2.251591      7.978054
  C      -0.829098     -2.731209      6.146475
  H      -0.951546     -3.756742      6.553680
  H      -0.394524     -2.762952      5.127931
  H      -1.801964     -2.194720      6.146885
  C      -0.468643      0.306621      5.835792
  H       0.121436      1.042970      5.229380
  H      -1.105202     -0.244687      5.112501
  P      -2.924890      0.738016      6.917785
  O      -3.461682      1.692349      7.953282
  O      -3.142854     -0.795366      6.947819
  O      -1.216704      1.007423      6.819512
  O      -3.287691      1.263260      5.314584
  C      -4.551047      0.850796      4.769406
  H      -4.942401      1.693723      4.148558
  H      -5.307656      0.640435      5.565468
  C      -4.401124     -0.413754      3.882036
  H      -3.922651     -1.222298      4.472589
  O      -3.526422     -0.041365      2.750002
  C      -2.298406     -0.619083      2.618120
  O      -1.907763     -1.601597      3.247927
  C      -1.467646      0.132582      1.568473
  H      -1.616008      1.222148      1.732577
  H      -1.915280     -0.075910      0.567670
  C      -5.741955     -0.904486      3.309984
  H      -6.178705     -0.175000      2.592295
  H      -6.459553     -1.073481      4.146425
  O      -5.545821     -2.195980      2.652413
  C      -5.812021     -2.303004      1.299225
  O      -6.270899     -1.404875      0.609618
  C      -5.404043     -3.696747      0.797662
  H      -5.719179     -4.458041      1.546759
  H      -5.953750     -3.884525     -0.151555
  C       0.036200     -0.232668      1.576823
  H       0.148343     -1.329619      1.423941
  H       0.461216     -0.018062      2.588198
  C       0.834731      0.554656      0.506519
  H       0.704297      1.646879      0.688299
  H       0.392721      0.359829     -0.499318
  C       2.352606      0.234433      0.451537
  H       2.832520      0.493589      1.428531
  H       2.816074      0.916694     -0.299117
  C       2.688790     -1.238770      0.091231
  H       2.047309     -1.567580     -0.761563
  H       2.420578     -1.902868      0.946973
  C       4.177372     -1.481828     -0.279505
  H       4.367765     -2.582187     -0.315030
  H       4.837367     -1.081478      0.528630
  C       4.613448     -0.858645     -1.645469
  H       5.707999     -1.048596     -1.775535
  H       4.501878      0.248029     -1.618037
  C       3.871822     -1.451844     -2.832687
  H       3.990609     -2.549301     -2.953817
  C       3.088120     -0.801166     -3.729365
  H       2.639420     -1.405925     -4.542938
  C       2.793948      0.695604     -3.775248
  H       2.691293      1.108439     -2.744651
  H       1.805394      0.853667     -4.267296
  C       3.868981      1.535870     -4.536837
  H       4.826085      1.506315     -3.960665
  H       3.544669      2.605415     -4.541833
  C       4.136969      1.069343     -5.989930
  H       3.174982      1.051519     -6.561716
  H       4.501890      0.017156     -5.967586
  C       5.158252      1.968775     -6.732592
  H       6.122817      1.967342     -6.165290
  H       4.792195      3.024556     -6.696325
  C       5.452347      1.604959     -8.216094
  H       6.075480      2.427716     -8.640774
  H       4.501250      1.618385     -8.804611
  C       6.190839      0.252101     -8.460374
  H       6.916848      0.070861     -7.628209
  H       6.816678      0.346275     -9.381459
  C       5.279605     -0.993493     -8.635464
  H       4.575625     -0.808562     -9.484122
  H       4.635356     -1.133434     -7.736632
  C       6.078519     -2.293839     -8.898040
  H       6.763408     -2.526103     -8.048417
  H       6.707568     -2.207434     -9.815458
  H       5.404201     -3.170565     -9.034943
  C      -3.863603     -3.812026      0.560368
  H      -3.629890     -4.874135      0.306603
  H      -3.332286     -3.592762      1.516197
  C      -3.333029     -2.882245     -0.561209
  H      -3.610847     -1.825523     -0.334276
  H      -3.854431     -3.124010     -1.518914
  C      -1.795114     -2.966457     -0.754711
  H      -1.505943     -4.006108     -1.049140
  H      -1.303913     -2.783709      0.230530
  C      -1.237998     -1.952208     -1.791739
  H      -1.683166     -0.949132     -1.588206
  H      -0.138582     -1.836212     -1.643356
  C      -1.482525     -2.316435     -3.279213
  H      -0.826241     -3.175179     -3.560781
  H      -2.531334     -2.668056     -3.431948
  C      -1.211599     -1.112051     -4.240628
  H      -1.092614     -1.506594     -5.279917
  H      -0.238994     -0.637746     -3.975300
  C      -2.352113     -0.105598     -4.239090
  H      -3.311178     -0.513337     -4.622535
  C      -2.360184      1.185932     -3.825795
  H      -3.320598      1.735276     -3.920204
  C      -1.226192      2.017875     -3.247653
  H      -0.900171      2.765803     -4.016404
  H      -0.329242      1.392763     -3.032342
  C      -1.655840      2.800830     -1.969018
  H      -1.881944      2.070377     -1.157376
  H      -2.618875      3.328192     -2.180473
  C      -0.608774      3.840631     -1.488683
  H       0.320720      3.310559     -1.164029
  H      -0.307614      4.469342     -2.362231
  C      -1.100041      4.780393     -0.349596
  H      -0.326900      5.568558     -0.177312
  H      -2.014430      5.323179     -0.696347
  C      -1.402590      4.076038      0.999263
  H      -0.486923      3.528787      1.328040
  H      -2.191443      3.300591      0.851674
  C      -1.863304      5.041073      2.123995
  H      -1.085688      5.832000      2.272175
  H      -2.781930      5.577482      1.781112
  C      -2.157015      4.346037      3.485059
  H      -2.649967      5.080738      4.165472
  H      -2.901966      3.527572      3.334733
  C      -0.906939      3.770996      4.198919
  H      -0.151050      4.570711      4.388692
  H      -1.180670      3.310751      5.172663
  H      -0.407401      2.984619      3.586027
138
Coordinates from ORCA-job /wrk/rja7/qm_final_3_replicates/qm_final_1.1/qm/8/freq E -2722.592583649277
  N       0.126363     -1.966999      7.079874
  C       0.601863     -0.635113      6.417226
  H       1.282699     -0.947208      5.593945
  H       1.201180     -0.111827      7.194800
  C      -0.577470     -1.710339      8.423131
  H      -0.671957     -2.687938      8.941261
  H       0.045772     -1.018263      9.024558
  H      -1.586055     -1.290795      8.215285
  C       1.369171     -2.811788      7.325593
  H       1.069726     -3.753190      7.829672
  H       1.850708     -3.043701      6.353436
  H       2.073469     -2.248646      7.972469
  C      -0.832650     -2.729721      6.151136
  H      -0.955708     -3.753696      6.562095
  H      -0.400952     -2.765640      5.131486
  H      -1.804680     -2.191639      6.152441
  C      -0.469271      0.306660      5.831157
  H       0.119516      1.041019      5.221101
  H      -1.108305     -0.246054      5.111192
  P      -2.922478      0.743152      6.917470
  O      -3.456130      1.700715      7.951605
  O      -3.142055     -0.789895      6.951854
  O      -1.214071      1.010241      6.815319
  O      -3.287346      1.264870      5.313724
  C      -4.551056      0.851439      4.770212
  H      -4.943474      1.693717      4.149142
  H      -5.306797      0.641060      5.567081
  C      -4.401311     -0.413628      3.883584
  H      -3.922720     -1.221912      4.474384
  O      -3.526847     -0.041879      2.751147
  C      -2.299702     -0.621227      2.618158
  O      -1.909627     -1.604004      3.247917
  C      -1.468932      0.129266      1.567653
  H      -1.617201      1.219023      1.730629
  H      -1.916523     -0.080281      0.567060
  C      -5.742331     -0.904609      3.312071
  H      -6.179565     -0.174987      2.594804
  H      -6.459552     -1.073882      4.148778
  O      -5.546202     -2.195922      2.654187
  C      -5.814872     -2.303034      1.301450
  O      -6.275322     -1.405036      0.612727
  C      -5.407886     -3.696819      0.799190
  H      -5.723111     -4.458044      1.548339
  H      -5.958282     -3.884077     -0.149732
  C       0.034877     -0.236073      1.576596
  H       0.147042     -1.333224      1.424967
  H       0.459774     -0.020339      2.587765
  C       0.833647      0.550010      0.505646
  H       0.703278      1.642452      0.686320
  H       0.391983      0.354335     -0.500204
  C       2.351528      0.229486      0.451471
  H       2.830763      0.488291      1.428874
  H       2.815685      0.911996     -0.298489
  C       2.687545     -1.243610      0.090642
  H       2.045705     -1.572156     -0.761983
  H       2.419570     -1.907911      0.946323
  C       4.175976     -1.486837     -0.280533
  H       4.365687     -2.587239     -0.317917
  H       4.836217     -1.088144      0.528224
  C       4.612649     -0.861525     -1.645413
  H       5.706795     -1.053304     -1.776103
  H       4.503041      0.245282     -1.615432
  C       3.869484     -1.450714     -2.833619
  H       3.986361     -2.548105     -2.957202
  C       3.086410     -0.796770     -3.728451
  H       2.636310     -1.399100     -4.543045
  C       2.794963      0.700657     -3.771242
  H       2.693646      1.111799     -2.739867
  H       1.806311      0.861433     -4.262271
  C       3.870806      1.540340     -4.532272
  H       4.828203      1.509104     -3.956670
  H       3.547717      2.610275     -4.535818
  C       4.137438      1.075144     -5.986021
  H       3.175104      1.058721     -6.557254
  H       4.501547      0.022652     -5.965001
  C       5.158928      1.974526     -6.728474
  H       6.123630      1.972572     -6.161405
  H       4.793240      3.030420     -6.691619
  C       5.452655      1.611318     -8.212187
  H       6.075574      2.434282     -8.636756
  H       4.501414      1.624809     -8.800477
  C       6.191322      0.258678     -8.457212
  H       6.917277      0.077108     -7.625076
  H       6.817243      0.353646     -9.378169
  C       5.280413     -0.986991     -8.633458
  H       4.576721     -0.801640     -9.482259
  H       4.635819     -1.127668     -7.734977
  C       6.079760     -2.286958     -8.896555
  H       6.764210     -2.519697     -8.046711
  H       6.709340     -2.199752     -9.813529
  H       5.405721     -3.163743     -9.034486
  C      -3.867668     -3.813264      0.561052
  H      -3.634985     -4.875504      0.306838
  H      -3.335642     -3.594746      1.516635
  C      -3.336808     -2.883694     -0.560554
  H      -3.613842     -1.826829     -0.333343
  H      -3.858601     -3.124949     -1.518184
  C      -1.798990     -2.968847     -0.754450
  H      -1.510448     -4.008754     -1.048573
  H      -1.307470     -2.786048      0.230621
  C      -1.241674     -1.955220     -1.792033
  H      -1.686946     -0.952056     -1.589241
  H      -0.142290     -1.838952     -1.643551
  C      -1.485887     -2.320567     -3.279270
  H      -0.829916     -3.179845     -3.559940
  H      -2.534835     -2.671843     -3.432008
  C      -1.214210     -1.117192     -4.241696
  H      -1.096143     -1.512764     -5.280691
  H      -0.241035     -0.643656     -3.977098
  C      -2.353730     -0.109640     -4.240369
  H      -3.313262     -0.516505     -4.623570
  C      -2.360372      1.181957     -3.827313
  H      -3.320167      1.732400     -3.921627
  C      -1.225217      2.012642     -3.249591
  H      -0.898402      2.759925     -4.018626
  H      -0.329059      1.386306     -3.034494
  C      -1.653486      2.796352     -1.970992
  H      -1.879752      2.066358     -1.158952
  H      -2.616214      3.324421     -2.182089
  C      -0.605433      3.835596     -1.491619
  H       0.323687      3.305104     -1.166561
  H      -0.303816      4.463363     -2.365683
  C      -1.095972      4.776598     -0.353252
  H      -0.322566      5.564689     -0.181851
  H      -2.010300      5.319352     -0.700207
  C      -1.398373      4.073454      0.996269
  H      -0.482630      3.526452      1.325266
  H      -2.187302      3.297915      0.849537
  C      -1.858776      5.039535      2.120230
  H      -1.081014      5.830468      2.267614
  H      -2.777376      5.575790      1.777060
  C      -2.152277      4.345684      3.481932
  H      -2.645240      5.080905      4.161772
  H      -2.897135      3.526990      3.332354
  C      -0.902026      3.771400      4.196043
  H      -0.146296      4.571360      4.385407
  H      -1.175513      3.311625      5.170086
  H      -0.402323      2.984805      3.583532
138
Coordinates from ORCA-job /wrk/rja7/qm_final_3_replicates/qm_final_1.1/qm/8/freq E -2722.592584636095
  N       0.125985     -1.962765      7.081104
  C       0.602019     -0.634529      6.411517
  H       1.279077     -0.951407      5.587004
  H       1.205107     -0.109435      7.184939
  C      -0.572382     -1.699221      8.425896
  H      -0.666867     -2.674564      8.948225
  H       0.054682     -1.006083      9.022107
  H      -1.580840     -1.278430      8.220234
  C       1.367906     -2.809208      7.325884
  H       1.068308     -3.747911      7.834860
  H       1.845452     -3.046135      6.352969
  H       2.075664     -2.244861      7.967896
  C      -0.837972     -2.727243      6.159014
  H      -0.962193     -3.749028      6.575069
  H      -0.409852     -2.768963      5.138035
  H      -1.808757     -2.186798      6.161254
  C      -0.469435      0.306777      5.825545
  H       0.118303      1.037899      5.210607
  H      -1.111554     -0.247929      5.109939
  P      -2.919020      0.751297      6.916038
  O      -3.449019      1.713698      7.947555
  O      -3.140914     -0.781201      6.957010
  O      -1.210280      1.014994      6.809323
  O      -3.285986      1.267467      5.311115
  C      -4.550377      0.853115      4.770031
  H      -4.943966      1.694433      4.148390
  H      -5.304983      0.643395      5.568131
  C      -4.401463     -0.413059      3.884891
  H      -3.922970     -1.221012      4.476234
  O      -3.527190     -0.042889      2.751712
  C      -2.300997     -0.624120      2.618027
  O      -1.911805     -1.607059      3.248091
  C      -1.469823      0.124904      1.566729
  H      -1.617089      1.214920      1.729038
  H      -1.917616     -0.084904      0.566306
  C      -5.742900     -0.903983      3.314249
  H      -6.179903     -0.174628      2.596587
  H      -6.460117     -1.072260      4.151168
  O      -5.547455     -2.195930      2.657282
  C      -5.819412     -2.304416      1.305238
  O      -6.282222     -1.407349      0.616886
  C      -5.412881     -3.698379      0.803161
  H      -5.727774     -4.459215      1.552880
  H      -5.964007     -3.886008     -0.145251
  C       0.033701     -0.241633      1.575729
  H       0.145148     -1.339019      1.425016
  H       0.458985     -0.025265      2.586596
  C       0.832814      0.543121      0.504174
  H       0.703283      1.635785      0.684155
  H       0.391049      0.347231     -0.501605
  C       2.350486      0.221485      0.450282
  H       2.829203      0.478989      1.428284
  H       2.815720      0.904594     -0.298439
  C       2.685586     -1.251351      0.087668
  H       2.042914     -1.578762     -0.764763
  H       2.418068     -1.916497      0.942865
  C       4.173670     -1.494941     -0.284627
  H       4.362431     -2.595408     -0.324504
  H       4.834567     -1.098389      0.524644
  C       4.610659     -0.866898     -1.648263
  H       5.704412     -1.060344     -1.779661
  H       4.502792      0.239993     -1.615187
  C       3.865947     -1.451620     -2.837641
  H       3.980694     -2.548943     -2.963880
  C       3.083808     -0.794047     -3.730600
  H       2.632402     -1.393704     -4.546435
  C       2.795099      0.704018     -3.769735
  H       2.693601      1.112897     -2.737501
  H       1.807126      0.867869     -4.261141
  C       3.872607      1.543754     -4.528199
  H       4.829854      1.510374     -3.952480
  H       3.550712      2.614082     -4.529477
  C       4.139297      1.081532     -5.982869
  H       3.177039      1.066349     -6.554251
  H       4.503457      0.028990     -5.964168
  C       5.160738      1.982616     -6.723277
  H       6.125110      1.980717     -6.155637
  H       4.794254      3.038200     -6.685139
  C       5.455769      1.621640     -8.207188
  H       6.078697      2.445334     -8.630278
  H       4.505012      1.635456     -8.796255
  C       6.195135      0.269497     -8.453206
  H       6.919705      0.086797     -7.620108
  H       6.822654      0.366212     -9.372900
  C       5.284772     -0.975989     -8.633133
  H       4.583039     -0.789597     -9.483337
  H       4.637932     -1.117855     -7.736400
  C       6.084877     -2.275551     -8.895892
  H       6.766315     -2.509853     -8.044052
  H       6.717771     -2.186709     -9.810413
  H       5.411290     -3.152062     -9.037720
  C      -3.872873     -3.815455      0.564098
  H      -3.640758     -4.877887      0.310122
  H      -3.340159     -3.596831      1.519262
  C      -3.342309     -2.886599     -0.558228
  H      -3.619022     -1.829542     -0.331469
  H      -3.864564     -3.128296     -1.515497
  C      -1.804586     -2.972126     -0.752784
  H      -1.516283     -4.012223     -1.046478
  H      -1.312606     -2.788935      0.231973
  C      -1.247733     -1.959167     -1.791344
  H      -1.693444     -0.956046     -1.589367
  H      -0.148384     -1.842126     -1.643131
  C      -1.491949     -2.325912     -3.278176
  H      -0.836758     -3.186141     -3.557793
  H      -2.541239     -2.676332     -3.430701
  C      -1.218956     -1.123883     -4.241878
  H      -1.102317     -1.520793     -5.280522
  H      -0.244841     -0.651702     -3.978283
  C      -2.356865     -0.114535     -4.240864
  H      -3.317095     -0.520091     -4.623725
  C      -2.361452      1.177285     -3.828502
  H      -3.320335      1.729276     -3.923066
  C      -1.224887      2.006424     -3.251245
  H      -0.896913      2.752711     -4.020744
  H      -0.329786      1.378592     -3.036067
  C      -1.651688      2.791477     -1.973011
  H      -1.878492      2.062366     -1.160329
  H      -2.613903      3.320507     -2.184084
  C      -0.602365      3.830031     -1.494842
  H       0.326366      3.298978     -1.169657
  H      -0.300391      4.456799     -2.369497
  C      -1.091723      4.772374     -0.357073
  H      -0.317926      5.560297     -0.186767
  H      -2.006015      5.315169     -0.704070
  C      -1.393744      4.070560      0.993243
  H      -0.477941      3.523649      1.322250
  H      -2.182917      3.295061      0.847629
  C      -1.853378      5.037844      2.116473
  H      -1.075419      5.828819      2.262612
  H      -2.772103      5.573869      1.773306
  C      -2.145970      4.345373      3.479086
  H      -2.638599      5.081207      4.158501
  H      -2.890774      3.526412      3.330729
  C      -0.895137      3.772011      4.192829
  H      -0.139407      4.572247      4.381046
  H      -1.167764      3.313034      5.167486
  H      -0.395654      2.984963      3.580677
138
Coordinates from ORCA-job /wrk/rja7/qm_final_3_replicates/qm_final_1.1/qm/8/freq E -2722.592585024422
  N       0.127706     -1.961285      7.079024
  C       0.603022     -0.634764      6.405521
  H       1.277497     -0.953833      5.579736
  H       1.208521     -0.108644      7.176352
  C      -0.567262     -1.694312      8.424916
  H      -0.661405     -2.668505      8.949427
  H       0.061991     -1.000596      9.018144
  H      -1.575783     -1.272958      8.220839
  C       1.369708     -2.807953      7.322791
  H       1.070807     -3.745339      7.834593
  H       1.844787     -3.047365      6.349277
  H       2.079302     -2.242522      7.961799
  C      -0.838954     -2.727173      6.160981
  H      -0.963131     -3.747810      6.579879
  H      -0.413265     -2.771863      5.139087
  H      -1.809300     -2.185884      6.164241
  C      -0.469357      0.306009      5.820528
  H       0.117123      1.035657      5.202622
  H      -1.113510     -0.249875      5.107701
  P      -2.916396      0.754176      6.914935
  O      -3.444031      1.718613      7.945758
  O      -3.139244     -0.778062      6.959012
  O      -1.207571      1.016356      6.804794
  O      -3.285602      1.267974      5.309784
  C      -4.550744      0.853326      4.770791
  H      -4.945526      1.694377      4.149533
  H      -5.304094      0.643554      5.570056
  C      -4.402894     -0.413062      3.885786
  H      -3.924554     -1.221253      4.476939
  O      -3.528835     -0.043602      2.752175
  C      -2.302986     -0.625461      2.618297
  O      -1.914288     -1.608685      3.248223
  C      -1.471610      0.123072      1.566845
  H      -1.618492      1.213172      1.728977
  H      -1.919362     -0.086753      0.566409
  C      -5.744636     -0.903275      3.315373
  H      -6.180919     -0.173896      2.597314
  H      -6.462225     -1.070741      4.152142
  O      -5.549623     -2.195564      2.658834
  C      -5.823339     -2.304781      1.307183
  O      -6.287399     -1.408220      0.619012
  C      -5.417200     -3.698889      0.805279
  H      -5.732297     -4.459530      1.555129
  H      -5.968483     -3.886576     -0.143029
  C       0.031816     -0.243863      1.575884
  H       0.143115     -1.341316      1.425533
  H       0.457259     -0.027184      2.586619
  C       0.830907      0.540491      0.504069
  H       0.701519      1.633224      0.683642
  H       0.389041      0.344251     -0.501594
  C       2.348510      0.218674      0.450263
  H       2.827055      0.475974      1.428418
  H       2.814036      0.901849     -0.298215
  C       2.683385     -1.254134      0.087429
  H       2.040558     -1.581325     -0.764969
  H       2.415964     -1.919480      0.942528
  C       4.171406     -1.497846     -0.285039
  H       4.359790     -2.598342     -0.325981
  H       4.832429     -1.102225      0.524573
  C       4.608743     -0.868572     -1.648040
  H       5.702385     -1.062559     -1.779550
  H       4.501483      0.238336     -1.613641
  C       3.863593     -1.451375     -2.838059
  H       3.976867     -2.548762     -2.965083
  C       3.082468     -0.792067     -3.730630
  H       2.630470     -1.390544     -4.547002
  C       2.795483      0.706348     -3.768527
  H       2.694057      1.114603     -2.736031
  H       1.807930      0.871830     -4.260250
  C       3.873984      1.545658     -4.526012
  H       4.831150      1.511319     -3.950219
  H       3.552865      2.616227     -4.526634
  C       4.140774      1.084332     -5.980973
  H       3.178439      1.068869     -6.552225
  H       4.505599      0.032006     -5.963022
  C       5.161500      1.986541     -6.720965
  H       6.125800      1.985532     -6.153211
  H       4.793948      3.041750     -6.682648
  C       5.457091      1.626152     -8.204871
  H       6.079458      2.450407     -8.627701
  H       4.506469      1.639325     -8.794161
  C       6.197597      0.274569     -8.450904
  H       6.921282      0.091683     -7.617066
  H       6.826236      0.372293     -9.369721
  C       5.288070     -0.971201     -8.632771
  H       4.587430     -0.784598     -9.483853
  H       4.639901     -1.113895     -7.737109
  C       6.089050     -2.270300     -8.895167
  H       6.768563     -2.505348     -8.041982
  H       6.724107     -2.180260     -9.808066
  H       5.416024     -3.146834     -9.039475
  C      -3.877234     -3.816469      0.566235
  H      -3.645408     -4.879062      0.312679
  H      -3.344497     -3.597656      1.521351
  C      -3.346358     -2.888200     -0.556442
  H      -3.622994     -1.830982     -0.330298
  H      -3.868480     -3.130382     -1.513663
  C      -1.808582     -2.973993     -0.750655
  H      -1.520359     -4.014228     -1.043955
  H      -1.316789     -2.790585      0.234154
  C      -1.251340     -1.961582     -1.789568
  H      -1.696963     -0.958293     -1.588160
  H      -0.152002     -1.844557     -1.641176
  C      -1.495305     -2.328981     -3.276252
  H      -0.840881     -3.190070     -3.555061
  H      -2.544906     -2.678414     -3.428947
  C      -1.220604     -1.127879     -4.240639
  H      -1.104065     -1.525643     -5.278967
  H      -0.246061     -0.656617     -3.976963
  C      -2.357328     -0.117235     -4.240885
  H      -3.317777     -0.521901     -4.624176
  C      -2.360693      1.174835     -3.829360
  H      -3.318860      1.727908     -3.924906
  C      -1.223521      2.002990     -3.251877
  H      -0.894226      2.748443     -4.021626
  H      -0.329285      1.374198     -3.035870
  C      -1.650139      2.789222     -1.974325
  H      -1.877816      2.060866     -1.161223
  H      -2.611872      3.318860     -2.186079
  C      -0.600213      3.827307     -1.496475
  H       0.328239      3.295850     -1.171123
  H      -0.297856      4.453587     -2.371352
  C      -1.089093      4.770362     -0.359084
  H      -0.315066      5.558157     -0.189271
  H      -2.003287      5.313218     -0.706247
  C      -1.391079      4.069332      0.991655
  H      -0.475245      3.522645      1.320955
  H      -2.180206      3.293700      0.846519
  C      -1.850815      5.037273      2.114264
  H      -1.073123      5.828659      2.259640
  H      -2.769819      5.572684      1.770889
  C      -2.142772      4.345701      3.477480
  H      -2.635509      5.081856      4.156479
  H      -2.887265      3.526301      3.329983
  C      -0.891449      3.773495      4.191252
  H      -0.136036      4.574233      4.378625
  H      -1.163463      3.315160      5.166383
  H      -0.391728      2.986209      3.579587
138
Coordinates from ORCA-job /wrk/rja7/qm_final_3_replicates/qm_final_1.1/qm/8/freq E -2722.592585279564
  N       0.125542     -1.958949      7.081357
  C       0.601838     -0.633971      6.405464
  H       1.275584     -0.955051      5.579872
  H       1.208106     -0.107178      7.175218
  C      -0.568589     -1.689056      8.427111
  H      -0.663684     -2.662348      8.953107
  H       0.061831     -0.995246      9.019001
  H      -1.576687     -1.266833      8.222830
  C       1.366857     -2.806356      7.326117
  H       1.067328     -3.742542      7.839735
  H       1.841238     -3.047966      6.352805
  H       2.077280     -2.240390      7.963720
  C      -0.842272     -2.725496      6.165095
  H      -0.967597     -3.745135      6.586087
  H      -0.417014     -2.772840      5.143122
  H      -1.811991     -2.183015      6.167670
  C      -0.469994      0.306564      5.819181
  H       0.116664      1.034660      5.199601
  H      -1.114832     -0.250288      5.107734
  P      -2.916548      0.758495      6.912978
  O      -3.443707      1.725300      7.941816
  O      -3.140351     -0.773489      6.960327
  O      -1.207450      1.019181      6.802447
  O      -3.285399      1.269166      5.306725
  C      -4.550665      0.853991      4.768537
  H      -4.945925      1.694434      4.146743
  H      -5.303636      0.644669      5.568269
  C      -4.402862     -0.413172      3.884618
  H      -3.924649     -1.220931      4.476495
  O      -3.528628     -0.044798      2.750771
  C      -2.302555     -0.626351      2.617899
  O      -1.913819     -1.608911      3.248852
  C      -1.470910      0.121774      1.566381
  H      -1.617140      1.211970      1.728610
  H      -1.918844     -0.087681      0.565937
  C      -5.744496     -0.903730      3.314393
  H      -6.180248     -0.175170      2.595189
  H      -6.462572     -1.069969      4.151007
  O      -5.549373     -2.196880      2.659483
  C      -5.824269     -2.308327      1.308254
  O      -6.290021     -1.413289      0.619245
  C      -5.417074     -3.702746      0.808072
  H      -5.731014     -4.462752      1.559053
  H      -5.968664     -3.892234     -0.139694
  C       0.032323     -0.246031      1.574965
  H       0.143045     -1.343506      1.424439
  H       0.458214     -0.029662      2.585577
  C       0.831374      0.538157      0.502981
  H       0.702390      1.630911      0.682623
  H       0.389070      0.342067     -0.502506
  C       2.348814      0.215863      0.448629
  H       2.827721      0.472647      1.426762
  H       2.814351      0.899151     -0.299727
  C       2.683102     -1.256962      0.085257
  H       2.039882     -1.583710     -0.767032
  H       2.415815     -1.922573      0.940184
  C       4.170929     -1.500949     -0.287861
  H       4.358975     -2.601472     -0.329686
  H       4.832338     -1.106098      0.521803
  C       4.607928     -0.870830     -1.650581
  H       5.701531     -1.064758     -1.782549
  H       4.500766      0.236049     -1.615376
  C       3.862388     -1.452798     -2.840774
  H       3.975142     -2.550169     -2.968337
  C       3.081445     -0.792671     -3.732905
  H       2.629124     -1.390486     -4.549583
  C       2.794862      0.705832     -3.769703
  H       2.692874      1.113206     -2.736917
  H       1.807721      0.872076     -4.261974
  C       3.873932      1.545762     -4.525682
  H       4.830837      1.510734     -3.949498
  H       3.553007      2.616388     -4.525387
  C       4.141502      1.085981     -5.981005
  H       3.179371      1.070576     -6.552617
  H       4.506874      0.033814     -5.964064
  C       5.162026      1.989491     -6.719681
  H       6.126037      1.988586     -6.151439
  H       4.793790      3.044432     -6.680685
  C       5.458550      1.630378     -8.203695
  H       6.080860      2.455167     -8.625581
  H       4.508255      1.643645     -8.793488
  C       6.199630      0.279138     -8.450121
  H       6.921914      0.095239     -7.615274
  H       6.829929      0.377924     -9.367679
  C       5.290318     -0.966322     -8.634920
  H       4.591584     -0.778907     -9.487408
  H       4.640008     -1.109557     -7.740878
  C       6.091515     -2.265433     -8.896571
  H       6.768234     -2.501967     -8.041567
  H       6.729526     -2.174349     -9.807304
  H       5.418558     -3.141467     -9.044163
  C      -3.877092     -3.819000      0.568407
  H      -3.644296     -4.881550      0.315588
  H      -3.344206     -3.598923      1.523157
  C      -3.347727     -2.891035     -0.555232
  H      -3.625218     -1.833896     -0.329726
  H      -3.870209     -3.134413     -1.511948
  C      -1.809979     -2.975503     -0.750307
  H      -1.521021     -4.015497     -1.043768
  H      -1.317763     -2.791666      0.234199
  C      -1.254164     -1.962765     -1.789633
  H      -1.700274     -0.959729     -1.587943
  H      -0.154795     -1.844995     -1.642066
  C      -1.498975     -2.330286     -3.276132
  H      -0.845003     -3.191655     -3.555174
  H      -2.548788     -2.679315     -3.428217
  C      -1.224215     -1.129381     -4.240747
  H      -1.108826     -1.527155     -5.279200
  H      -0.249103     -0.658836     -3.977884
  C      -2.360123     -0.117834     -4.240046
  H      -3.321149     -0.521663     -4.622789
  C      -2.362182      1.174175     -3.828349
  H      -3.319932      1.728071     -3.923328
  C      -1.224075      2.001311     -3.251276
  H      -0.894456      2.746527     -4.021130
  H      -0.330272      1.371800     -3.035621
  C      -1.649578      2.787919     -1.973578
  H      -1.877139      2.059816     -1.160204
  H      -2.611166      3.318013     -2.184886
  C      -0.598892      3.825608     -1.496448
  H       0.329484      3.293776     -1.171548
  H      -0.296760      4.451579     -2.371622
  C      -1.086646      4.769096     -0.358936
  H      -0.312113      5.556502     -0.189631
  H      -2.000708      5.312404     -0.705740
  C      -1.388298      4.068511      0.992115
  H      -0.472520      3.521593      1.321215
  H      -2.177732      3.293108      0.847430
  C      -1.847266      5.036930      2.114616
  H      -1.069419      5.828302      2.259258
  H      -2.766374      5.572328      1.771490
  C      -2.138575      4.345948      3.478288
  H      -2.630788      5.082479      4.157263
  H      -2.883284      3.526601      3.331635
  C      -0.886870      3.773892      4.191502
  H      -0.131244      4.574632      4.378056
  H      -1.158206      3.315940      5.166999
  H      -0.387616      2.986373      3.579757
138
Coordinates from ORCA-job /wrk/rja7/qm_final_3_replicates/qm_final_1.1/qm/8/freq E -2722.592585422161
  N       0.126692     -1.958589      7.081084
  C       0.602745     -0.633919      6.404384
  H       1.276122     -0.955380      5.578631
  H       1.209321     -0.106854      7.173686
  C      -0.566833     -1.688053      8.427046
  H      -0.661912     -2.661153      8.953398
  H       0.064012     -0.994197      9.018427
  H      -1.574954     -1.265757      8.223013
  C       1.368086     -2.805912      7.325677
  H       1.068794     -3.741760      7.840047
  H       1.841920     -3.048167      6.352254
  H       2.078905     -2.239560      7.962494
  C      -0.841598     -2.725538      6.165690
  H      -0.966857     -3.744905      6.587348
  H      -0.416816     -2.773570      5.143547
  H      -1.811274     -2.182997      6.168466
  C      -0.469309      0.306318      5.818055
  H       0.117017      1.034090      5.197818
  H      -1.114453     -0.250926      5.107240
  P      -2.915452      0.758913      6.912462
  O      -3.442196      1.726133      7.941111
  O      -3.139354     -0.773041      6.960497
  O      -1.206344      1.019417      6.801306
  O      -3.284806      1.268990      5.306092
  C      -4.550424      0.853870      4.768676
  H      -4.946034      1.694345      4.147142
  H      -5.302889      0.644540      5.568877
  C      -4.403328     -0.413331      3.884650
  H      -3.925271     -1.221278      4.476403
  O      -3.529266     -0.045381      2.750579
  C      -2.303143     -0.626887      2.617944
  O      -1.914462     -1.609314      3.249141
  C      -1.471384      0.121076      1.566450
  H      -1.617372      1.211310      1.728712
  H      -1.919439     -0.088241      0.566038
  C      -5.745289     -0.903291      3.314710
  H      -6.180659     -0.174721      2.595283
  H      -6.463422     -1.068852      4.151415
  O      -5.550968     -2.196656      2.660000
  C      -5.826028     -2.308017      1.308817
  O      -6.291448     -1.412741      0.619907
  C      -5.419108     -3.702452      0.808399
  H      -5.733366     -4.462563      1.559132
  H      -5.970623     -3.891537     -0.139491
  C       0.031785     -0.247013      1.574887
  H       0.142321     -1.344461      1.424078
  H       0.457736     -0.030978      2.585544
  C       0.830929      0.537328      0.503027
  H       0.701901      1.630031      0.682856
  H       0.388600      0.341350     -0.502461
  C       2.348349      0.215052      0.448564
  H       2.827420      0.471626      1.426672
  H       2.813745      0.898423     -0.299789
  C       2.682567     -1.257732      0.084941
  H       2.039487     -1.584199     -0.767571
  H       2.415010     -1.923504      0.939643
  C       4.170426     -1.501819     -0.288019
  H       4.358291     -2.602359     -0.330200
  H       4.831759     -1.107411      0.521923
  C       4.607687     -0.871328     -1.650459
  H       5.701297     -1.065256     -1.782434
  H       4.500716      0.235558     -1.614987
  C       3.862255     -1.452860     -2.840956
  H       3.974793     -2.550208     -2.968863
  C       3.081662     -0.792260     -3.733061
  H       2.629429     -1.389648     -4.550103
  C       2.795302      0.706291     -3.769365
  H       2.693544      1.113307     -2.736418
  H       1.808124      0.872858     -4.261453
  C       3.874451      1.546381     -4.525099
  H       4.831266      1.511105     -3.948775
  H       3.553641      2.617031     -4.524631
  C       4.142182      1.086898     -5.980496
  H       3.180097      1.071453     -6.552184
  H       4.507643      0.034758     -5.963681
  C       5.162705      1.990586     -6.718966
  H       6.126650      1.989572     -6.150618
  H       4.794433      3.045511     -6.679911
  C       5.459362      1.631581     -8.203002
  H       6.081689      2.456429     -8.624748
  H       4.509115      1.644887     -8.792857
  C       6.200461      0.280361     -8.449412
  H       6.922403      0.096218     -7.614319
  H       6.831168      0.379222     -9.366680
  C       5.291070     -0.964955     -8.634756
  H       4.592734     -0.777343     -9.487522
  H       4.640340     -1.108190     -7.741019
  C       6.092140     -2.264172     -8.896259
  H       6.768353     -2.501094     -8.040973
  H       6.730633     -2.172960     -9.806639
  H       5.419053     -3.140006     -9.044434
  C      -3.879119     -3.819054      0.568884
  H      -3.646541     -4.881665      0.316140
  H      -3.346275     -3.599063      1.523674
  C      -3.349437     -2.891251     -0.554757
  H      -3.626703     -1.834032     -0.329349
  H      -3.871871     -3.134564     -1.511512
  C      -1.811689     -2.976175     -0.749672
  H      -1.523058     -4.016290     -1.043006
  H      -1.319535     -2.792406      0.234873
  C      -1.255320     -1.963728     -1.788966
  H      -1.700967     -0.960454     -1.587418
  H      -0.155907     -1.846509     -1.641242
  C      -1.500047     -2.331212     -3.275495
  H      -0.846529     -3.192995     -3.554318
  H      -2.550022     -2.679645     -3.427768
  C      -1.224323     -1.130546     -4.240159
  H      -1.108461     -1.528470     -5.278501
  H      -0.249194     -0.660281     -3.976832
  C      -2.359844     -0.118541     -4.240291
  H      -3.320812     -0.522065     -4.623475
  C      -2.361620      1.173561     -3.828831
  H      -3.319143      1.727756     -3.924332
  C      -1.223468      2.000468     -3.251514
  H      -0.893186      2.745312     -4.021447
  H      -0.329987      1.370712     -3.035240
  C      -1.649297      2.787602     -1.974247
  H      -1.877158      2.059795     -1.160718
  H      -2.610780      3.317681     -2.186035
  C      -0.598740      3.825388     -1.497068
  H       0.329658      3.293652     -1.172062
  H      -0.296600      4.451342     -2.372257
  C      -1.086672      4.768892     -0.359645
  H      -0.312267      5.556460     -0.190468
  H      -2.000837      5.312000     -0.706476
  C      -1.388086      4.068445      0.991538
  H      -0.472136      3.521898      1.320756
  H      -2.177242      3.292723      0.846972
  C      -1.847426      5.036872      2.113890
  H      -1.069921      5.828609      2.258365
  H      -2.766768      5.571810      1.770663
  C      -2.138500      4.346050      3.477699
  H      -2.630804      5.082594      4.156576
  H      -2.883053      3.526535      3.331300
  C      -0.886656      3.774360      4.190988
  H      -0.131137      4.575264      4.377278
  H      -1.157846      3.316648      5.166634
  H      -0.387311      2.986780      3.579407
138
Coordinates from ORCA-job /wrk/rja7/qm_final_3_replicates/qm_final_1.1/qm/8/freq E -2722.592585477136
  N       0.126745     -1.958456      7.080741
  C       0.602810     -0.633980      6.403656
  H       1.276055     -0.955700      5.577891
  H       1.209510     -0.106792      7.172780
  C      -0.566619     -1.687542      8.426724
  H      -0.661844     -2.660551      8.953218
  H       0.064431     -0.993737      9.017940
  H      -1.574691     -1.265137      8.222682
  C       1.368113     -2.805797      7.325393
  H       1.068841     -3.741449      7.840132
  H       1.841769     -3.048432      6.351977
  H       2.079102     -2.239278      7.961868
  C      -0.841711     -2.725564      6.165672
  H      -0.967134     -3.744751      6.587728
  H      -0.416955     -2.774077      5.143539
  H      -1.811314     -2.182898      6.168286
  C      -0.469283      0.306146      5.817233
  H       0.116933      1.033720      5.196663
  H      -1.114585     -0.251295      5.106714
  P      -2.915218      0.759354      6.911886
  O      -3.441676      1.727013      7.940267
  O      -3.139322     -0.772568      6.960479
  O      -1.206076      1.019576      6.800454
  O      -3.284711      1.268912      5.305353
  C      -4.550490      0.853681      4.768366
  H      -4.946345      1.694079      4.146882
  H      -5.302695      0.644307      5.568793
  C      -4.403546     -0.413591      3.884408
  H      -3.925451     -1.221474      4.476217
  O      -3.529649     -0.045834      2.750181
  C      -2.303354     -0.627039      2.617750
  O      -1.914540     -1.609339      3.249071
  C      -1.471650      0.120991      1.566287
  H      -1.617765      1.211211      1.728543
  H      -1.919672     -0.088359      0.565868
  C      -5.745585     -0.903596      3.314689
  H      -6.181076     -0.175123      2.595237
  H      -6.463610     -1.069084      4.151498
  O      -5.551256     -2.196986      2.660054
  C      -5.826244     -2.308478      1.308878
  O      -6.291666     -1.413290      0.619846
  C      -5.419263     -3.702961      0.808646
  H      -5.733385     -4.462997      1.559508
  H      -5.970817     -3.892210     -0.139190
  C       0.031546     -0.246934      1.574832
  H       0.142188     -1.344364      1.423944
  H       0.457367     -0.030961      2.585549
  C       0.830722      0.537519      0.503068
  H       0.701561      1.630200      0.682987
  H       0.388455      0.341545     -0.502462
  C       2.348147      0.215306      0.448601
  H       2.827326      0.471941      1.426631
  H       2.813416      0.898599     -0.299896
  C       2.682340     -1.257517      0.085099
  H       2.039354     -1.583978     -0.767492
  H       2.414582     -1.923197      0.939811
  C       4.170222     -1.501728     -0.287682
  H       4.357983     -2.602285     -0.329871
  H       4.831474     -1.107451      0.522394
  C       4.607662     -0.871250     -1.650037
  H       5.701274     -1.065202     -1.781999
  H       4.500827      0.235652     -1.614606
  C       3.862310     -1.452723     -2.840625
  H       3.974875     -2.550051     -2.968645
  C       3.081782     -0.792042     -3.732729
  H       2.629630     -1.389315     -4.549902
  C       2.795368      0.706506     -3.768892
  H       2.693834      1.113402     -2.735879
  H       1.808058      0.873045     -4.260722
  C       3.874378      1.546696     -4.524728
  H       4.831200      1.511394     -3.948412
  H       3.553533      2.617332     -4.524215
  C       4.142005      1.087262     -5.980153
  H       3.179893      1.071846     -6.551797
  H       4.507435      0.035106     -5.963351
  C       5.162523      1.990913     -6.718684
  H       6.126493      1.989760     -6.150382
  H       4.794340      3.045862     -6.679610
  C       5.459068      1.631871     -8.202749
  H       6.081220      2.456807     -8.624576
  H       4.508738      1.645015     -8.792478
  C       6.200328      0.280765     -8.449154
  H       6.922359      0.096790     -7.614100
  H       6.830970      0.379646     -9.366468
  C       5.291127     -0.964713     -8.634372
  H       4.592768     -0.777325     -9.487168
  H       4.640429     -1.107919     -7.740603
  C       6.092387     -2.263845     -8.895726
  H       6.768700     -2.500588     -8.040473
  H       6.730774     -2.172642     -9.806183
  H       5.419394     -3.139779     -9.043750
  C      -3.879267     -3.819386      0.569043
  H      -3.646557     -4.881983      0.316361
  H      -3.346396     -3.599254      1.523785
  C      -3.349774     -2.891598     -0.554695
  H      -3.627067     -1.834386     -0.329284
  H      -3.872300     -3.134956     -1.511390
  C      -1.812041     -2.976461     -0.749739
  H      -1.523413     -4.016562     -1.043122
  H      -1.319827     -2.792703      0.234781
  C      -1.255726     -1.963960     -1.788996
  H      -1.701245     -0.960654     -1.587351
  H      -0.156273     -1.846877     -1.641391
  C      -1.500658     -2.331380     -3.275522
  H      -0.847318     -3.193274     -3.554408
  H      -2.550707     -2.679647     -3.427694
  C      -1.224839     -1.130778     -4.240219
  H      -1.108967     -1.528701     -5.278558
  H      -0.249685     -0.660556     -3.976901
  C      -2.360263     -0.118657     -4.240331
  H      -3.321290     -0.522036     -4.623520
  C      -2.361822      1.173415     -3.828789
  H      -3.319253      1.727781     -3.924229
  C      -1.223490      2.000074     -3.251489
  H      -0.892915      2.744743     -4.021466
  H      -0.330198      1.370080     -3.035106
  C      -1.649169      2.787398     -1.974291
  H      -1.877248      2.059662     -1.160740
  H      -2.610506      3.317717     -2.186130
  C      -0.598364      3.824922     -1.497120
  H       0.329892      3.292973     -1.172036
  H      -0.296052      4.450767     -2.372327
  C      -1.086097      4.768609     -0.359775
  H      -0.311536      5.556056     -0.190720
  H      -2.000183      5.311862     -0.706586
  C      -1.387511      4.068351      0.991488
  H      -0.471618      3.521697      1.320692
  H      -2.176793      3.292729      0.847065
  C      -1.846593      5.036944      2.113794
  H      -1.069007      5.828639      2.258056
  H      -2.765952      5.571926      1.770668
  C      -2.137494      4.346291      3.477694
  H      -2.629575      5.082962      4.156607
  H      -2.882173      3.526841      3.331554
  C      -0.885575      3.774499      4.190777
  H      -0.129922      4.575319      4.376891
  H      -1.156644      3.316895      5.166507
  H      -0.386438      2.986839      3.579113
138
Coordinates from ORCA-job /wrk/rja7/qm_final_3_replicates/qm_final_1.1/qm/8/freq E -2722.592585494639
  N       0.126627     -1.958143      7.081033
  C       0.602726     -0.633884      6.403538
  H       1.275862     -0.955890      5.577799
  H       1.209530     -0.106532      7.172469
  C      -0.566578     -1.686804      8.427022
  H      -0.661867     -2.659684      8.953742
  H       0.064634     -0.992948      9.018005
  H      -1.574623     -1.264350      8.222964
  C       1.367954     -2.805512      7.325795
  H       1.068668     -3.740971      7.840878
  H       1.841469     -3.048518      6.352403
  H       2.079080     -2.238848      7.961987
  C      -0.841980     -2.725436      6.166293
  H      -0.967526     -3.744451      6.588735
  H      -0.417263     -2.774404      5.144162
  H      -1.811531     -2.182673      6.168758
  C      -0.469377      0.306123      5.816963
  H       0.116785      1.033547      5.196160
  H      -1.114738     -0.251503      5.106641
  P      -2.915253      0.759703      6.911556
  O      -3.441661      1.727687      7.939658
  O      -3.139422     -0.772200      6.960590
  O      -1.206103      1.019812      6.800054
  O      -3.284718      1.268800      5.304857
  C      -4.550558      0.853463      4.768061
  H      -4.946523      1.693775      4.146529
  H      -5.302665      0.644097      5.568575
  C      -4.403618     -0.413904      3.884239
  H      -3.925508     -1.221712      4.476140
  O      -3.529768     -0.046290      2.749942
  C      -2.303347     -0.627303      2.617713
  O      -1.914465     -1.609495      3.249161
  C      -1.471646      0.120771      1.566278
  H      -1.617741      1.210981      1.728651
  H      -1.919711     -0.088461      0.565858
  C      -5.745673     -0.903999      3.314618
  H      -6.181214     -0.175615      2.595107
  H      -6.463680     -1.069403      4.151461
  O      -5.551320     -2.197447      2.660100
  C      -5.826653     -2.309108      1.309005
  O      -6.292514     -1.414094      0.620041
  C      -5.419471     -3.703524      0.808742
  H      -5.733442     -4.463600      1.559631
  H      -5.971047     -3.892852     -0.139063
  C       0.031541     -0.247164      1.574775
  H       0.142167     -1.344589      1.423813
  H       0.457376     -0.031272      2.585500
  C       0.830706      0.537327      0.503036
  H       0.701509      1.629996      0.683012
  H       0.388455      0.341398     -0.502507
  C       2.348139      0.215137      0.448543
  H       2.827329      0.471708      1.426582
  H       2.813381      0.898497     -0.299912
  C       2.682353     -1.257650      0.084904
  H       2.039412     -1.584039     -0.767750
  H       2.414528     -1.923381      0.939554
  C       4.170260     -1.501832     -0.287791
  H       4.358022     -2.602387     -0.330003
  H       4.831445     -1.107596      0.522362
  C       4.607795     -0.871319     -1.650089
  H       5.701422     -1.065226     -1.781984
  H       4.500934      0.235584     -1.614665
  C       3.862574     -1.452803     -2.840758
  H       3.975316     -2.550104     -2.968853
  C       3.082009     -0.792184     -3.732874
  H       2.629982     -1.389474     -4.550103
  C       2.795412      0.706337     -3.769008
  H       2.693764      1.113180     -2.735988
  H       1.808093      0.872740     -4.260871
  C       3.874374      1.546657     -4.524763
  H       4.831172      1.511365     -3.948408
  H       3.553444      2.617269     -4.524164
  C       4.142046      1.087364     -5.980220
  H       3.179964      1.072062     -6.551914
  H       4.507433      0.035193     -5.963506
  C       5.162651      1.991040     -6.718608
  H       6.126589      1.989757     -6.150252
  H       4.794529      3.046005     -6.679446
  C       5.459274      1.632140     -8.202699
  H       6.081426      2.457130     -8.624420
  H       4.508965      1.645330     -8.792465
  C       6.200554      0.281067     -8.449200
  H       6.922482      0.096983     -7.614080
  H       6.831322      0.380086     -9.366416
  C       5.291391     -0.964389     -8.634762
  H       4.593190     -0.776884     -9.487662
  H       4.640529     -1.107705     -7.741130
  C       6.092701     -2.263478     -8.896164
  H       6.768848     -2.500391     -8.040826
  H       6.731260     -2.172119     -9.806485
  H       5.419720     -3.139374     -9.044472
  C      -3.879473     -3.819729      0.569069
  H      -3.646629     -4.882282      0.316307
  H      -3.346587     -3.599583      1.523797
  C      -3.350139     -2.891823     -0.554647
  H      -3.627542     -1.834653     -0.329161
  H      -3.872675     -3.135182     -1.511337
  C      -1.812403     -2.976503     -0.749738
  H      -1.523662     -4.016565     -1.043148
  H      -1.320194     -2.792709      0.234780
  C      -1.256217     -1.963907     -1.788974
  H      -1.701844     -0.960660     -1.587298
  H      -0.156773     -1.846714     -1.641391
  C      -1.501121     -2.331324     -3.275505
  H      -0.847798     -3.193236     -3.554370
  H      -2.551181     -2.679568     -3.427688
  C      -1.225275     -1.130749     -4.240210
  H      -1.109498     -1.528680     -5.278556
  H      -0.250069     -0.660601     -3.976951
  C      -2.360604     -0.118518     -4.240223
  H      -3.321707     -0.521785     -4.623343
  C      -2.361988      1.173534     -3.828612
  H      -3.319367      1.728010     -3.923942
  C      -1.223510      2.000041     -3.251372
  H      -0.892849      2.744649     -4.021371
  H      -0.330296      1.369911     -3.035048
  C      -1.649018      2.787406     -1.974144
  H      -1.877082      2.059684     -1.160575
  H      -2.610337      3.317790     -2.185906
  C      -0.598128      3.824881     -1.497056
  H       0.330122      3.292912     -1.171996
  H      -0.295837      4.450703     -2.372286
  C      -1.085799      4.768609     -0.359716
  H      -0.311244      5.556076     -0.190731
  H      -1.999914      5.311834     -0.706493
  C      -1.387149      4.068400      0.991588
  H      -0.471234      3.521767      1.320766
  H      -2.176429      3.292760      0.847246
  C      -1.846187      5.037036      2.113878
  H      -1.068591      5.828734      2.258075
  H      -2.765559      5.572010      1.770774
  C      -2.137032      4.346446      3.477817
  H      -2.629051      5.083159      4.156735
  H      -2.881739      3.527006      3.331753
  C      -0.885101      3.774623      4.190857
  H      -0.129391      4.575400      4.376935
  H      -1.156154      3.317063      5.166613
  H      -0.386037      2.986924      3.579186
138
Coordinates from ORCA-job /wrk/rja7/qm_final_3_replicates/qm_final_1.1/qm/8/freq E -2722.592585501130
  N       0.126541     -1.957817      7.081149
  C       0.602710     -0.633864      6.403094
  H       1.275636     -0.956271      5.577346
  H       1.209726     -0.106324      7.171726
  C      -0.566335     -1.685891      8.427197
  H      -0.661679     -2.658584      8.954251
  H       0.065145     -0.991959      9.017801
  H      -1.574353     -1.263344      8.223207
  C       1.367784     -2.805295      7.325958
  H       1.068463     -3.740508      7.841465
  H       1.841044     -3.048759      6.352557
  H       2.079146     -2.238503      7.961772
  C      -0.842375     -2.725285      6.166895
  H      -0.968068     -3.744095      6.589793
  H      -0.417829     -2.774791      5.144715
  H      -1.811829     -2.182347      6.169305
  C      -0.469398      0.306040      5.816401
  H       0.116684      1.033180      5.195199
  H      -1.114947     -0.251801      5.106434
  P      -2.915049      0.760294      6.911158
  O      -3.441221      1.728730      7.938953
  O      -3.139381     -0.771565      6.960799
  O      -1.205880      1.020147      6.799371
  O      -3.284635      1.268818      5.304295
  C      -4.550576      0.853376      4.767786
  H      -4.946683      1.693590      4.146216
  H      -5.302533      0.644051      5.568448
  C      -4.403714     -0.414102      3.884112
  H      -3.925584     -1.221851      4.476082
  O      -3.529954     -0.046654      2.749708
  C      -2.303471     -0.627575      2.617575
  O      -1.914542     -1.609681      3.249124
  C      -1.471764      0.120533      1.566165
  H      -1.617834      1.210741      1.728625
  H      -1.919858     -0.088604      0.565741
  C      -5.745816     -0.904258      3.314639
  H      -6.181443     -0.175907      2.595148
  H      -6.463753     -1.069635      4.151547
  O      -5.551483     -2.197739      2.660173
  C      -5.826954     -2.309461      1.309105
  O      -6.292981     -1.414515      0.620166
  C      -5.419698     -3.703846      0.808819
  H      -5.733605     -4.463931      1.559729
  H      -5.971294     -3.893211     -0.138965
  C       0.031411     -0.247427      1.574642
  H       0.142018     -1.344858      1.423680
  H       0.457261     -0.031548      2.585362
  C       0.830574      0.537032      0.502893
  H       0.701364      1.629703      0.682854
  H       0.388351      0.341090     -0.502662
  C       2.348009      0.214839      0.448424
  H       2.827175      0.471412      1.426473
  H       2.813271      0.898206     -0.300015
  C       2.682227     -1.257942      0.084770
  H       2.039320     -1.584315     -0.767914
  H       2.414351     -1.923671      0.939409
  C       4.170153     -1.502121     -0.287836
  H       4.357900     -2.602678     -0.330099
  H       4.831280     -1.107944      0.522393
  C       4.607795     -0.871526     -1.650052
  H       5.701415     -1.065494     -1.781908
  H       4.500995      0.235383     -1.614550
  C       3.862611     -1.452861     -2.840814
  H       3.975373     -2.550149     -2.969027
  C       3.082081     -0.792157     -3.732890
  H       2.630094     -1.389369     -4.550200
  C       2.795453      0.706364     -3.768884
  H       2.693796      1.113118     -2.735829
  H       1.808117      0.872765     -4.260716
  C       3.874396      1.546754     -4.524577
  H       4.831198      1.511421     -3.948234
  H       3.553436      2.617361     -4.523847
  C       4.142043      1.087636     -5.980085
  H       3.179960      1.072444     -6.551778
  H       4.507413      0.035455     -5.963519
  C       5.162663      1.991395     -6.718347
  H       6.126595      1.990047     -6.149978
  H       4.794543      3.046358     -6.679067
  C       5.459318      1.632666     -8.202466
  H       6.081467      2.457702     -8.624095
  H       4.509015      1.645913     -8.792243
  C       6.200589      0.281613     -8.449083
  H       6.922568      0.097505     -7.614014
  H       6.831301      0.380690     -9.366334
  C       5.291437     -0.963848     -8.634654
  H       4.593197     -0.776320     -9.487514
  H       4.640619     -1.107199     -7.740993
  C       6.092763     -2.262908     -8.896143
  H       6.768969     -2.499834     -8.040858
  H       6.731259     -2.171512     -9.806503
  H       5.419788     -3.138812     -9.044436
  C      -3.879705     -3.819991      0.569102
  H      -3.646835     -4.882528      0.316297
  H      -3.346798     -3.599863      1.523821
  C      -3.350409     -2.892049     -0.554603
  H      -3.627803     -1.834887     -0.329070
  H      -3.872971     -3.135374     -1.511288
  C      -1.812674     -2.976718     -0.749728
  H      -1.523924     -4.016764     -1.043179
  H      -1.320459     -2.792963      0.234793
  C      -1.256514     -1.964071     -1.788937
  H      -1.702199     -0.960855     -1.587249
  H      -0.157075     -1.846826     -1.641339
  C      -1.501384     -2.331482     -3.275473
  H      -0.848100     -3.193434     -3.554306
  H      -2.551458     -2.679679     -3.427676
  C      -1.225473     -1.130940     -4.240193
  H      -1.109762     -1.528906     -5.278533
  H      -0.250226     -0.660856     -3.976967
  C      -2.360731     -0.118630     -4.240171
  H      -3.321875     -0.521819     -4.623260
  C      -2.362000      1.173414     -3.828540
  H      -3.319336      1.727972     -3.923829
  C      -1.223428      1.999823     -3.251333
  H      -0.892671      2.744349     -4.021369
  H      -0.330287      1.369587     -3.035005
  C      -1.648839      2.787267     -1.974130
  H      -1.876945      2.059587     -1.160535
  H      -2.610120      3.317723     -2.185885
  C      -0.597872      3.824690     -1.497101
  H       0.330356      3.292691     -1.172033
  H      -0.295561      4.450475     -2.372350
  C      -1.085489      4.768467     -0.359774
  H      -0.310939      5.555949     -0.190849
  H      -1.999626      5.311670     -0.706528
  C      -1.386784      4.068296      0.991562
  H      -0.470853      3.521664      1.320703
  H      -2.176076      3.292653      0.847294
  C      -1.845746      5.036968      2.113851
  H      -1.068148      5.828684      2.257946
  H      -2.765157      5.571917      1.770816
  C      -2.136431      4.346424      3.477847
  H      -2.628390      5.083145      4.156792
  H      -2.881120      3.526951      3.331899
  C      -0.884405      3.774650      4.190754
  H      -0.128675      4.575433      4.376723
  H      -1.155341      3.317135      5.166562
  H      -0.385412      2.986929      3.579048
138
Coordinates from ORCA-job /wrk/rja7/qm_final_3_replicates/qm_final_1.1/qm/8/freq E -2722.592585503003
  N       0.126450     -1.957873      7.081260
  C       0.602624     -0.633917      6.403211
  H       1.275570     -0.956324      5.577479
  H       1.209622     -0.106369      7.171854
  C      -0.566468     -1.685944      8.427287
  H      -0.661830     -2.658636      8.954339
  H       0.064998     -0.992012      9.017906
  H      -1.574477     -1.263395      8.223265
  C       1.367695     -2.805333      7.326116
  H       1.068375     -3.740546      7.841623
  H       1.840988     -3.048801      6.352731
  H       2.079031     -2.238528      7.961947
  C      -0.842430     -2.725360      6.166985
  H      -0.968130     -3.744166      6.589890
  H      -0.417857     -2.774877      5.144816
  H      -1.811893     -2.182431      6.169372
  C      -0.469474      0.305978      5.816488
  H       0.116619      1.033124      5.195296
  H      -1.115004     -0.251871      5.106503
  P      -2.915162      0.760215      6.911168
  O      -3.441385      1.728670      7.938923
  O      -3.139474     -0.771644      6.960839
  O      -1.205996      1.020085      6.799432
  O      -3.284702      1.268694      5.304275
  C      -4.550641      0.853245      4.767758
  H      -4.946751      1.693456      4.146185
  H      -5.302596      0.643916      5.568419
  C      -4.403754     -0.414234      3.884089
  H      -3.925621     -1.221977      4.476066
  O      -3.529999     -0.046786      2.749685
  C      -2.303459     -0.627611      2.617627
  O      -1.914503     -1.609700      3.249183
  C      -1.471755      0.120560      1.566257
  H      -1.617835      1.210757      1.728789
  H      -1.919848     -0.088511      0.565818
  C      -5.745848     -0.904413      3.314616
  H      -6.181506     -0.176047      2.595159
  H      -6.463769     -1.069841      4.151527
  O      -5.551489     -2.197873      2.660116
  C      -5.826871     -2.309541      1.309025
  O      -6.292873     -1.414578      0.620091
  C      -5.419566     -3.703901      0.808709
  H      -5.733463     -4.464015      1.559595
  H      -5.971141     -3.893259     -0.139088
  C       0.031424     -0.247388      1.574708
  H       0.142040     -1.344814      1.423718
  H       0.457284     -0.031533      2.585430
  C       0.830562      0.537113      0.502976
  H       0.701342      1.629776      0.682968
  H       0.388334      0.341196     -0.502579
  C       2.348004      0.214950      0.448479
  H       2.827172      0.471520      1.426530
  H       2.813250      0.898342     -0.299948
  C       2.682256     -1.257817      0.084796
  H       2.039359     -1.584190     -0.767894
  H       2.414397     -1.923568      0.939423
  C       4.170191     -1.501947     -0.287810
  H       4.357984     -2.602498     -0.330042
  H       4.831304     -1.107720      0.522405
  C       4.607808     -0.871377     -1.650048
  H       5.701433     -1.065324     -1.781895
  H       4.500966      0.235528     -1.614580
  C       3.862646     -1.452785     -2.840790
  H       3.975443     -2.550078     -2.968937
  C       3.082108     -0.792160     -3.732915
  H       2.630146     -1.389440     -4.550188
  C       2.795441      0.706352     -3.769021
  H       2.693779      1.113189     -2.735999
  H       1.808100      0.872683     -4.260865
  C       3.874370      1.546699     -4.524782
  H       4.831173      1.511422     -3.948439
  H       3.553392      2.617300     -4.524125
  C       4.142031      1.087485     -5.980258
  H       3.179952      1.072271     -6.551959
  H       4.507398      0.035306     -5.963631
  C       5.162660      1.991206     -6.718556
  H       6.126595      1.989882     -6.150193
  H       4.794545      3.046171     -6.679304
  C       5.459304      1.632444     -8.202671
  H       6.081451      2.457471     -8.624326
  H       4.508996      1.645684     -8.792442
  C       6.200578      0.281387     -8.449278
  H       6.922564      0.097290     -7.614214
  H       6.831276      0.380462     -9.366538
  C       5.291434     -0.964085     -8.634833
  H       4.593177     -0.776564     -9.487682
  H       4.640635     -1.107447     -7.741161
  C       6.092778     -2.263130     -8.896339
  H       6.769028     -2.500023     -8.041078
  H       6.731233     -2.171737     -9.806728
  H       5.419820     -3.139055     -9.044590
  C      -3.879568     -3.819996      0.569013
  H      -3.646665     -4.882518      0.316176
  H      -3.346679     -3.599882      1.523747
  C      -3.350275     -2.892002     -0.554652
  H      -3.627696     -1.834854     -0.329087
  H      -3.872816     -3.135306     -1.511353
  C      -1.812533     -2.976624     -0.749757
  H      -1.523746     -4.016655     -1.043228
  H      -1.320337     -2.792878      0.234776
  C      -1.256396     -1.963939     -1.788943
  H      -1.702129     -0.960748     -1.587237
  H      -0.156966     -1.846654     -1.641328
  C      -1.501235     -2.331325     -3.275487
  H      -0.847916     -3.193247     -3.554331
  H      -2.551295     -2.679560     -3.427707
  C      -1.225362     -1.130751     -4.240180
  H      -1.109641     -1.528702     -5.278524
  H      -0.250129     -0.660641     -3.976947
  C      -2.360660     -0.118486     -4.240138
  H      -3.321791     -0.521712     -4.623226
  C      -2.361982      1.173555     -3.828498
  H      -3.319343      1.728072     -3.923780
  C      -1.223448      2.000010     -3.251282
  H      -0.892732      2.744562     -4.021311
  H      -0.330276      1.369811     -3.034972
  C      -1.648885      2.787420     -1.974068
  H      -1.876996      2.059725     -1.160490
  H      -2.610169      3.317872     -2.185825
  C      -0.597928      3.824842     -1.497008
  H       0.330301      3.292841     -1.171953
  H      -0.295618      4.450652     -2.372239
  C      -1.085548      4.768585     -0.359652
  H      -0.311007      5.556070     -0.190704
  H      -1.999691      5.311790     -0.706393
  C      -1.386844      4.068379      0.991667
  H      -0.470918      3.521726      1.320789
  H      -2.176143      3.292747      0.847383
  C      -1.845789      5.037032      2.113979
  H      -1.068190      5.828749      2.258065
  H      -2.765207      5.571982      1.770969
  C      -2.136437      4.346474      3.477979
  H      -2.628385      5.083188      4.156943
  H      -2.881123      3.526994      3.332044
  C      -0.884388      3.774702      4.190850
  H      -0.128651      4.575484      4.376797
  H      -1.155294      3.317188      5.166668
  H      -0.385417      2.986980      3.579130
