138
Coordinates from ORCA-job /wrk/rja7/qm_final_3_replicates/qm_final_1.1/qm/9/freq E -2722.577665386629
  N          -9.61982478344158     -2.51396419149599      6.91684935958199
  C          -8.38543978585573     -3.09883238288253      6.14299694273821
  H          -8.80256158338208     -3.61510046802033      5.24856902797062
  H          -7.91001955770938     -3.81990357028628      6.83752939414565
  C          -9.28185611048195     -2.18901708649007      8.38957103658557
  H         -10.24424541494294     -2.02861830324583      8.92009318305274
  H          -8.70510639211263     -3.03215640123762      8.81618181455688
  H          -8.64828813689459     -1.28493553184895      8.42991624531800
  C         -10.70233610145524     -3.58442003070783      6.90775166850961
  H         -10.99486192057316     -3.80502953248431      5.86076124128363
  H         -10.29958236241786     -4.50057389457552      7.38571258119831
  H         -11.58331136028253     -3.22061692507995      7.47668034920726
  C         -10.14609003417834     -1.24990624746562      6.24447106080565
  H         -10.36454323491798     -1.46713450275814      5.17848180519990
  H          -9.37386208930239     -0.46142470315039      6.33048803044086
  H         -11.07428012519113     -0.93739478676775      6.76661040563531
  C          -7.33479654137944     -2.04691130496958      5.70698684213420
  H          -6.47228323899304     -2.64474918611678      5.30994762842660
  H          -7.70854538838863     -1.43089344370700      4.85491509465385
  P          -5.93167624838599     -1.79456452435308      8.05571535737353
  O          -6.28601060839719     -3.27516808627167      8.20690972260023
  O          -6.05470506344099     -0.72349446241669      9.12636112886188
  O          -6.96389273358914     -1.16428508432376      6.75312314541207
  O          -4.43649880783981     -1.73130657177901      7.26043828478960
  C          -3.70960723501014     -0.48786282479745      7.25960661501945
  H          -2.63270673048209     -0.73814402617507      7.11701298684204
  H          -3.82874151141965      0.04084125903696      8.23598241043835
  C          -4.16862977496263      0.47497504333360      6.13528008794978
  H          -5.26547463129449      0.64548805556151      6.20361108941062
  O          -3.85302792455607     -0.17540235196910      4.85102962250421
  C          -4.78019403443912     -0.18350011526869      3.83699164483683
  O          -5.88201490462930      0.34945079650251      3.88659809323255
  C          -4.20838170541612     -0.92657156004770      2.62029827893779
  H          -5.04428849487566     -1.47184537527152      2.12458803625525
  H          -3.46687316562950     -1.67841634734204      2.97344325538856
  C          -3.46142692425699      1.84868157342090      6.18390518705753
  H          -3.57679765666299      2.29352562408516      7.19799649941347
  H          -3.88418665002365      2.54183586487743      5.42557180361823
  O          -2.02044963538516      1.68175485662662      5.96017421702152
  C          -1.53509502508697      1.98690696814638      4.70908200346157
  O          -2.17181476396642      2.57926267850576      3.84620319692013
  C          -0.11460842121811      1.43484669398715      4.51761241642225
  H           0.37209133110768      1.28019259291337      5.50641740045439
  H          -0.26993417727798      0.41108300878026      4.09389987989989
  C          -3.53112873631340      0.04466610609996      1.60465822923567
  H          -2.85875998094132      0.74802472323580      2.14667210497404
  H          -4.31263128009690      0.68089355479654      1.12433162117344
  C          -2.70631611821678     -0.70262515199685      0.52445571642807
  H          -3.36697326092059     -1.39720097722414     -0.05212049799232
  H          -1.95738878884912     -1.35648723662175      1.03731074498852
  C          -1.95934701040177      0.25047089539611     -0.44458390945451
  H          -1.43894450812663      1.03465290055673      0.15777567566422
  H          -2.69794436163418      0.79910899445285     -1.07962760756787
  C          -0.92107543569656     -0.46624382572794     -1.34357901319345
  H          -1.43367961185264     -1.21924141065264     -1.99273992380078
  H          -0.22406805270336     -1.05096788164412     -0.69489814807068
  C          -0.08672576509934      0.49757439908883     -2.22610604828477
  H           0.40674743402815      1.25830615255679     -1.57334690620682
  H          -0.75917171961414      1.07303042630458     -2.90698693482136
  C           0.99916336966925     -0.23306758409683     -3.07662338554778
  H           0.49607398010771     -0.92501889327843     -3.79106955762980
  H           1.60094301081875     -0.87789179181930     -2.38993492975176
  C           1.93129382051611      0.72488276318549     -3.79936232083150
  H           2.67591927647584      1.23316266509891     -3.15217281432380
  C           1.91869148529351      1.04261582878801     -5.11822506959424
  H           2.65728830854328      1.79006259742352     -5.47063469867222
  C           0.96261026674450      0.49908153243859     -6.17322333097214
  H           0.65058128079226     -0.54007725043592     -5.91878443483391
  H           1.49736573422166      0.43377818357565     -7.15180437058311
  C          -0.32644183732381      1.36290705874009     -6.37197646124985
  H          -0.90438177575768      1.37650921723173     -5.41571227419305
  H          -0.97544191088233      0.85046865605347     -7.12137765275242
  C          -0.04993675675198      2.82064378089754     -6.82225824500740
  H           0.51759759050566      2.80644758834163     -7.78687303772725
  H           0.62409036810839      3.30797906262080     -6.07870279540577
  C          -1.32025633746095      3.70095969267567     -6.98370413129111
  H          -1.00125149777166      4.75432764175157     -7.17752906465390
  H          -1.87352090368213      3.72726064673785     -6.01176112094601
  C          -2.29051024238979      3.26141929511040     -8.11193390047178
  H          -2.67922867788923      2.23463132292898     -7.90495028172404
  H          -1.72080832140505      3.18702487005355     -9.06988846981791
  C          -3.49524798700957      4.22444531038396     -8.28491527743168
  H          -3.11606184789457      5.24537178699804     -8.54201255837155
  H          -4.01110015524214      4.33233701488190     -7.29940450817928
  C          -4.53779311582493      3.78359772397589     -9.34943833857556
  H          -5.41078947036910      4.47902379466582     -9.30310770683898
  H          -4.93938344019304      2.77605231086870     -9.07616425686521
  C          -4.00067667749811      3.74853675988725    -10.80292696134657
  H          -3.20067896907148      2.98486476376906    -10.93750919200276
  H          -3.57201078060388      4.73579476929914    -11.09808683090501
  H          -4.81156669527301      3.50609361729490    -11.52805047966307
  C           0.76488659379914      2.29069220260503      3.56364452203787
  H           1.18800770975081      3.14637961750260      4.14103709233348
  H           0.11150634413595      2.73873536138725      2.77984798361076
  C           1.91339368220208      1.49655998417490      2.87738892074472
  H           2.47820179258612      0.90274785697557      3.63898620250859
  H           2.64438576695023      2.22375500789241      2.45321383392353
  C           1.40925888517963      0.55707997682023      1.74745562257998
  H           0.89855448073792      1.18041832814641      0.97322851658117
  H           0.62084284354855     -0.12079142028871      2.15354182602618
  C           2.50101188147729     -0.30990386327080      1.06568991179903
  H           2.99476521082503     -0.95259617261358      1.83392244825970
  H           2.00285891969548     -1.01461399584451      0.35556626481256
  C           3.57696650381652      0.49925584768184      0.29209613363412
  H           3.06845269463121      1.22993713776385     -0.38434544255982
  H           4.18342625839317      1.10491452381660      1.00629765250412
  C           4.54282271204868     -0.37697930987767     -0.57028363415600
  H           5.24212695194076      0.29315816575747     -1.11907857245297
  H           3.93626749727665     -0.89703658229000     -1.35280863145692
  C           5.30953035306572     -1.41741350580183      0.23159203760765
  H           4.71421229010455     -2.28415569915816      0.58298306426982
  C           6.62034541124494     -1.38125779924198      0.57967796465563
  H           7.00983711723620     -2.23004973715326      1.17700258251748
  C           7.63977942677879     -0.31255520531585      0.20732367210802
  H           8.30012562822979     -0.12196329670711      1.08905458661307
  H           7.13542902456048      0.65548745900109     -0.01399210146083
  C           8.54491265116103     -0.69226559546851     -1.01054304359153
  H           9.21556664508824      0.17313491815731     -1.22670391196625
  H           7.89941674139518     -0.82233520759747     -1.91370352770324
  C           9.38948896858771     -1.97543025602089     -0.79935996289358
  H          10.01011968458914     -1.86184110265623      0.12528808771585
  H           8.70334212997824     -2.83322702963167     -0.60489854375788
  C          10.31567550029092     -2.34438385931468     -1.99183141157010
  H          10.73448559899767     -3.36563766747030     -1.81504072713037
  H           9.69805773302102     -2.42482485517821     -2.91879458473301
  C          11.49722352658012     -1.36240079721563     -2.22316466648709
  H          12.03537993975661     -1.22213428705721     -1.25367927187535
  H          11.10824138009231     -0.35334665865253     -2.50353859458507
  C          12.51876994082838     -1.82398466700816     -3.29900893581554
  H          13.39880397451503     -1.13484893903610     -3.28032743041299
  H          12.91887986530670     -2.83126055119335     -3.01995231303224
  C          11.96464176647864     -1.87917833268388     -4.74747261577483
  H          11.10495732997668     -2.58935131260001     -4.79919784378658
  H          11.54715634172521     -0.87730154666744     -5.01762393263841
  C          13.03024838777138     -2.29646235237075     -5.79068611071370
  H          13.44846603070274     -3.30466921604486     -5.55986568952844
  H          12.60487281109448     -2.33733977172975     -6.81996697001866
  H          13.88595283582199     -1.58060339166108     -5.80943317721951
