138
Coordinates from ORCA-job /wrk/rja7/qm_final_3_replicates/qm_final_1.1/qm/9/freq E -2722.337592556798
  N      -8.178000     -3.183000      6.380000
  C      -6.721000     -3.241000      6.147000
  H      -6.295000     -3.771000      5.308000
  H      -6.390000     -3.748000      7.042000
  C      -8.544000     -2.438000      7.628000
  H      -9.618000     -2.329000      7.655000
  H      -8.155000     -2.899000      8.524000
  H      -8.090000     -1.461000      7.697000
  C      -8.710000     -4.558000      6.480000
  H      -8.561000     -5.133000      5.579000
  H      -8.399000     -5.050000      7.390000
  H      -9.786000     -4.535000      6.575000
  C      -8.926000     -2.504000      5.299000
  H      -8.694000     -3.037000      4.388000
  H      -8.661000     -1.481000      5.079000
  H     -10.003000     -2.477000      5.383000
  C      -6.020000     -1.860000      6.142000
  H      -4.981000     -1.897000      5.751000
  H      -6.569000     -1.192000      5.444000
  P      -5.032000     -1.707000      8.552000
  O      -5.363000     -3.137000      8.724000
  O      -5.310000     -0.765000      9.667000
  O      -5.955000     -1.187000      7.385000
  O      -3.571000     -1.665000      8.036000
  C      -2.718000     -0.478000      8.137000
  H      -1.648000     -0.733000      7.980000
  H      -2.763000     -0.091000      9.177000
  C      -3.191000      0.658000      7.197000
  H      -4.203000      1.028000      7.468000
  O      -3.179000      0.108000      5.857000
  C      -3.680000      0.819000      4.927000
  O      -4.376000      1.797000      5.077000
  C      -3.366000      0.132000      3.560000
  H      -4.110000     -0.686000      3.451000
  H      -2.327000     -0.258000      3.608000
  C      -2.191000      1.845000      7.255000
  H      -2.196000      2.119000      8.332000
  H      -2.598000      2.686000      6.654000
  O      -0.899000      1.419000      6.891000
  C      -0.409000      1.954000      5.769000
  O      -0.913000      2.918000      5.231000
  C       0.805000      1.156000      5.256000
  H       1.673000      1.379000      5.912000
  H       0.531000      0.079000      5.241000
  C      -3.475000      1.180000      2.480000
  H      -2.925000      2.112000      2.732000
  H      -4.492000      1.535000      2.210000
  C      -2.625000      0.675000      1.199000
  H      -2.991000     -0.337000      0.924000
  H      -1.548000      0.537000      1.435000
  C      -2.829000      1.723000      0.092000
  H      -2.809000      2.741000      0.537000
  H      -3.877000      1.595000     -0.254000
  C      -1.896000      1.714000     -1.045000
  H      -2.046000      0.856000     -1.734000
  H      -0.867000      1.702000     -0.627000
  C      -2.043000      2.867000     -2.002000
  H      -1.961000      3.727000     -1.304000
  H      -3.028000      2.916000     -2.514000
  C      -0.945000      2.885000     -2.978000
  H      -0.921000      2.083000     -3.746000
  H       0.021000      2.764000     -2.442000
  C      -0.910000      4.137000     -3.776000
  H      -1.039000      5.108000     -3.275000
  C      -0.834000      4.227000     -5.130000
  H      -0.833000      5.228000     -5.587000
  C      -0.574000      3.132000     -6.115000
  H      -0.418000      2.169000     -5.582000
  H       0.378000      3.415000     -6.613000
  C      -1.693000      2.712000     -7.208000
  H      -2.637000      2.741000     -6.621000
  H      -1.582000      1.771000     -7.789000
  C      -1.770000      3.765000     -8.318000
  H      -0.842000      3.714000     -8.927000
  H      -1.836000      4.699000     -7.720000
  C      -3.053000      3.682000     -9.274000
  H      -3.364000      4.694000     -9.612000
  H      -3.933000      3.290000     -8.721000
  C      -2.721000      2.917000    -10.514000
  H      -2.530000      1.839000    -10.324000
  H      -1.902000      3.457000    -11.035000
  C      -3.969000      2.919000    -11.446000
  H      -4.445000      3.922000    -11.422000
  H      -4.675000      2.162000    -11.042000
  C      -3.832000      2.525000    -12.945000
  H      -4.836000      2.447000    -13.414000
  H      -3.394000      1.504000    -12.944000
  C      -3.007000      3.599000    -13.715000
  H      -1.967000      3.663000    -13.328000
  H      -3.385000      4.612000    -13.460000
  H      -2.982000      3.380000    -14.804000
  C       1.286000      1.633000      3.896000
  H       1.822000      2.606000      3.891000
  H       0.336000      1.728000      3.328000
  C       2.186000      0.638000      3.174000
  H       2.542000     -0.145000      3.877000
  H       2.978000      1.192000      2.627000
  C       1.442000     -0.102000      2.145000
  H       1.059000      0.537000      1.321000
  H       0.625000     -0.738000      2.548000
  C       2.258000     -1.239000      1.381000
  H       2.440000     -2.070000      2.095000
  H       1.639000     -1.641000      0.550000
  C       3.554000     -0.770000      0.816000
  H       3.344000      0.188000      0.294000
  H       4.308000     -0.426000      1.556000
  C       4.224000     -1.697000     -0.222000
  H       4.871000     -1.083000     -0.885000
  H       3.333000     -2.004000     -0.811000
  C       4.826000     -2.987000      0.324000
  H       4.051000     -3.766000      0.368000
  C       6.099000     -3.191000      0.760000
  H       6.463000     -4.145000      1.170000
  C       7.084000     -2.066000      0.863000
  H       7.695000     -2.086000      1.790000
  H       6.578000     -1.077000      0.851000
  C       7.944000     -2.244000     -0.408000
  H       8.601000     -1.353000     -0.497000
  H       7.288000     -2.206000     -1.303000
  C       8.905000     -3.463000     -0.358000
  H       9.456000     -3.490000      0.607000
  H       8.415000     -4.460000     -0.334000
  C       9.992000     -3.417000     -1.426000
  H      10.507000     -4.399000     -1.499000
  H       9.526000     -3.185000     -2.408000
  C      10.982000     -2.287000     -1.282000
  H      11.328000     -2.312000     -0.227000
  H      10.554000     -1.280000     -1.474000
  C      12.248000     -2.535000     -2.014000
  H      12.948000     -1.726000     -1.713000
  H      12.660000     -3.522000     -1.714000
  C      12.076000     -2.516000     -3.558000
  H      11.311000     -3.234000     -3.921000
  H      11.792000     -1.466000     -3.785000
  C      13.351000     -2.806000     -4.348000
  H      13.754000     -3.752000     -3.928000
  H      13.303000     -2.893000     -5.454000
  H      14.150000     -2.049000     -4.197000
138
Coordinates from ORCA-job /wrk/rja7/qm_final_3_replicates/qm_final_1.1/qm/9/freq E -2722.415703697671
  N      -8.202501     -3.149888      6.331605
  C      -6.726755     -3.205003      6.105846
  H      -6.322223     -3.741628      5.245690
  H      -6.384697     -3.728618      7.004387
  C      -8.572697     -2.417449      7.600438
  H      -9.657191     -2.308306      7.630928
  H      -8.176979     -2.907225      8.492268
  H      -8.108316     -1.434060      7.672268
  C      -8.738161     -4.538627      6.416156
  H      -8.572507     -5.106733      5.500316
  H      -8.418335     -5.040469      7.330202
  H      -9.827206     -4.511921      6.506921
  C      -8.945170     -2.455270      5.238354
  H      -8.708916     -2.980178      4.309129
  H      -8.662157     -1.419633      5.047014
  H     -10.032445     -2.435509      5.331129
  C      -6.008373     -1.831066      6.117854
  H      -4.969696     -1.895774      5.723372
  H      -6.540354     -1.136254      5.427743
  P      -5.054710     -1.766613      8.583567
  O      -5.419500     -3.215527      8.708555
  O      -5.313168     -0.828568      9.723177
  O      -5.956524     -1.185073      7.382240
  O      -3.565476     -1.727735      8.056225
  C      -2.708480     -0.555882      8.193251
  H      -1.643935     -0.823696      8.019894
  H      -2.748742     -0.201460      9.247602
  C      -3.168482      0.617110      7.293462
  H      -4.175830      0.984784      7.584273
  O      -3.170273      0.105790      5.925735
  C      -3.678805      0.847330      4.975261
  O      -4.371835      1.838919      5.133005
  C      -3.362261      0.185098      3.593320
  H      -4.111299     -0.628138      3.468813
  H      -2.328137     -0.217212      3.645350
  C      -2.160921      1.801566      7.383901
  H      -2.141751      2.049312      8.469263
  H      -2.564796      2.664670      6.816377
  O      -0.868475      1.380893      6.963309
  C      -0.372313      1.944350      5.835247
  O      -0.851523      2.937893      5.313923
  C       0.821522      1.134438      5.293532
  H       1.694050      1.315287      5.960817
  H       0.524427      0.063692      5.257292
  C      -3.451232      1.238402      2.501151
  H      -2.894227      2.164181      2.766781
  H      -4.466538      1.598424      2.230611
  C      -2.631858      0.731322      1.212649
  H      -3.017558     -0.276054      0.937271
  H      -1.555340      0.578660      1.449625
  C      -2.811689      1.768956      0.085890
  H      -2.769489      2.795629      0.517263
  H      -3.863025      1.663005     -0.267899
  C      -1.856137      1.707684     -1.059795
  H      -2.030325      0.829420     -1.723655
  H      -0.825793      1.670465     -0.639725
  C      -1.956046      2.870008     -2.042568
  H      -1.847496      3.750645     -1.367900
  H      -2.942880      2.936748     -2.552461
  C      -0.847446      2.845327     -3.042970
  H      -0.864528      2.020416     -3.788503
  H       0.123336      2.705365     -2.512054
  C      -0.779858      4.094033     -3.868282
  H      -0.872248      5.074693     -3.370029
  C      -0.716595      4.166350     -5.224783
  H      -0.691878      5.166571     -5.691343
  C      -0.505787      3.045645     -6.202562
  H      -0.372021      2.081511     -5.663469
  H       0.446616      3.279279     -6.730343
  C      -1.668681      2.691161     -7.252935
  H      -2.597260      2.757769     -6.642545
  H      -1.604985      1.735578     -7.819197
  C      -1.744058      3.760878     -8.362617
  H      -0.839823      3.682106     -9.004641
  H      -1.757766      4.705817     -7.774814
  C      -3.056794      3.711390     -9.264561
  H      -3.345164      4.736343     -9.589534
  H      -3.924112      3.347953     -8.669724
  C      -2.816472      2.918068    -10.530178
  H      -2.649605      1.835756    -10.333276
  H      -1.999248      3.417847    -11.094571
  C      -4.102871      2.950396    -11.415165
  H      -4.548495      3.969964    -11.389981
  H      -4.823282      2.225599    -10.972500
  C      -4.004882      2.528005    -12.912966
  H      -5.024242      2.474014    -13.355072
  H      -3.595692      1.492535    -12.910299
  C      -3.158947      3.546458    -13.732691
  H      -2.104446      3.575323    -13.376485
  H      -3.494684      4.581296    -13.499846
  H      -3.172624      3.306906    -14.817662
  C       1.303500      1.631790      3.925423
  H       1.857232      2.594815      3.949564
  H       0.358737      1.768260      3.353731
  C       2.184346      0.614110      3.176843
  H       2.523462     -0.186364      3.872133
  H       2.998392      1.154027      2.647364
  C       1.413593     -0.101598      2.113776
  H       1.050136      0.564715      1.299253
  H       0.572266     -0.713704      2.510554
  C       2.208224     -1.239464      1.338126
  H       2.367918     -2.088802      2.040688
  H       1.580804     -1.614304      0.498643
  C       3.526802     -0.783232      0.776218
  H       3.342983      0.189545      0.261381
  H       4.280661     -0.469404      1.533052
  C       4.188488     -1.722904     -0.264979
  H       4.861905     -1.124908     -0.916735
  H       3.309368     -2.019118     -0.881306
  C       4.766454     -3.015862      0.298100
  H       3.994417     -3.802532      0.338282
  C       6.029620     -3.213832      0.749949
  H       6.377878     -4.172704      1.168097
  C       7.029108     -2.086560      0.855132
  H       7.621736     -2.115466      1.795455
  H       6.523132     -1.097126      0.836252
  C       7.935474     -2.232875     -0.396113
  H       8.590565     -1.334066     -0.449661
  H       7.306773     -2.184701     -1.311306
  C       8.887455     -3.454357     -0.354617
  H       9.412953     -3.503672      0.628124
  H       8.384346     -4.447118     -0.368141
  C       9.995184     -3.400303     -1.411523
  H      10.500429     -4.387539     -1.496839
  H       9.538083     -3.151804     -2.397425
  C      11.013260     -2.278146     -1.226218
  H      11.339601     -2.326149     -0.160674
  H      10.596859     -1.262974     -1.403805
  C      12.309263     -2.514122     -1.960905
  H      13.014530     -1.717967     -1.631773
  H      12.715211     -3.511875     -1.679833
  C      12.168347     -2.448724     -3.508837
  H      11.403211     -3.151745     -3.902848
  H      11.888718     -1.391278     -3.720358
  C      13.469929     -2.732085     -4.271452
  H      13.870898     -3.692431     -3.874759
  H      13.431338     -2.790915     -5.380873
  H      14.264505     -1.974994     -4.082809
138
Coordinates from ORCA-job /wrk/rja7/qm_final_3_replicates/qm_final_1.1/qm/9/freq E -2722.469752215747
  N      -8.221529     -3.114824      6.292876
  C      -6.728703     -3.161009      6.077632
  H      -6.350006     -3.711830      5.203461
  H      -6.374689     -3.688379      6.983125
  C      -8.601055     -2.384813      7.572563
  H      -9.694255     -2.282886      7.603632
  H      -8.196413     -2.893413      8.459882
  H      -8.131837     -1.394679      7.633496
  C      -8.751100     -4.518212      6.376217
  H      -8.561492     -5.084895      5.454464
  H      -8.418362     -5.014754      7.297539
  H      -9.849776     -4.491831      6.460566
  C      -8.958425     -2.421332      5.180486
  H      -8.713712     -2.945208      4.242647
  H      -8.660095     -1.377288      5.013513
  H     -10.052739     -2.416075      5.283980
  C      -6.000123     -1.792016      6.092524
  H      -4.962973     -1.890294      5.696225
  H      -6.513726     -1.078645      5.403234
  P      -5.092644     -1.791004      8.616092
  O      -5.499735     -3.253821      8.709108
  O      -5.326810     -0.839743      9.765713
  O      -5.966421     -1.157008      7.367509
  O      -3.570615     -1.769969      8.075838
  C      -2.710931     -0.613260      8.235447
  H      -1.651780     -0.897359      8.052128
  H      -2.750759     -0.275607      9.297721
  C      -3.148580      0.583964      7.358037
  H      -4.152711      0.956164      7.656196
  O      -3.156852      0.094733      5.974136
  C      -3.665446      0.863452      5.007833
  O      -4.346055      1.867059      5.176362
  C      -3.351339      0.219103      3.619535
  H      -4.109260     -0.586614      3.482524
  H      -2.324477     -0.201813      3.675307
  C      -2.132689      1.761527      7.473079
  H      -2.095748      1.997793      8.561770
  H      -2.523445      2.641728      6.922960
  O      -0.839551      1.340004      7.017827
  C      -0.343048      1.926650      5.886070
  O      -0.809359      2.939752      5.384710
  C       0.836570      1.113601      5.320129
  H       1.710052      1.260487      5.997342
  H       0.526361      0.046863      5.268003
  C      -3.416678      1.274539      2.514916
  H      -2.848360      2.190946      2.794305
  H      -4.430602      1.642879      2.247790
  C      -2.637751      0.759642      1.219818
  H      -3.049205     -0.240250      0.945651
  H      -1.562072      0.586938      1.453375
  C      -2.793346      1.785092      0.073796
  H      -2.720594      2.819135      0.488918
  H      -3.847658      1.707612     -0.285573
  C      -1.822561      1.661000     -1.079819
  H      -2.029533      0.764925     -1.713725
  H      -0.791060      1.592486     -0.661791
  C      -1.872991      2.828121     -2.084162
  H      -1.729405      3.726631     -1.436175
  H      -2.862283      2.918252     -2.588125
  C      -0.760687      2.751648     -3.108634
  H      -0.829083      1.905433     -3.828171
  H       0.212647      2.586027     -2.583819
  C      -0.654272      3.996328     -3.955812
  H      -0.702181      4.980923     -3.452897
  C      -0.605467      4.059592     -5.313493
  H      -0.550687      5.060813     -5.781290
  C      -0.454981      2.921335     -6.292296
  H      -0.349678      1.952808     -5.753307
  H       0.495361      3.100750     -6.848566
  C      -1.657691      2.656715     -7.303109
  H      -2.570325      2.762262     -6.672649
  H      -1.647007      1.692236     -7.858964
  C      -1.719938      3.751203     -8.403187
  H      -0.840192      3.644245     -9.075832
  H      -1.674920      4.700322     -7.821898
  C      -3.056408      3.751630     -9.252368
  H      -3.312595      4.792324     -9.559059
  H      -3.912311      3.417208     -8.622183
  C      -2.915299      2.942184    -10.541452
  H      -2.778746      1.854884    -10.342316
  H      -2.098436      3.397955    -11.143745
  C      -4.235045      3.024106    -11.376849
  H      -4.640981      4.062124    -11.344861
  H      -4.973751      2.337142    -10.900912
  C      -4.176427      2.582959    -12.873255
  H      -5.208791      2.564832    -13.290755
  H      -3.804878      1.531311    -12.875297
  C      -3.303218      3.540467    -13.733941
  H      -2.237782      3.520647    -13.406657
  H      -3.587903      4.596567    -13.522014
  H      -3.356215      3.289281    -14.815147
  C       1.314199      1.629904      3.944889
  H       1.876596      2.586883      3.996859
  H       0.376359      1.798629      3.368724
  C       2.182642      0.596556      3.176034
  H       2.510790     -0.215332      3.865271
  H       3.015189      1.124435      2.663438
  C       1.389957     -0.097577      2.084230
  H       1.042647      0.594606      1.282207
  H       0.528282     -0.684503      2.480022
  C       2.168562     -1.232428      1.300040
  H       2.311697     -2.096837      1.991086
  H       1.534504     -1.585041      0.454105
  C       3.505540     -0.785314      0.738467
  H       3.343517      0.197901      0.228885
  H       4.256693     -0.498094      1.510444
  C       4.159058     -1.739829     -0.301806
  H       4.856367     -1.160563     -0.945570
  H       3.294096     -2.031393     -0.943227
  C       4.720569     -3.029949      0.284426
  H       3.958103     -3.829039      0.328459
  C       5.977202     -3.214619      0.750911
  H       6.310986     -4.175926      1.180470
  C       6.988678     -2.085673      0.851345
  H       7.563777     -2.120280      1.803848
  H       6.482095     -1.096671      0.821964
  C       7.937846     -2.204065     -0.376095
  H       8.588150     -1.298129     -0.397460
  H       7.335867     -2.149685     -1.310553
  C       8.878703     -3.429474     -0.341274
  H       9.379063     -3.498930      0.656639
  H       8.359568     -4.414668     -0.389273
  C      10.003145     -3.374511     -1.389622
  H      10.497063     -4.367418     -1.486665
  H       9.553172     -3.112231     -2.377866
  C      11.048605     -2.266203     -1.165230
  H      11.356416     -2.335591     -0.092172
  H      10.646744     -1.242298     -1.329515
  C      12.365727     -2.497766     -1.904903
  H      13.081184     -1.718617     -1.553486
  H      12.761641     -3.506359     -1.641780
  C      12.244909     -2.390109     -3.453089
  H      11.472864     -3.074894     -3.868467
  H      11.972576     -1.326325     -3.652179
  C      13.564804     -2.676329     -4.195341
  H      13.964307     -3.649511     -3.823909
  H      13.522803     -2.710373     -5.306669
  H      14.357004     -1.921867     -3.977515
138
Coordinates from ORCA-job /wrk/rja7/qm_final_3_replicates/qm_final_1.1/qm/9/freq E -2722.518202922822
  N      -8.240560     -3.083329      6.249343
  C      -6.729770     -3.087021      6.033273
  H      -6.401422     -3.643751      5.131964
  H      -6.340294     -3.620143      6.934826
  C      -8.629719     -2.379747      7.554592
  H      -9.732993     -2.315066      7.600982
  H      -8.190326     -2.916539      8.417650
  H      -8.175840     -1.374274      7.600565
  C      -8.726225     -4.516607      6.323986
  H      -8.494117     -5.062669      5.390587
  H      -8.346129     -5.002303      7.241173
  H      -9.833183     -4.518762      6.412486
  C      -8.989132     -2.396597      5.125621
  H      -8.732118     -2.904309      4.173141
  H      -8.690796     -1.338141      5.008050
  H     -10.086720     -2.434904      5.259414
  C      -6.014230     -1.711162      6.051748
  H      -4.982607     -1.843576      5.645514
  H      -6.517511     -0.979794      5.369467
  P      -5.170712     -1.792666      8.643219
  O      -5.644774     -3.259159      8.699557
  O      -5.356633     -0.818193      9.794965
  O      -6.000537     -1.089460      7.336975
  O      -3.612457     -1.815176      8.080236
  C      -2.744667     -0.680675      8.266235
  H      -1.695470     -0.993712      8.067406
  H      -2.782874     -0.358059      9.336028
  C      -3.138870      0.546064      7.410049
  H      -4.138442      0.930986      7.710170
  O      -3.152016      0.083576      6.009744
  C      -3.650111      0.891749      5.033305
  O      -4.297272      1.914462      5.221807
  C      -3.339002      0.273853      3.640022
  H      -4.113573     -0.513745      3.476346
  H      -2.329825     -0.188961      3.700950
  C      -2.109859      1.707362      7.559869
  H      -2.047613      1.934251      8.650340
  H      -2.474127      2.609272      7.027062
  O      -0.816505      1.281195      7.069526
  C      -0.320952      1.894361      5.937124
  O      -0.772927      2.927016      5.461602
  C       0.844441      1.081353      5.346497
  H       1.713178      1.180403      6.040617
  H       0.521818      0.018687      5.277559
  C      -3.355183      1.334960      2.525071
  H      -2.763602      2.229166      2.832430
  H      -4.365838      1.724723      2.270831
  C      -2.645020      0.803103      1.221021
  H      -3.105710     -0.176792      0.943529
  H      -1.573748      0.584680      1.444028
  C      -2.754527      1.817490      0.055330
  H      -2.616895      2.854274      0.451402
  H      -3.810832      1.800250     -0.311720
  C      -1.778185      1.590979     -1.106588
  H      -2.049452      0.679616     -1.695366
  H      -0.749493      1.456781     -0.693718
  C      -1.743119      2.758288     -2.133456
  H      -1.531451      3.675088     -1.528263
  H      -2.734367      2.899359     -2.624065
  C      -0.645176      2.585353     -3.194372
  H      -0.812677      1.714749     -3.868504
  H       0.327285      2.364964     -2.683001
  C      -0.469074      3.813764     -4.071863
  H      -0.428666      4.797391     -3.560597
  C      -0.450094      3.864887     -5.429843
  H      -0.335902      4.862679     -5.899281
  C      -0.426087      2.706858     -6.408564
  H      -0.378856      1.733412     -5.868969
  H       0.511891      2.788304     -7.011090
  C      -1.677731      2.605600     -7.360803
  H      -2.562843      2.779618     -6.704923
  H      -1.762536      1.631823     -7.894877
  C      -1.688308      3.727030     -8.449576
  H      -0.845488      3.558954     -9.158212
  H      -1.537671      4.678168     -7.889028
  C      -3.042841      3.829016     -9.236642
  H      -3.222301      4.891575     -9.528984
  H      -3.892207      3.559639     -8.564910
  C      -3.055400      2.995840    -10.538176
  H      -2.982412      1.904625    -10.321375
  H      -2.226854      3.358639    -11.186960
  C      -4.402823      3.176980    -11.313565
  H      -4.720903      4.247334    -11.287440
  H      -5.183217      2.575365    -10.787908
  C      -4.407068      2.694277    -12.799049
  H      -5.450551      2.751841    -13.188412
  H      -4.120795      1.614177    -12.796616
  C      -3.476683      3.527936    -13.721731
  H      -2.405455      3.409555    -13.432817
  H      -3.662159      4.616627    -13.561647
  H      -3.590382      3.253131    -14.792678
  C       1.313908      1.619598      3.964953
  H       1.880981      2.570917      4.057762
  H       0.389000      1.829502      3.380867
  C       2.174624      0.575921      3.174160
  H       2.498780     -0.244400      3.856340
  H       3.031765      1.092138      2.691429
  C       1.363730     -0.094666      2.048658
  H       1.032353      0.633487      1.270507
  H       0.477288     -0.642586      2.449503
  C       2.129828     -1.219865      1.256211
  H       2.261245     -2.101361      1.930642
  H       1.487908     -1.550961      0.405394
  C       3.483004     -0.776526      0.688488
  H       3.342125      0.213288      0.179482
  H       4.226074     -0.520699      1.480322
  C       4.130311     -1.757649     -0.338566
  H       4.858792     -1.205751     -0.972283
  H       3.292700     -2.057181     -1.014513
  C       4.685908     -3.030900      0.291397
  H       3.949635     -3.856215      0.349090
  C       5.937721     -3.182728      0.780400
  H       6.256497     -4.142426      1.230341
  C       6.959548     -2.050794      0.861661
  H       7.511719     -2.084812      1.829497
  H       6.449996     -1.063992      0.814306
  C       7.963526     -2.137122     -0.328879
  H       8.604297     -1.222611     -0.313407
  H       7.395771     -2.081676     -1.287095
  C       8.887571     -3.371227     -0.300581
  H       9.358726     -3.463534      0.712590
  H       8.337499     -4.338411     -0.389733
  C      10.023524     -3.327897     -1.347959
  H      10.494894     -4.331392     -1.458784
  H       9.575605     -3.055123     -2.336365
  C      11.112830     -2.252369     -1.082014
  H      11.401945     -2.343580     -0.003134
  H      10.735706     -1.215903     -1.231120
  C      12.440006     -2.488520     -1.844563
  H      13.180378     -1.738994     -1.476869
  H      12.820158     -3.511099     -1.606812
  C      12.322926     -2.331199     -3.389154
  H      11.529261     -2.987956     -3.812386
  H      12.059287     -1.261508     -3.576276
  C      13.649123     -2.633821     -4.127342
  H      14.047524     -3.623040     -3.795570
  H      13.575960     -2.640092     -5.238634
  H      14.444920     -1.887434     -3.888603
138
Coordinates from ORCA-job /wrk/rja7/qm_final_3_replicates/qm_final_1.1/qm/9/freq E -2722.546730933264
  N      -8.258103     -3.127697      6.184798
  C      -6.741634     -3.007856      5.939115
  H      -6.474159     -3.519213      4.986449
  H      -6.277111     -3.560247      6.798780
  C      -8.659966     -2.527758      7.547372
  H      -9.766050     -2.575527      7.632712
  H      -8.133886     -3.091323      8.346763
  H      -8.289641     -1.486340      7.607864
  C      -8.613059     -4.610200      6.198948
  H      -8.322239     -5.072943      5.233392
  H      -8.128637     -5.091091      7.072662
  H      -9.715938     -4.715525      6.313389
  C      -9.068052     -2.444564      5.093046
  H      -8.793247     -2.884739      4.108973
  H      -8.829468     -1.361734      5.066704
  H     -10.153800     -2.587073      5.273387
  C      -6.109887     -1.591669      5.986208
  H      -5.080129     -1.705215      5.564917
  H      -6.641208     -0.863935      5.319647
  P      -5.322627     -1.726893      8.639924
  O      -5.846447     -3.187290      8.697220
  O      -5.453107     -0.715697      9.770436
  O      -6.121689     -0.986885      7.281274
  O      -3.741744     -1.804212      8.048212
  C      -2.858105     -0.690834      8.252880
  H      -1.822795     -1.040668      8.036541
  H      -2.891000     -0.371818      9.325074
  C      -3.192666      0.558620      7.403499
  H      -4.189253      0.963857      7.689143
  O      -3.196306      0.120302      5.992550
  C      -3.660621      0.972022      5.012992
  O      -4.247586      2.025154      5.218821
  C      -3.348268      0.376253      3.619842
  H      -4.156296     -0.366870      3.407378
  H      -2.381311     -0.169619      3.693400
  C      -2.149057      1.695388      7.592759
  H      -2.064967      1.917423      8.682790
  H      -2.476898      2.616006      7.068281
  O      -0.853340      1.258349      7.087154
  C      -0.357734      1.882761      5.953968
  O      -0.807553      2.918337      5.484370
  C       0.811151      1.077279      5.362434
  H       1.663442      1.137472      6.081635
  H       0.490851      0.013090      5.289950
  C      -3.258650      1.446271      2.507129
  H      -2.613702      2.287616      2.856020
  H      -4.249911      1.898545      2.273186
  C      -2.635861      0.875197      1.196427
  H      -3.192586     -0.049461      0.900888
  H      -1.588886      0.548612      1.408083
  C      -2.632869      1.892776      0.025554
  H      -2.355419      2.904841      0.413198
  H      -3.680470      2.009928     -0.349595
  C      -1.693724      1.509299     -1.145964
  H      -2.093001      0.614485     -1.684534
  H      -0.687979      1.236963     -0.742521
  C      -1.508125      2.654486     -2.190412
  H      -1.162630      3.562682     -1.636219
  H      -2.487882      2.912961     -2.657977
  C      -0.473701      2.313005     -3.296159
  H      -0.810412      1.446643     -3.911137
  H       0.478795      1.976043     -2.809092
  C      -0.169173      3.494097     -4.210753
  H       0.044073      4.455985     -3.698181
  C      -0.207112      3.531838     -5.567327
  H       0.026322      4.503536     -6.048731
  C      -0.445563      2.378633     -6.531096
  H      -0.520399      1.411383     -5.983673
  H       0.443871      2.287451     -7.204122
  C      -1.739219      2.544613     -7.396283
  H      -2.559126      2.842618     -6.700029
  H      -2.008255      1.583041     -7.891419
  C      -1.626601      3.663431     -8.486374
  H      -0.857631      3.365208     -9.237694
  H      -1.281513      4.591548     -7.975784
  C      -2.979128      3.967476     -9.203093
  H      -2.995626      5.041101     -9.512938
  H      -3.819623      3.852029     -8.476315
  C      -3.239196      3.106901    -10.472632
  H      -3.299780      2.026152    -10.201470
  H      -2.399462      3.276479    -11.184279
  C      -4.586389      3.475346    -11.174280
  H      -4.715232      4.585534    -11.198441
  H      -5.424723      3.066343    -10.559425
  C      -4.748611      2.907567    -12.618493
  H      -5.790653      3.117627    -12.959757
  H      -4.648163      1.794563    -12.572993
  C      -3.751812      3.490883    -13.653364
  H      -2.701595      3.189205    -13.427767
  H      -3.746424      4.606557    -13.601171
  H      -3.988371      3.170935    -14.691877
  C       1.278201      1.623146      3.978386
  H       1.830066      2.579706      4.108710
  H       0.370558      1.856447      3.377065
  C       2.161352      0.588501      3.186825
  H       2.511565     -0.216545      3.874953
  H       3.035035      1.109675      2.739761
  C       1.362733     -0.099121      2.041645
  H       1.024095      0.649827      1.285768
  H       0.461755     -0.610820      2.459177
  C       2.143840     -1.208806      1.260744
  H       2.300089     -2.087215      1.934554
  H       1.495925     -1.561051      0.421191
  C       3.489103     -0.743720      0.660982
  H       3.334375      0.227245      0.120722
  H       4.220398     -0.481907      1.461676
  C       4.150301     -1.768378     -0.317901
  H       4.900594     -1.244923     -0.951625
  H       3.351265     -2.116122     -1.017528
  C       4.733676     -2.989901      0.388407
  H       4.046664     -3.854290      0.484880
  C       5.983896     -3.071945      0.902050
  H       6.304034     -4.011955      1.394124
  C       7.002516     -1.931056      0.916590
  H       7.541403     -1.927646      1.894167
  H       6.483474     -0.951586      0.829727
  C       8.045603     -2.023098     -0.241866
  H       8.675641     -1.101024     -0.226802
  H       7.500520     -1.999648     -1.216803
  C       8.954835     -3.268081     -0.189032
  H       9.418491     -3.346804      0.829428
  H       8.362275     -4.210578     -0.279306
  C      10.075821     -3.277364     -1.261216
  H      10.516982     -4.297427     -1.353951
  H       9.610747     -3.036427     -2.250005
  C      11.215984     -2.240661     -1.013232
  H      11.509907     -2.311093      0.065644
  H      10.861486     -1.197379     -1.178745
  C      12.518076     -2.507101     -1.831176
  H      13.297050     -1.781177     -1.494532
  H      12.890385     -3.534299     -1.597075
  C      12.353660     -2.353195     -3.371099
  H      11.526999     -2.998720     -3.748579
  H      12.078686     -1.289150     -3.575539
  C      13.654704     -2.686073     -4.147909
  H      14.061203     -3.680992     -3.844944
  H      13.507807     -2.696293     -5.252461
  H      14.460488     -1.941831     -3.937616
138
Coordinates from ORCA-job /wrk/rja7/qm_final_3_replicates/qm_final_1.1/qm/9/freq E -2722.557101033226
  N      -8.302592     -3.125517      6.135564
  C      -6.764731     -3.032178      5.945441
  H      -6.533512     -3.532590      4.976638
  H      -6.329506     -3.612437      6.797531
  C      -8.762275     -2.524721      7.485104
  H      -9.870878     -2.596896      7.523677
  H      -8.255287     -3.084889      8.298748
  H      -8.413881     -1.475152      7.538363
  C      -8.668603     -4.609675      6.127793
  H      -8.319061     -5.061986      5.176073
  H      -8.191572     -5.091435      7.005391
  H      -9.774336     -4.708146      6.201944
  C      -9.036814     -2.424018      5.000725
  H      -8.721476     -2.866774      4.030618
  H      -8.772159     -1.347326      5.017274
  H     -10.130016     -2.555268      5.142940
  C      -6.117174     -1.625604      6.007766
  H      -5.082775     -1.783226      5.608751
  H      -6.613936     -0.889527      5.324351
  P      -5.320682     -1.806737      8.665082
  O      -5.841834     -3.267883      8.697995
  O      -5.417537     -0.801645      9.800188
  O      -6.120543     -1.027597      7.301414
  O      -3.740117     -1.884242      8.032299
  C      -2.862882     -0.768405      8.249688
  H      -1.833357     -1.117105      8.002295
  H      -2.884619     -0.457024      9.323621
  C      -3.203080      0.487657      7.411932
  H      -4.211614      0.869055      7.691039
  O      -3.190756      0.070551      5.995147
  C      -3.707644      0.917638      5.030844
  O      -4.335242      1.939615      5.262051
  C      -3.368708      0.368764      3.630633
  H      -4.150303     -0.392291      3.378100
  H      -2.401480     -0.178705      3.698680
  C      -2.183542      1.636721      7.628736
  H      -2.082008      1.846957      8.719082
  H      -2.517759      2.562615      7.118415
  O      -0.876634      1.228671      7.109325
  C      -0.405817      1.863784      5.971896
  O      -0.889843      2.881040      5.497177
  C       0.782834      1.089863      5.377540
  H       1.621971      1.130851      6.113436
  H       0.484394      0.018343      5.300233
  C      -3.276226      1.464294      2.538436
  H      -2.649133      2.301609      2.927341
  H      -4.280729      1.903704      2.332673
  C      -2.663541      0.929011      1.217653
  H      -3.233847      0.028380      0.876640
  H      -1.626122      0.571683      1.426705
  C      -2.604703      1.978759      0.075407
  H      -2.264449      2.959885      0.491252
  H      -3.638261      2.166360     -0.309308
  C      -1.682441      1.556682     -1.103581
  H      -2.128355      0.675330     -1.627262
  H      -0.694153      1.219490     -0.704166
  C      -1.436627      2.693792     -2.140874
  H      -1.032129      3.590840     -1.611118
  H      -2.409333      3.007458     -2.591380
  C      -0.447775      2.288640     -3.276203
  H      -0.864926      1.432317     -3.853875
  H       0.494326      1.903869     -2.804778
  C      -0.102278      3.447662     -4.203714
  H       0.191535      4.384801     -3.684674
  C      -0.147744      3.483575     -5.559188
  H       0.134792      4.441082     -6.042188
  C      -0.488683      2.348374     -6.515763
  H      -0.612030      1.389119     -5.964183
  H       0.376855      2.191321     -7.208689
  C      -1.770950      2.616550     -7.368412
  H      -2.590940      2.925067     -6.675969
  H      -2.082071      1.661057     -7.853536
  C      -1.609383      3.731238     -8.451048
  H      -0.834446      3.410626     -9.189118
  H      -1.230539      4.658838     -7.963493
  C      -2.933583      4.059394     -9.202492
  H      -2.907414      5.120075     -9.552727
  H      -3.790006      3.997355     -8.487104
  C      -3.217884      3.146091    -10.431684
  H      -3.278937      2.081268    -10.100468
  H      -2.358940      3.232857    -11.136721
  C      -4.545657      3.500021    -11.166926
  H      -4.631757      4.609017    -11.284792
  H      -5.402601      3.190895    -10.519867
  C      -4.716166      2.813304    -12.554374
  H      -5.751896      3.018977    -12.919353
  H      -4.649852      1.704261    -12.424974
  C      -3.704949      3.268641    -13.637630
  H      -2.664012      2.949960    -13.397246
  H      -3.682022      4.382413    -13.716588
  H      -3.958315      2.856441    -14.640111
  C       1.241012      1.652506      3.999415
  H       1.761630      2.623483      4.156831
  H       0.339076      1.888551      3.390681
  C       2.157882      0.653625      3.202615
  H       2.568106     -0.120819      3.894246
  H       3.021494      1.203837      2.768414
  C       1.377808     -0.078968      2.066677
  H       0.999257      0.669017      1.328319
  H       0.483476     -0.578901      2.512797
  C       2.181999     -1.167279      1.295146
  H       2.405902     -2.019593      1.982535
  H       1.520199     -1.578428      0.492887
  C       3.485714     -0.660847      0.627643
  H       3.272362      0.267332      0.038262
  H       4.217207     -0.347423      1.409226
  C       4.170474     -1.720573     -0.296848
  H       4.924548     -1.214572     -0.941784
  H       3.400134     -2.127095     -0.996303
  C       4.791756     -2.884811      0.472945
  H       4.146756     -3.774666      0.617221
  C       6.042880     -2.904957      0.994458
  H       6.370819     -3.820116      1.527459
  C       7.061138     -1.768801      0.922408
  H       7.608854     -1.718581      1.895005
  H       6.542477     -0.792385      0.798364
  C       8.105025     -1.910056     -0.230983
  H       8.744261     -0.994863     -0.247413
  H       7.558137     -1.920505     -1.206229
  C       8.988255     -3.176084     -0.144346
  H       9.471514     -3.224301      0.865663
  H       8.347696     -4.089288     -0.199532
  C      10.073942     -3.264226     -1.252048
  H      10.481570     -4.302237     -1.303829
  H       9.582709     -3.073853     -2.237873
  C      11.258820     -2.264812     -1.068749
  H      11.581707     -2.294359      0.002090
  H      10.920563     -1.219774     -1.264640
  C      12.509811     -2.576524     -1.950509
  H      13.327710     -1.868797     -1.669964
  H      12.879548     -3.603737     -1.709458
  C      12.271129     -2.455451     -3.482106
  H      11.421377     -3.107477     -3.793621
  H      11.965470     -1.404014     -3.707946
  C      13.531267     -2.804277     -4.317621
  H      13.947726     -3.801537     -4.038715
  H      13.310204     -2.823586     -5.409775
  H      14.346281     -2.060292     -4.150087
138
Coordinates from ORCA-job /wrk/rja7/qm_final_3_replicates/qm_final_1.1/qm/9/freq E -2722.551961833353
  N      -8.295940     -3.145093      6.148352
  C      -6.804965     -2.967279      5.732747
  H      -6.725738     -3.390641      4.706194
  H      -6.226813     -3.573911      6.465862
  C      -8.543040     -2.632596      7.585988
  H      -9.617020     -2.796517      7.815974
  H      -7.860751     -3.184892      8.263909
  H      -8.269414     -1.561037      7.624903
  C      -8.593174     -4.644769      6.118171
  H      -8.376100     -5.030828      5.101139
  H      -7.935048     -5.139148      6.859792
  H      -9.660872     -4.806533      6.373352
  C      -9.219701     -2.419603      5.179873
  H      -9.043540     -2.800567      4.152812
  H      -8.996500     -1.336376      5.227254
  H     -10.269461     -2.608199      5.484793
  C      -6.246508     -1.527673      5.786694
  H      -5.204962     -1.629057      5.383278
  H      -6.793698     -0.829038      5.104349
  P      -5.573889     -1.767467      8.465817
  O      -6.162053     -3.194166      8.473653
  O      -5.646244     -0.755358      9.588495
  O      -6.293855     -0.940792      7.076845
  O      -3.983253     -1.927620      7.866681
  C      -3.053074     -0.864901      8.140205
  H      -2.040078     -1.257799      7.889027
  H      -3.077164     -0.582152      9.220451
  C      -3.318083      0.427057      7.328825
  H      -4.325899      0.829762      7.578880
  O      -3.267299      0.053596      5.903497
  C      -3.784206      0.915072      4.956697
  O      -4.438717      1.914901      5.204175
  C      -3.400515      0.415747      3.552525
  H      -4.166975     -0.338482      3.236672
  H      -2.446122     -0.153550      3.629461
  C      -2.274374      1.534795      7.615755
  H      -2.175707      1.698761      8.713340
  H      -2.566399      2.490005      7.133987
  O      -0.965007      1.109210      7.107062
  C      -0.475190      1.750934      5.986808
  O      -0.947338      2.775781      5.516017
  C       0.721967      0.982364      5.401134
  H       1.530906      0.954223      6.170566
  H       0.407243     -0.081235      5.274823
  C      -3.262842      1.549650      2.503402
  H      -2.640114      2.363667      2.943983
  H      -4.264104      2.002465      2.307586
  C      -2.626774      1.052493      1.181776
  H      -3.207260      0.184710      0.779762
  H      -1.606843      0.654739      1.404819
  C      -2.491042      2.147552      0.089295
  H      -2.103645      3.086556      0.556604
  H      -3.501250      2.406222     -0.314076
  C      -1.563328      1.726839     -1.084657
  H      -2.024341      0.860992     -1.621505
  H      -0.594533      1.344679     -0.676531
  C      -1.273935      2.865511     -2.098065
  H      -0.846426      3.750205     -1.566782
  H      -2.235721      3.214740     -2.547682
  C      -0.301019      2.438701     -3.240492
  H      -0.747800      1.582801     -3.795846
  H       0.636958      2.043409     -2.770979
  C       0.048957      3.583864     -4.178193
  H       0.377459      4.510347     -3.661585
  C      -0.009643      3.610814     -5.533250
  H       0.275599      4.561325     -6.027338
  C      -0.408397      2.479556     -6.469813
  H      -0.517703      1.526746     -5.905330
  H       0.426219      2.305781     -7.196211
  C      -1.715927      2.749235     -7.284426
  H      -2.536893      3.020090     -6.576805
  H      -2.021977      1.784983     -7.758197
  C      -1.599562      3.855748     -8.369413
  H      -0.811614      3.557854     -9.105297
  H      -1.241669      4.806579     -7.910585
  C      -2.930424      4.116492     -9.135708
  H      -2.933483      5.154777     -9.546649
  H      -3.785260      4.071467     -8.416646
  C      -3.195853      3.114775    -10.294577
  H      -3.188404      2.073678     -9.887557
  H      -2.339318      3.165644    -11.007888
  C      -4.539111      3.353676    -11.035849
  H      -4.646344      4.439555    -11.282713
  H      -5.377589      3.121668    -10.334536
  C      -4.727907      2.502463    -12.322778
  H      -5.777514      2.635270    -12.682444
  H      -4.632720      1.417594    -12.069297
  C      -3.758670      2.845906    -13.483174
  H      -2.702769      2.583726    -13.244026
  H      -3.786836      3.935101    -13.725700
  H      -4.028405      2.293371    -14.412468
  C       1.234481      1.590334      4.067886
  H       1.753758      2.549960      4.292557
  H       0.359528      1.877294      3.441557
  C       2.168728      0.630189      3.255986
  H       2.605807     -0.143702      3.933764
  H       3.038352      1.201349      2.858955
  C       1.411342     -0.089462      2.100662
  H       1.019113      0.684703      1.396030
  H       0.509625     -0.585156      2.537558
  C       2.227685     -1.143752      1.307226
  H       2.493821     -1.995258      1.979408
  H       1.561042     -1.572541      0.517919
  C       3.504528     -0.595209      0.618530
  H       3.251104      0.315055      0.021709
  H       4.231389     -0.267771      1.398507
  C       4.209524     -1.644023     -0.301509
  H       4.979261     -1.127062     -0.920283
  H       3.462724     -2.050188     -1.025544
  C       4.832864     -2.812614      0.460108
  H       4.198521     -3.711913      0.590618
  C       6.079310     -2.840385      0.995182
  H       6.391238     -3.767885      1.516026
  C       7.119414     -1.730073      0.921399
  H       7.673901     -1.701886      1.891787
  H       6.625737     -0.737442      0.817737
  C       8.157330     -1.886106     -0.235692
  H       8.824905     -0.991970     -0.233126
  H       7.611023     -1.863343     -1.211172
  C       9.000355     -3.186574     -0.173527
  H       9.494761     -3.262847      0.827320
  H       8.313076     -4.063023     -0.244357
  C      10.067323     -3.295914     -1.298537
  H      10.442878     -4.347021     -1.352887
  H       9.569788     -3.101629     -2.278771
  C      11.283803     -2.341846     -1.115743
  H      11.623339     -2.389985     -0.052770
  H      10.961545     -1.286116     -1.288581
  C      12.492789     -2.648560     -2.047407
  H      13.338645     -1.972157     -1.770467
  H      12.857095     -3.687538     -1.849386
  C      12.207714     -2.480335     -3.564499
  H      11.351445     -3.129847     -3.865438
  H      11.869948     -1.431210     -3.753370
  C      13.439883     -2.786284     -4.453276
  H      13.855829     -3.800076     -4.243947
  H      13.179379     -2.749739     -5.536106
  H      14.260691     -2.054385     -4.268025
138
Coordinates from ORCA-job /wrk/rja7/qm_final_3_replicates/qm_final_1.1/qm/9/freq E -2722.563565258753
  N      -8.348025     -3.147686      6.103778
  C      -6.806689     -3.070746      5.840979
  H      -6.675112     -3.487613      4.817083
  H      -6.331009     -3.719991      6.608769
  C      -8.739478     -2.609031      7.496558
  H      -9.840610     -2.717043      7.594156
  H      -8.177076     -3.187674      8.256116
  H      -8.421612     -1.551727      7.564548
  C      -8.735817     -4.624569      6.039559
  H      -8.434203     -5.032961      5.053141
  H      -8.194847     -5.156965      6.846860
  H      -9.832897     -4.716823      6.176709
  C      -9.107941     -2.371185      5.037203
  H      -8.841737     -2.770174      4.036850
  H      -8.825787     -1.303181      5.108056
  H     -10.196095     -2.488765      5.218475
  C      -6.157652     -1.669079      5.942006
  H      -5.110457     -1.827619      5.571875
  H      -6.636703     -0.942502      5.238556
  P      -5.379334     -1.872006      8.601587
  O      -5.879298     -3.328043      8.633537
  O      -5.470364     -0.862916      9.724132
  O      -6.176505     -1.079712      7.233257
  O      -3.801618     -1.950741      7.957676
  C      -2.917785     -0.839281      8.195604
  H      -1.892686     -1.190261      7.932317
  H      -2.935547     -0.539608      9.271193
  C      -3.252827      0.425313      7.365215
  H      -4.275330      0.786185      7.617398
  O      -3.197385      0.033298      5.945875
  C      -3.778873      0.849406      4.998404
  O      -4.486701      1.812871      5.245852
  C      -3.391589      0.357662      3.591815
  H      -4.124829     -0.433978      3.289625
  H      -2.411627     -0.167796      3.659198
  C      -2.253655      1.581394      7.615529
  H      -2.146827      1.770806      8.708003
  H      -2.589408      2.514112      7.117429
  O      -0.934355      1.191691      7.103234
  C      -0.481818      1.812608      5.958053
  O      -0.995800      2.803958      5.458798
  C       0.733253      1.064707      5.382979
  H       1.545804      1.068912      6.149277
  H       0.442989     -0.008817      5.281332
  C      -3.321719      1.491851      2.535971
  H      -2.732621      2.336520      2.964487
  H      -4.345395      1.897110      2.352805
  C      -2.672402      1.021760      1.210054
  H      -3.218831      0.132537      0.807425
  H      -1.637163      0.663666      1.429889
  C      -2.581714      2.127009      0.122951
  H      -2.228590      3.075358      0.598212
  H      -3.600791      2.351476     -0.278471
  C      -1.632419      1.758304     -1.049891
  H      -2.046225      0.874448     -1.596755
  H      -0.649838      1.418859     -0.636424
  C      -1.389149      2.916214     -2.051020
  H      -1.014811      3.815935     -1.503755
  H      -2.360458      3.223802     -2.510635
  C      -0.377076      2.552606     -3.180538
  H      -0.766842      1.679579     -3.752903
  H       0.571175      2.202521     -2.696060
  C      -0.068075      3.724389     -4.098544
  H       0.203049      4.660327     -3.565964
  C      -0.089993      3.760132     -5.454418
  H       0.160111      4.727611     -5.934810
  C      -0.409674      2.618742     -6.407657
  H      -0.490431      1.658194     -5.851381
  H       0.452474      2.489881     -7.110810
  C      -1.702907      2.827783     -7.260581
  H      -2.560652      3.046713     -6.578749
  H      -1.944227      1.853663     -7.751420
  C      -1.607083      3.942699     -8.335961
  H      -0.774818      3.693282     -9.040926
  H      -1.319346      4.910324     -7.862444
  C      -2.918734      4.130930     -9.154783
  H      -2.958194      5.164069     -9.576671
  H      -3.797058      4.050033     -8.467505
  C      -3.089695      3.104577    -10.308705
  H      -3.038591      2.069469     -9.888793
  H      -2.212299      3.190515    -10.993470
  C      -4.416841      3.261376    -11.096548
  H      -4.563305      4.333934    -11.378845
  H      -5.265451      3.013629    -10.412813
  C      -4.531683      2.366150    -12.361724
  H      -5.575117      2.439693    -12.754160
  H      -4.395582      1.294735    -12.072171
  C      -3.545101      2.720691    -13.503946
  H      -2.485412      2.517927    -13.226441
  H      -3.620163      3.797952    -13.785978
  H      -3.759760      2.123871    -14.420452
  C       1.227903      1.654075      4.036503
  H       1.730189      2.628483      4.235965
  H       0.343312      1.912775      3.411007
  C       2.169541      0.693364      3.238367
  H       2.638737     -0.047839      3.931841
  H       3.020111      1.270972      2.809767
  C       1.409077     -0.077895      2.121073
  H       0.989502      0.666755      1.400248
  H       0.522135     -0.574327      2.587080
  C       2.231011     -1.141709      1.348418
  H       2.531742     -1.961551      2.045126
  H       1.557969     -1.615454      0.591051
  C       3.481711     -0.591238      0.615302
  H       3.193654      0.288194     -0.011054
  H       4.215568     -0.218159      1.367848
  C       4.191050     -1.656048     -0.281729
  H       4.947991     -1.146687     -0.922416
  H       3.441336     -2.091161     -0.985955
  C       4.834542     -2.797037      0.503534
  H       4.208895     -3.696958      0.668145
  C       6.087356     -2.801122      1.023498
  H       6.412318     -3.711206      1.566597
  C       7.120565     -1.689804      0.898928
  H       7.693690     -1.629811      1.856995
  H       6.622457     -0.701323      0.775817
  C       8.135933     -1.880558     -0.272966
  H       8.803052     -0.986698     -0.307164
  H       7.572615     -1.885503     -1.238690
  C       8.983505     -3.177551     -0.186671
  H       9.498091     -3.220410      0.805704
  H       8.296933     -4.056456     -0.218071
  C      10.031372     -3.317515     -1.326114
  H      10.413145     -4.367832     -1.348524
  H       9.516748     -3.162850     -2.304560
  C      11.243043     -2.350330     -1.198265
  H      11.604482     -2.362160     -0.141575
  H      10.907490     -1.302795     -1.395781
  C      12.433478     -2.672438     -2.145572
  H      13.279247     -1.982047     -1.904582
  H      12.813059     -3.702090     -1.926787
  C      12.115983     -2.551293     -3.660107
  H      11.266464     -3.224556     -3.926605
  H      11.753216     -1.514539     -3.871397
  C      13.335092     -2.860089     -4.564669
  H      13.765484     -3.864801     -4.340680
  H      13.056320     -2.850129     -5.643458
  H      14.150177     -2.114922     -4.409686
138
Coordinates from ORCA-job /wrk/rja7/qm_final_3_replicates/qm_final_1.1/qm/9/freq E -2722.566123877360
  N      -8.385486     -3.126779      6.076410
  C      -6.843029     -3.055713      5.810339
  H      -6.707990     -3.483451      4.791510
  H      -6.376402     -3.700396      6.585786
  C      -8.777643     -2.561359      7.457009
  H      -9.873938     -2.698598      7.570129
  H      -8.191604     -3.100571      8.228439
  H      -8.491919     -1.493973      7.494937
  C      -8.773701     -4.602744      6.042252
  H      -8.483798     -5.032676      5.061364
  H      -8.228368     -5.123045      6.854597
  H      -9.869482     -4.692439      6.191004
  C      -9.147688     -2.374954      4.995067
  H      -8.880301     -2.793738      4.003032
  H      -8.872779     -1.303724      5.040636
  H     -10.236326     -2.490711      5.174951
  C      -6.187662     -1.655388      5.892266
  H      -5.136825     -1.825426      5.537951
  H      -6.653709     -0.939721      5.169064
  P      -5.425467     -1.838198      8.544511
  O      -5.924778     -3.291565      8.568407
  O      -5.531841     -0.828633      9.664786
  O      -6.219625     -1.051261      7.173779
  O      -3.844842     -1.913103      7.912602
  C      -2.959849     -0.803538      8.157521
  H      -1.932348     -1.158177      7.909739
  H      -2.989935     -0.501954      9.232274
  C      -3.281077      0.459635      7.319042
  H      -4.308212      0.821048      7.549388
  O      -3.197468      0.065322      5.901541
  C      -3.759275      0.876585      4.941373
  O      -4.456781      1.852543      5.171393
  C      -3.384238      0.352116      3.542649
  H      -4.172958     -0.378472      3.228438
  H      -2.450760     -0.249783      3.627852
  C      -2.287931      1.619446      7.579955
  H      -2.195580      1.810255      8.673411
  H      -2.621121      2.549316      7.074731
  O      -0.960652      1.236465      7.084284
  C      -0.524546      1.827117      5.918785
  O      -1.072740      2.778466      5.378345
  C       0.710515      1.094954      5.368423
  H       1.507466      1.103749      6.150853
  H       0.431771      0.018868      5.258489
  C      -3.207216      1.473782      2.486479
  H      -2.529254      2.255059      2.903594
  H      -4.185731      1.980066      2.309825
  C      -2.624120      0.933065      1.156043
  H      -3.288813      0.131577      0.746965
  H      -1.648083      0.432093      1.370776
  C      -2.386728      2.026286      0.079630
  H      -1.865730      2.895751      0.551226
  H      -3.368355      2.421039     -0.281458
  C      -1.557894      1.526261     -1.133265
  H      -2.125805      0.722059     -1.664786
  H      -0.623639      1.034914     -0.762298
  C      -1.181304      2.638616     -2.142640
  H      -0.642715      3.460321     -1.609442
  H      -2.110072      3.103680     -2.555281
  C      -0.296299      2.127978     -3.319412
  H      -0.845460      1.332782     -3.873623
  H       0.606347      1.628345     -2.881039
  C       0.152295      3.242626     -4.250047
  H       0.603359      4.115241     -3.732240
  C       0.069748      3.294291     -5.603378
  H       0.455070      4.210247     -6.095455
  C      -0.491944      2.236460     -6.540207
  H      -0.707471      1.296187     -5.985058
  H       0.295376      1.973328     -7.291978
  C      -1.774777      2.674415     -7.317368
  H      -2.558974      2.984825     -6.584107
  H      -2.184004      1.774995     -7.838161
  C      -1.554125      3.813782     -8.345952
  H      -0.784206      3.487231     -9.089483
  H      -1.118158      4.705423     -7.837235
  C      -2.846136      4.231256     -9.109520
  H      -2.728695      5.265661     -9.513509
  H      -3.699984      4.283984     -8.389287
  C      -3.226620      3.274227    -10.271590
  H      -3.328816      2.233631     -9.875496
  H      -2.376917      3.234379    -10.995015
  C      -4.540924      3.665951    -10.994356
  H      -4.496504      4.742250    -11.296715
  H      -5.381638      3.595638    -10.260908
  C      -4.894725      2.791744    -12.229405
  H      -5.927373      3.052760    -12.565838
  H      -4.942182      1.718128    -11.920087
  C      -3.926118      2.941853    -13.430744
  H      -2.903667      2.564457    -13.199778
  H      -3.829268      4.008606    -13.743350
  H      -4.291160      2.368764    -14.314423
  C       1.228799      1.691937      4.035311
  H       1.721008      2.669677      4.244138
  H       0.353678      1.945695      3.394189
  C       2.187913      0.739059      3.253521
  H       2.696749      0.040987      3.964118
  H       3.009464      1.329358      2.787008
  C       1.435761     -0.099010      2.182200
  H       0.980577      0.600934      1.437207
  H       0.573028     -0.608464      2.678734
  C       2.282246     -1.165806      1.440393
  H       2.652153     -1.923823      2.173034
  H       1.609125     -1.720310      0.740310
  C       3.476201     -0.598949      0.629847
  H       3.115111      0.214127     -0.046865
  H       4.208770     -0.128255      1.326740
  C       4.221041     -1.680056     -0.216419
  H       4.953517     -1.174859     -0.887967
  H       3.482226     -2.178515     -0.889686
  C       4.910626     -2.752299      0.623635
  H       4.312032     -3.656191      0.854413
  C       6.166049     -2.684147      1.132778
  H       6.523044     -3.544788      1.733299
  C       7.162569     -1.551615      0.926502
  H       7.740092     -1.404969      1.872356
  H       6.633853     -0.589578      0.738042
  C       8.175705     -1.798268     -0.236911
  H       8.814493     -0.889016     -0.340574
  H       7.609663     -1.892181     -1.196036
  C       9.068308     -3.054758     -0.054403
  H       9.589767     -2.996767      0.933619
  H       8.414939     -3.957656     -0.007311
  C      10.119276     -3.250164     -1.182699
  H      10.551595     -4.278222     -1.105529
  H       9.597054     -3.215762     -2.168989
  C      11.280923     -2.217352     -1.157946
  H      11.652855     -2.120194     -0.109091
  H      10.891999     -1.207616     -1.437652
  C      12.477986     -2.560644     -2.086501
  H      13.291474     -1.813972     -1.910909
  H      12.908025     -3.549669     -1.787399
  C      12.147195     -2.582967     -3.602349
  H      11.347056     -3.333690     -3.807887
  H      11.712504     -1.593933     -3.892914
  C      13.381231     -2.880770     -4.489421
  H      13.863450     -3.844949     -4.201663
  H      13.106025     -2.953768     -5.566630
  H      14.155177     -2.084634     -4.384561
138
Coordinates from ORCA-job /wrk/rja7/qm_final_3_replicates/qm_final_1.1/qm/9/freq E -2722.568615499642
  N      -8.389305     -3.211852      6.078272
  C      -6.851982     -3.107717      5.793583
  H      -6.712141     -3.528888      4.772481
  H      -6.374398     -3.749056      6.563524
  C      -8.779471     -2.654243      7.461032
  H      -9.863706     -2.849629      7.601643
  H      -8.147871     -3.151927      8.225824
  H      -8.553255     -1.572866      7.486146
  C      -8.744740     -4.693693      6.051683
  H      -8.469319     -5.121063      5.065462
  H      -8.176231     -5.204595      6.854274
  H      -9.835246     -4.808641      6.222432
  C      -9.182003     -2.484268      5.004265
  H      -8.914952     -2.899452      4.010247
  H      -8.938381     -1.404851      5.038909
  H     -10.266633     -2.625104      5.191626
  C      -6.221180     -1.694763      5.869467
  H      -5.164204     -1.849098      5.526417
  H      -6.691222     -0.996971      5.130918
  P      -5.465494     -1.838835      8.515237
  O      -5.939748     -3.297673      8.544276
  O      -5.598377     -0.824497      9.628745
  O      -6.281273     -1.080263      7.144030
  O      -3.887043     -1.882604      7.883290
  C      -3.026883     -0.750746      8.111314
  H      -1.989089     -1.085990      7.880925
  H      -3.072666     -0.429264      9.179891
  C      -3.375121      0.484822      7.244498
  H      -4.419107      0.813760      7.445453
  O      -3.246034      0.068145      5.836367
  C      -3.877289      0.799945      4.858666
  O      -4.660106      1.715326      5.065707
  C      -3.429118      0.304208      3.471463
  H      -4.167983     -0.462382      3.126866
  H      -2.466320     -0.244789      3.583316
  C      -2.425722      1.684740      7.498823
  H      -2.361933      1.897821      8.590086
  H      -2.781969      2.590889      6.967523
  O      -1.072800      1.339814      7.043817
  C      -0.648405      1.876850      5.849752
  O      -1.235157      2.763166      5.241647
  C       0.629930      1.176262      5.360702
  H       1.393224      1.213042      6.174949
  H       0.381451      0.092404      5.250995
  C      -3.284391      1.442292      2.430122
  H      -2.661111      2.256111      2.869837
  H      -4.281771      1.897129      2.224830
  C      -2.625314      0.943608      1.118922
  H      -3.243118      0.124989      0.671351
  H      -1.642264      0.474306      1.368634
  C      -2.389100      2.062587      0.071959
  H      -1.909438      2.937871      0.575768
  H      -3.371875      2.434615     -0.309596
  C      -1.506349      1.617658     -1.121568
  H      -2.013620      0.788800     -1.676306
  H      -0.555837      1.176630     -0.728389
  C      -1.167743      2.757536     -2.111850
  H      -0.702073      3.604922     -1.549971
  H      -2.107821      3.169166     -2.554196
  C      -0.208646      2.316829     -3.255846
  H      -0.673644      1.483437     -3.830509
  H       0.715614      1.888423     -2.787747
  C       0.181517      3.463245     -4.173133
  H       0.548042      4.369207     -3.646059
  C       0.129685      3.508886     -5.528187
  H       0.450121      4.452900     -6.013361
  C      -0.324419      2.410143     -6.475651
  H      -0.457597      1.449643     -5.929056
  H       0.486916      2.227978     -7.225517
  C      -1.641671      2.730102     -7.251305
  H      -2.459650      2.922176     -6.514107
  H      -1.946681      1.815897     -7.815049
  C      -1.539223      3.928799     -8.228292
  H      -0.716534      3.733294     -8.961419
  H      -1.229402      4.841491     -7.667078
  C      -2.853015      4.226534     -9.009080
  H      -2.825668      5.272126     -9.400616
  H      -3.718252      4.195280     -8.300704
  C      -3.124564      3.254695    -10.187955
  H      -3.133333      2.201348     -9.813466
  H      -2.270006      3.310708    -10.905510
  C      -4.461891      3.533023    -10.919869
  H      -4.494060      4.603921    -11.242884
  H      -5.298290      3.414106    -10.187494
  C      -4.743371      2.617265    -12.143455
  H      -5.790633      2.793323    -12.489231
  H      -4.709216      1.548587    -11.815424
  C      -3.778618      2.823813    -13.339239
  H      -2.729461      2.545346    -13.087958
  H      -3.771595      3.887865    -13.674401
  H      -4.081023      2.199231    -14.211703
  C       1.191934      1.769803      4.043931
  H       1.664555      2.756337      4.257284
  H       0.336558      2.003309      3.368521
  C       2.187605      0.821806      3.307620
  H       2.732856      0.189582      4.052425
  H       2.975693      1.421685      2.797436
  C       1.469085     -0.111313      2.296543
  H       0.982667      0.516068      1.507489
  H       0.631946     -0.631024      2.824991
  C       2.358484     -1.186020      1.617006
  H       2.804847     -1.849099      2.397432
  H       1.700610     -1.844079      0.996979
  C       3.480694     -0.620052      0.709490
  H       3.033280      0.100109     -0.019816
  H       4.207016     -0.035449      1.321564
  C       4.259877     -1.718880     -0.080390
  H       4.950830     -1.226280     -0.802943
  H       3.527260     -2.292835     -0.698431
  C       5.016700     -2.697893      0.812551
  H       4.452781     -3.592367      1.145199
  C       6.290420     -2.554928      1.256398
  H       6.699295     -3.348567      1.913386
  C       7.245024     -1.423231      0.898029
  H       7.867432     -1.172592      1.791818
  H       6.682679     -0.495336      0.647037
  C       8.200769     -1.764257     -0.290273
  H       8.809410     -0.856477     -0.517419
  H       7.587936     -1.965296     -1.202680
  C       9.139866     -2.971422     -0.028515
  H       9.719746     -2.788405      0.911019
  H       8.522308     -3.880258      0.162784
  C      10.129019     -3.269348     -1.189480
  H      10.612352     -4.261009     -1.008069
  H       9.547554     -3.385475     -2.136406
  C      11.238294     -2.198489     -1.378836
  H      11.681558     -1.963315     -0.380140
  H      10.785819     -1.242959     -1.740824
  C      12.381830     -2.606645     -2.345043
  H      13.172697     -1.816973     -2.314650
  H      12.872680     -3.538910     -1.967085
  C      11.950769     -2.820640     -3.819728
  H      11.188845     -3.634103     -3.881835
  H      11.437799     -1.896336     -4.186215
  C      13.138440     -3.156733     -4.754605
  H      13.677728     -4.068998     -4.405282
  H      12.804039     -3.345263     -5.800543
  H      13.882078     -2.325759     -4.779509
138
Coordinates from ORCA-job /wrk/rja7/qm_final_3_replicates/qm_final_1.1/qm/9/freq E -2722.570776382558
  N      -8.462324     -3.205627      6.018915
  C      -6.936053     -3.114692      5.672234
  H      -6.853983     -3.440968      4.610369
  H      -6.450286     -3.838084      6.357873
  C      -8.772876     -2.769676      7.463198
  H      -9.844829     -2.992513      7.651023
  H      -8.091074     -3.322672      8.143879
  H      -8.556916     -1.690709      7.566363
  C      -8.863039     -4.667773      5.875757
  H      -8.656831     -5.009083      4.840180
  H      -8.268112     -5.267825      6.593320
  H      -9.945499     -4.771826      6.098113
  C      -9.277715     -2.363712      5.052398
  H      -9.067020     -2.692809      4.013353
  H      -9.002834     -1.297521      5.172335
  H     -10.357953     -2.491776      5.273897
  C      -6.269301     -1.726084      5.838791
  H      -5.218889     -1.887416      5.478643
  H      -6.723605     -0.977195      5.141330
  P      -5.471012     -2.007257      8.461685
  O      -5.956869     -3.460417      8.434089
  O      -5.573951     -1.042227      9.621831
  O      -6.318081     -1.182168      7.145631
  O      -3.908914     -2.026280      7.791007
  C      -3.043969     -0.905187      8.049138
  H      -2.006708     -1.234575      7.808044
  H      -3.087231     -0.616115      9.127133
  C      -3.396333      0.353209      7.218620
  H      -4.452320      0.652912      7.399550
  O      -3.212723     -0.006710      5.799371
  C      -3.900110      0.686700      4.831929
  O      -4.782088      1.504691      5.051256
  C      -3.406597      0.259204      3.437966
  H      -4.111275     -0.515925      3.044508
  H      -2.426600     -0.257768      3.548208
  C      -2.480995      1.563421      7.540787
  H      -2.438017      1.728115      8.640890
  H      -2.850550      2.482067      7.040462
  O      -1.108648      1.272584      7.102111
  C      -0.700869      1.809989      5.903833
  O      -1.316040      2.670591      5.285163
  C       0.603006      1.152455      5.425361
  H       1.320169      1.104212      6.279369
  H       0.352870      0.085358      5.204833
  C      -3.286816      1.440809      2.442517
  H      -2.694768      2.256192      2.919656
  H      -4.296231      1.869109      2.240352
  C      -2.588230      1.012988      1.126083
  H      -3.173211      0.195129      0.634434
  H      -1.597364      0.561848      1.378741
  C      -2.370092      2.176606      0.126955
  H      -1.917081      3.042084      0.671113
  H      -3.358362      2.539926     -0.249289
  C      -1.457431      1.804999     -1.068231
  H      -1.905572      0.952131     -1.637756
  H      -0.482542      1.420748     -0.674132
  C      -1.187700      2.977507     -2.041522
  H      -0.798513      3.850615     -1.460524
  H      -2.147125      3.323756     -2.497986
  C      -0.173479      2.624075     -3.167560
  H      -0.546462      1.746310     -3.743380
  H       0.779898      2.289654     -2.681584
  C       0.120817      3.795516     -4.089363
  H       0.393338      4.736348     -3.566347
  C       0.092573      3.821320     -5.445743
  H       0.335313      4.784191     -5.937966
  C      -0.231485      2.671092     -6.386346
  H      -0.263128      1.706936     -5.830855
  H       0.598970      2.571674     -7.130473
  C      -1.571993      2.831634     -7.172725
  H      -2.415881      2.912508     -6.443978
  H      -1.753955      1.891598     -7.746625
  C      -1.610946      4.040429     -8.142100
  H      -0.738059      3.979517     -8.840305
  H      -1.465463      4.982595     -7.563363
  C      -2.920066      4.150068     -8.974026
  H      -2.995690      5.177030     -9.407178
  H      -3.800702      4.049255     -8.291311
  C      -3.038917      3.112515    -10.121396
  H      -2.936200      2.077088     -9.712760
  H      -2.176296      3.245286    -10.819145
  C      -4.374526      3.209365    -10.900818
  H      -4.484806      4.241708    -11.318868
  H      -5.218750      3.084587    -10.178587
  C      -4.540704      2.173502    -12.047615
  H      -5.587714      2.227010    -12.432231
  H      -4.424518      1.143617    -11.626928
  C      -3.558059      2.361459    -13.231323
  H      -2.496735      2.219121    -12.923575
  H      -3.645594      3.383113    -13.670812
  H      -3.763292      1.627323    -14.044816
  C       1.240788      1.853653      4.199492
  H       1.734304      2.797325      4.529469
  H       0.425452      2.180990      3.513138
  C       2.237209      0.949920      3.416554
  H       2.806020      0.303566      4.131610
  H       3.006257      1.582654      2.915777
  C       1.524417      0.041800      2.380562
  H       1.020728      0.686787      1.616215
  H       0.698981     -0.514050      2.890119
  C       2.431956     -0.989292      1.657455
  H       2.911145     -1.656956      2.413902
  H       1.784426     -1.652638      1.032262
  C       3.529754     -0.370289      0.751056
  H       3.050840      0.355116      0.046796
  H       4.251562      0.217512      1.365704
  C       4.321826     -1.425328     -0.086849
  H       5.039876     -0.896631     -0.754656
  H       3.597523     -1.943625     -0.761668
  C       5.036051     -2.473555      0.761156
  H       4.428517     -3.352434      1.056477
  C       6.315857     -2.417928      1.211226
  H       6.677030     -3.262387      1.831488
  C       7.341224     -1.332204      0.902422
  H       7.983863     -1.165666      1.801307
  H       6.840373     -0.358383      0.700548
  C       8.269040     -1.681813     -0.308202
  H       8.962991     -0.823751     -0.476024
  H       7.642124     -1.764470     -1.229535
  C       9.084242     -2.990410     -0.125232
  H       9.690269     -2.917693      0.813209
  H       8.377126     -3.839106      0.027941
  C      10.028267     -3.337196     -1.311778
  H      10.414652     -4.376548     -1.167504
  H       9.427897     -3.366239     -2.253580
  C      11.235328     -2.375842     -1.483631
  H      11.729364     -2.244467     -0.489074
  H      10.876194     -1.358640     -1.775699
  C      12.301692     -2.845132     -2.507313
  H      13.178014     -2.152808     -2.453077
  H      12.693518     -3.848523     -2.202539
  C      11.814397     -2.917410     -3.977838
  H      10.976660     -3.650072     -4.066962
  H      11.384725     -1.927121     -4.271930
  C      12.937601     -3.314835     -4.966862
  H      13.365394     -4.311304     -4.704328
  H      12.566542     -3.374805     -6.015768
  H      13.776529     -2.579584     -4.947889
138
Coordinates from ORCA-job /wrk/rja7/qm_final_3_replicates/qm_final_1.1/qm/9/freq E -2722.572025559095
  N      -8.481812     -3.253119      5.974047
  C      -6.946661     -3.177939      5.658502
  H      -6.846555     -3.547690      4.612390
  H      -6.472711     -3.870933      6.382613
  C      -8.822936     -2.762279      7.394418
  H      -9.892929     -3.000105      7.576031
  H      -8.138118     -3.272184      8.105687
  H      -8.630918     -1.675217      7.450368
  C      -8.885074     -4.719166      5.877546
  H      -8.659458     -5.099251      4.859507
  H      -8.306325     -5.293515      6.628711
  H      -9.971838     -4.811936      6.082597
  C      -9.269403     -2.443188      4.958261
  H      -9.039862     -2.812422      3.936910
  H      -8.988028     -1.375312      5.046111
  H     -10.354704     -2.556842      5.163086
  C      -6.288809     -1.780412      5.775828
  H      -5.227354     -1.962709      5.460299
  H      -6.718504     -1.071117      5.024651
  P      -5.553263     -1.919806      8.429400
  O      -6.027194     -3.377561      8.465441
  O      -5.687002     -0.896689      9.536083
  O      -6.379292     -1.169921      7.050273
  O      -3.974483     -1.955559      7.794679
  C      -3.123801     -0.818961      8.036724
  H      -2.079238     -1.145771      7.823985
  H      -3.189732     -0.500792      9.105250
  C      -3.471036      0.412858      7.165672
  H      -4.535700      0.700498      7.309333
  O      -3.242224      0.025430      5.759390
  C      -3.943276      0.659455      4.759830
  O      -4.855302      1.453320      4.942206
  C      -3.418004      0.208358      3.386421
  H      -4.146367     -0.530114      2.964965
  H      -2.466651     -0.351644      3.528392
  C      -2.586289      1.646306      7.480045
  H      -2.568134      1.836727      8.576126
  H      -2.961694      2.546437      6.949806
  O      -1.198064      1.375477      7.078762
  C      -0.802099      1.840109      5.846717
  O      -1.445400      2.630644      5.165952
  C       0.527424      1.199280      5.421678
  H       1.200867      1.130333      6.308371
  H       0.286235      0.137251      5.167549
  C      -3.211918      1.386376      2.398386
  H      -2.582447      2.161753      2.893060
  H      -4.193063      1.871648      2.184825
  C      -2.521279      0.929920      1.087171
  H      -3.159143      0.172906      0.564626
  H      -1.574701      0.395639      1.349402
  C      -2.190964      2.090582      0.115938
  H      -1.645280      2.889637      0.676386
  H      -3.139184      2.564716     -0.239692
  C      -1.336491      1.653087     -1.100368
  H      -1.870046      0.849127     -1.667295
  H      -0.392888      1.178692     -0.729306
  C      -0.979965      2.808030     -2.068093
  H      -0.490635      3.632950     -1.492734
  H      -1.914286      3.250015     -2.492953
  C      -0.042420      2.368286     -3.230457
  H      -0.516932      1.531701     -3.792539
  H       0.891366      1.943648     -2.778301
  C       0.330739      3.511569     -4.159662
  H       0.723030      4.413806     -3.644715
  C       0.247478      3.550650     -5.513207
  H       0.578328      4.482944     -6.012980
  C      -0.245911      2.450695     -6.441465
  H      -0.358994      1.491469     -5.888115
  H       0.533405      2.264907     -7.223270
  C      -1.593171      2.766477     -7.169267
  H      -2.397318      2.919429     -6.408329
  H      -1.889568      1.860367     -7.750270
  C      -1.543731      3.993216     -8.117188
  H      -0.687843      3.873165     -8.828447
  H      -1.313353      4.908474     -7.522918
  C      -2.848900      4.231756     -8.926014
  H      -2.816858      5.254886     -9.373909
  H      -3.722188      4.238752     -8.226725
  C      -3.104566      3.201335    -10.057606
  H      -3.117490      2.164967     -9.639036
  H      -2.241361      3.226112    -10.766327
  C      -4.427756      3.448756    -10.826229
  H      -4.404647      4.471910    -11.279425
  H      -5.271411      3.462686    -10.093324
  C      -4.741854      2.407447    -11.936968
  H      -5.775242      2.590053    -12.318944
  H      -4.762314      1.385012    -11.483815
  C      -3.752905      2.420398    -13.130228
  H      -2.717324      2.151801    -12.819882
  H      -3.709831      3.427975    -13.607596
  H      -4.059110      1.691282    -13.915785
  C       1.222140      1.921339      4.239098
  H       1.716519      2.847172      4.616313
  H       0.443045      2.276963      3.525755
  C       2.240649      1.024007      3.480481
  H       2.836285      0.423520      4.213338
  H       2.983627      1.667245      2.953748
  C       1.556715      0.060928      2.474098
  H       1.034647      0.664717      1.689545
  H       0.747650     -0.505152      2.997731
  C       2.500940     -0.958969      1.785948
  H       3.017672     -1.569892      2.564990
  H       1.879255     -1.678560      1.197813
  C       3.562010     -0.330541      0.842281
  H       3.045008      0.342103      0.113336
  H       4.264004      0.312316      1.423986
  C       4.392189     -1.384271      0.039769
  H       5.098374     -0.850790     -0.636682
  H       3.690943     -1.945632     -0.625255
  C       5.137620     -2.377367      0.923945
  H       4.546862     -3.243575      1.283660
  C       6.427111     -2.287997      1.336542
  H       6.809895     -3.095925      1.991387
  C       7.433626     -1.209961      0.950092
  H       8.096237     -0.995071      1.823851
  H       6.916662     -0.251645      0.715606
  C       8.335163     -1.604282     -0.267370
  H       9.008107     -0.743934     -0.496501
  H       7.685183     -1.743861     -1.165850
  C       9.178973     -2.886876     -0.044054
  H       9.822309     -2.752880      0.862225
  H       8.492262     -3.735251      0.184485
  C      10.075587     -3.288992     -1.248664
  H      10.497585     -4.305790     -1.053337
  H       9.432670     -3.397486     -2.155649
  C      11.246893     -2.313025     -1.542075
  H      11.800094     -2.124152     -0.588890
  H      10.846121     -1.318599     -1.857623
  C      12.252829     -2.811626     -2.613108
  H      13.119658     -2.106292     -2.648484
  H      12.680701     -3.794958     -2.292102
  C      11.669372     -2.956274     -4.043036
  H      10.842692     -3.706870     -4.041819
  H      11.199589     -1.988784     -4.350190
  C      12.729034     -3.382391     -5.089086
  H      13.181898     -4.366363     -4.822015
  H      12.287732     -3.481461     -6.107567
  H      13.560522     -2.641154     -5.154693
138
Coordinates from ORCA-job /wrk/rja7/qm_final_3_replicates/qm_final_1.1/qm/9/freq E -2722.572848503680
  N      -8.527069     -3.232146      5.920624
  C      -6.996922     -3.113174      5.588084
  H      -6.905011     -3.445034      4.528428
  H      -6.494065     -3.821490      6.278715
  C      -8.859743     -2.830059      7.373171
  H      -9.918679     -3.111860      7.557046
  H      -8.145237     -3.353938      8.044648
  H      -8.701486     -1.741712      7.482966
  C      -8.907716     -4.697583      5.744099
  H      -8.688389     -5.013160      4.702828
  H      -8.313991     -5.304047      6.457465
  H      -9.990758     -4.820484      5.954036
  C      -9.341441     -2.377904      4.963120
  H      -9.123888     -2.685322      3.918708
  H      -9.071048     -1.313402      5.107526
  H     -10.421060     -2.520060      5.179656
  C      -6.357511     -1.710074      5.741038
  H      -5.301046     -1.869984      5.397580
  H      -6.812214     -0.976491      5.030179
  P      -5.553187     -1.961630      8.366206
  O      -6.014372     -3.426545      8.341394
  O      -5.670735     -0.993543      9.524934
  O      -6.418287     -1.154594      7.040340
  O      -3.983666     -1.952155      7.703352
  C      -3.147289     -0.809190      7.967638
  H      -2.096544     -1.124961      7.768332
  H      -3.231330     -0.498831      9.037099
  C      -3.490780      0.420808      7.093773
  H      -4.564089      0.688488      7.208032
  O      -3.215349      0.032971      5.694734
  C      -3.929170      0.603900      4.664766
  O      -4.878361      1.361586      4.806716
  C      -3.358560      0.136701      3.315254
  H      -4.089185     -0.586726      2.870313
  H      -2.420326     -0.434535      3.492581
  C      -2.639517      1.669479      7.442957
  H      -2.672725      1.855807      8.539153
  H      -3.006271      2.566481      6.900732
  O      -1.228724      1.425578      7.108238
  C      -0.790205      1.885671      5.887474
  O      -1.411959      2.672219      5.183070
  C       0.529154      1.209447      5.489737
  H       1.142243      1.028155      6.402725
  H       0.238868      0.190971      5.130956
  C      -3.101647      1.310551      2.330107
  H      -2.470960      2.072199      2.842052
  H      -4.068767      1.811844      2.090449
  C      -2.387628      0.848112      1.032864
  H      -3.030201      0.113947      0.484082
  H      -1.459958      0.287739      1.313229
  C      -2.007709      2.010794      0.081751
  H      -1.434924      2.780087      0.656719
  H      -2.936572      2.525837     -0.268273
  C      -1.172516      1.558347     -1.143054
  H      -1.730027      0.769002     -1.706885
  H      -0.235653      1.062823     -0.783439
  C      -0.800543      2.710200     -2.111802
  H      -0.279033      3.519562     -1.543134
  H      -1.731369      3.175513     -2.518914
  C       0.098944      2.247826     -3.295741
  H      -0.406880      1.419070     -3.841904
  H       1.035240      1.805050     -2.866792
  C       0.473954      3.378399     -4.240878
  H       0.914634      4.268167     -3.743627
  C       0.334310      3.420297     -5.589889
  H       0.679136      4.339056     -6.105574
  C      -0.247444      2.342090     -6.493057
  H      -0.380382      1.389597     -5.932625
  H       0.488085      2.119946     -7.306988
  C      -1.607180      2.722816     -7.165318
  H      -2.367082      2.928054     -6.372507
  H      -1.972534      1.828942     -7.724923
  C      -1.532244      3.941381     -8.126408
  H      -0.702464      3.778972     -8.859160
  H      -1.249700      4.848801     -7.542320
  C      -2.848378      4.237005     -8.898071
  H      -2.761337      5.240701     -9.381744
  H      -3.694105      4.326797     -8.171278
  C      -3.213547      3.196386     -9.990499
  H      -3.307905      2.178259     -9.540154
  H      -2.365801      3.131528    -10.714585
  C      -4.524842      3.536371    -10.748046
  H      -4.412798      4.530672    -11.249588
  H      -5.348649      3.664562    -10.004157
  C      -4.958260      2.480323    -11.803880
  H      -5.968119      2.756284    -12.192921
  H      -5.086500      1.490195    -11.299346
  C      -3.980881      2.323000    -12.996507
  H      -2.978675      1.962894    -12.669789
  H      -3.829458      3.294731    -13.524191
  H      -4.366790      1.592539    -13.744382
  C       1.332695      1.976723      4.405952
  H       1.889084      2.811969      4.893089
  H       0.621899      2.463080      3.699404
  C       2.309412      1.068431      3.606103
  H       2.871393      0.405261      4.310348
  H       3.079744      1.706003      3.112973
  C       1.593590      0.198314      2.536224
  H       1.112490      0.869156      1.781136
  H       0.753380     -0.363166      3.012294
  C       2.501634     -0.821971      1.802333
  H       2.981440     -1.494975      2.553106
  H       1.858785     -1.482192      1.168894
  C       3.599370     -0.189585      0.906676
  H       3.124631      0.547653      0.212153
  H       4.322429      0.387188      1.530261
  C       4.395067     -1.233125      0.057398
  H       5.139635     -0.693007     -0.570649
  H       3.685171     -1.722500     -0.654014
  C       5.076304     -2.302569      0.899808
  H       4.432958     -3.142869      1.229697
  C       6.365445     -2.301731      1.316211
  H       6.701147     -3.152382      1.942254
  C       7.422841     -1.255134      0.987081
  H       8.076465     -1.102050      1.880220
  H       6.948615     -0.268348      0.781333
  C       8.329043     -1.634359     -0.230167
  H       9.021643     -0.781487     -0.425622
  H       7.689349     -1.733983     -1.141400
  C       9.143905     -2.936541     -0.033284
  H       9.772733     -2.843690      0.888205
  H       8.441750     -3.782045      0.156524
  C      10.052565     -3.312792     -1.234576
  H      10.468343     -4.335590     -1.060220
  H       9.420807     -3.393063     -2.152307
  C      11.232455     -2.334809     -1.486913
  H      11.786969     -2.193152     -0.526503
  H      10.841647     -1.324590     -1.760797
  C      12.235200     -2.800524     -2.578594
  H      13.113146     -2.108626     -2.581118
  H      12.644306     -3.804755     -2.301819
  C      11.652807     -2.867715     -4.015684
  H      10.809975     -3.599100     -4.049244
  H      11.206231     -1.876990     -4.278852
  C      12.705055     -3.268752     -5.079666
  H      13.134555     -4.275184     -4.862701
  H      12.262663     -3.305194     -6.102051
  H      13.554024     -2.545131     -5.109819
138
Coordinates from ORCA-job /wrk/rja7/qm_final_3_replicates/qm_final_1.1/qm/9/freq E -2722.573271235846
  N      -8.554280     -3.253107      5.849418
  C      -7.014542     -3.201577      5.555843
  H      -6.897705     -3.623049      4.531364
  H      -6.546621     -3.859829      6.317585
  C      -8.904968     -2.734133      7.261513
  H      -9.975856     -2.967741      7.440643
  H      -8.220874     -3.226036      7.986438
  H      -8.713111     -1.645975      7.291588
  C      -8.976244     -4.715891      5.768513
  H      -8.737774     -5.113010      4.760027
  H      -8.423453     -5.284342      6.543183
  H     -10.068143     -4.790580      5.953479
  C      -9.318493     -2.445146      4.812655
  H      -9.088922     -2.835577      3.799184
  H      -9.014129     -1.382968      4.885310
  H     -10.406265     -2.536892      5.013932
  C      -6.348904     -1.804286      5.619997
  H      -5.284681     -2.009076      5.327223
  H      -6.765319     -1.115467      4.844700
  P      -5.621635     -1.880753      8.275920
  O      -6.061693     -3.353509      8.309368
  O      -5.796326     -0.856872      9.378387
  O      -6.442314     -1.158011      6.874614
  O      -4.026179     -1.880075      7.677031
  C      -3.217136     -0.713231      7.925162
  H      -2.155927     -1.017215      7.767604
  H      -3.338350     -0.368512      8.980053
  C      -3.554475      0.480612      6.999053
  H      -4.635797      0.731438      7.072253
  O      -3.230787      0.054342      5.622155
  C      -3.948260      0.553798      4.557767
  O      -4.924478      1.283726      4.653688
  C      -3.336786      0.061376      3.235054
  H      -4.064172     -0.652706      2.772735
  H      -2.410530     -0.516230      3.449075
  C      -2.737096      1.754970      7.332241
  H      -2.811415      1.976853      8.419934
  H      -3.099531      2.627686      6.749119
  O      -1.313174      1.520843      7.054630
  C      -0.842025      1.934632      5.828672
  O      -1.434121      2.710765      5.088878
  C       0.487765      1.246630      5.493216
  H       1.047449      1.032161      6.432018
  H       0.191047      0.245960      5.093191
  C      -3.037375      1.227628      2.250458
  H      -2.418404      1.987449      2.778821
  H      -3.993291      1.733023      1.977019
  C      -2.287515      0.760332      0.976245
  H      -2.915340      0.028571      0.407906
  H      -1.368433      0.199817      1.282444
  C      -1.882564      1.926992      0.039793
  H      -1.319156      2.690044      0.631951
  H      -2.802515      2.448456     -0.324207
  C      -1.027382      1.482689     -1.173769
  H      -1.573343      0.693093     -1.747998
  H      -0.091630      0.992277     -0.804504
  C      -0.653030      2.642366     -2.133031
  H      -0.141359      3.451806     -1.556011
  H      -1.584494      3.102765     -2.544361
  C       0.254900      2.192395     -3.314940
  H      -0.241956      1.360843     -3.865324
  H       1.194931      1.756984     -2.886750
  C       0.620263      3.328144     -4.257627
  H       1.075353      4.211812     -3.762645
  C       0.443253      3.384327     -5.602010
  H       0.774393      4.307546     -6.118785
  C      -0.183405      2.323407     -6.494939
  H      -0.310403      1.368228     -5.938109
  H       0.518892      2.098378     -7.337051
  C      -1.560710      2.732782     -7.111551
  H      -2.274464      2.975081     -6.287118
  H      -1.976965      1.841228     -7.637585
  C      -1.495062      3.933502     -8.096936
  H      -0.712149      3.729645     -8.869515
  H      -1.152650      4.839518     -7.543230
  C      -2.841190      4.265944     -8.799864
  H      -2.734635      5.245320     -9.327549
  H      -3.633334      4.426777     -8.026270
  C      -3.327348      3.208570     -9.826982
  H      -3.460736      2.217548     -9.329470
  H      -2.525398      3.063947    -10.590607
  C      -4.655255      3.601405    -10.529930
  H      -4.509290      4.562887    -11.083581
  H      -5.425809      3.816652     -9.749826
  C      -5.216951      2.530237    -11.506830
  H      -6.224172      2.861120    -11.858255
  H      -5.387681      1.577075    -10.946943
  C      -4.318982      2.246824    -12.738356
  H      -3.329666      1.827382    -12.444536
  H      -4.123663      3.180411    -13.318130
  H      -4.796720      1.516341    -13.430940
  C       1.359333      2.014650      4.462713
  H       1.939692      2.801900      4.999554
  H       0.695661      2.557399      3.751678
  C       2.321924      1.094192      3.659099
  H       2.856199      0.401106      4.355578
  H       3.112232      1.725806      3.190593
  C       1.602716      0.274465      2.550988
  H       1.146823      0.981371      1.814148
  H       0.744463     -0.285977      2.993941
  C       2.500830     -0.739462      1.792833
  H       2.955280     -1.448133      2.526346
  H       1.852935     -1.363073      1.128230
  C       3.621715     -0.100565      0.932069
  H       3.173550      0.676196      0.263547
  H       4.351825      0.433385      1.584779
  C       4.404895     -1.128554      0.050573
  H       5.159969     -0.578312     -0.555554
  H       3.692252     -1.583355     -0.680704
  C       5.067139     -2.235706      0.858638
  H       4.404895     -3.067367      1.172569
  C       6.359348     -2.277679      1.264660
  H       6.678022     -3.152071      1.866699
  C       7.440769     -1.250577      0.955010
  H       8.086721     -1.121892      1.857560
  H       6.989015     -0.252176      0.755597
  C       8.355437     -1.633392     -0.253894
  H       9.064288     -0.790291     -0.432259
  H       7.726896     -1.714360     -1.174536
  C       9.143139     -2.952162     -0.056253
  H       9.751876     -2.881290      0.880349
  H       8.422793     -3.787713      0.110361
  C      10.072245     -3.333553     -1.240748
  H      10.467228     -4.364388     -1.066008
  H       9.461586     -3.394043     -2.174002
  C      11.276447     -2.375677     -1.454822
  H      11.813369     -2.260701     -0.481289
  H      10.912926     -1.354293     -1.723039
  C      12.292999     -2.848563     -2.532063
  H      13.188747     -2.180806     -2.501220
  H      12.666917     -3.868501     -2.263911
  C      11.744840     -2.871616     -3.984428
  H      10.874427     -3.567401     -4.050175
  H      11.345605     -1.859415     -4.241814
  C      12.806764     -3.295029     -5.029759
  H      13.195763     -4.319162     -4.819804
  H      12.386889     -3.299788     -6.062280
  H      13.681294     -2.601995     -5.029534
138
Coordinates from ORCA-job /wrk/rja7/qm_final_3_replicates/qm_final_1.1/qm/9/freq E -2722.573513300625
  N      -8.572506     -3.291912      5.884746
  C      -7.041772     -3.224238      5.556819
  H      -6.944824     -3.610101      4.516287
  H      -6.552374     -3.903928      6.285209
  C      -8.881642     -2.846307      7.331432
  H      -9.948842     -3.082097      7.526967
  H      -8.182978     -3.379884      8.010641
  H      -8.680385     -1.762486      7.414708
  C      -8.996305     -4.748748      5.739984
  H      -8.780869     -5.093624      4.707646
  H      -8.425290     -5.354492      6.471857
  H     -10.083679     -4.834261      5.946094
  C      -9.365856     -2.432726      4.912638
  H      -9.164826     -2.771952      3.875062
  H      -9.059022     -1.375570      5.028838
  H     -10.447489     -2.535400      5.139417
  C      -6.381788     -1.825800      5.655450
  H      -5.319022     -2.010416      5.343359
  H      -6.813663     -1.119203      4.905253
  P      -5.599420     -1.922403      8.302442
  O      -5.993535     -3.408240      8.332197
  O      -5.782554     -0.915559      9.418526
  O      -6.468115     -1.208801      6.927024
  O      -4.017180     -1.869063      7.673537
  C      -3.247383     -0.670621      7.895718
  H      -2.176499     -0.941468      7.745054
  H      -3.381684     -0.305865      8.941908
  C      -3.625515      0.486126      6.937152
  H      -4.717213      0.693187      6.994457
  O      -3.271987      0.043075      5.573596
  C      -3.995822      0.496257      4.493556
  O      -4.989877      1.204715      4.566741
  C      -3.367420     -0.012276      3.183419
  H      -4.102272     -0.706147      2.704319
  H      -2.458294     -0.609040      3.416498
  C      -2.867998      1.802368      7.241843
  H      -2.971453      2.056672      8.320359
  H      -3.256983      2.639472      6.624747
  O      -1.432107      1.618162      6.995374
  C      -0.960311      1.984128      5.754462
  O      -1.577015      2.685338      4.962128
  C       0.410250      1.349492      5.482495
  H       0.959427      1.204506      6.440002
  H       0.165288      0.320159      5.121826
  C      -3.024026      1.152814      2.209949
  H      -2.400191      1.899257      2.752761
  H      -3.965023      1.676973      1.921090
  C      -2.260396      0.682320      0.944954
  H      -2.884224     -0.045097      0.367143
  H      -1.346879      0.118817      1.259736
  C      -1.845407      1.854476      0.017960
  H      -1.299418      2.619094      0.624044
  H      -2.762633      2.371174     -0.359681
  C      -0.962174      1.428226     -1.181961
  H      -1.484437      0.632201     -1.769220
  H      -0.023680      0.953982     -0.798587
  C      -0.595398      2.599499     -2.130521
  H      -0.116176      3.418260     -1.539112
  H      -1.529388      3.039742     -2.558091
  C       0.350072      2.180949     -3.294677
  H      -0.109692      1.337922     -3.859465
  H       1.294106      1.772390     -2.849331
  C       0.701325      3.331657     -4.225223
  H       1.137802      4.217915     -3.718374
  C       0.526204      3.404068     -5.570397
  H       0.833508      4.344418     -6.070716
  C      -0.069805      2.344451     -6.485267
  H      -0.165303      1.374587     -5.948390
  H       0.636238      2.159167     -7.334225
  C      -1.462199      2.722657     -7.087934
  H      -2.179076      2.915442     -6.253013
  H      -1.850375      1.833226     -7.638250
  C      -1.443536      3.953779     -8.037485
  H      -0.667011      3.795886     -8.827051
  H      -1.119563      4.852523     -7.461154
  C      -2.809588      4.268338     -8.709959
  H      -2.739848      5.264464     -9.211618
  H      -3.591482      4.384770     -7.918253
  C      -3.283450      3.226149     -9.757443
  H      -3.390068      2.221013     -9.282625
  H      -2.487874      3.118168    -10.534005
  C      -4.629341      3.605225    -10.432417
  H      -4.516151      4.586726    -10.957434
  H      -5.394631      3.775796     -9.635862
  C      -5.179546      2.550811    -11.433469
  H      -6.199272      2.868876    -11.759835
  H      -5.320710      1.577341    -10.901284
  C      -4.295746      2.328814    -12.687977
  H      -3.295487      1.914487    -12.425200
  H      -4.123711      3.286545    -13.234559
  H      -4.773292      1.617433    -13.400279
  C       1.262511      2.104400      4.426456
  H       1.817711      2.928880      4.933242
  H       0.583315      2.594961      3.692466
  C       2.258167      1.188356      3.658251
  H       2.825197      0.547559      4.378342
  H       3.017155      1.832274      3.155815
  C       1.562764      0.295244      2.593391
  H       1.071875      0.954953      1.836119
  H       0.731539     -0.278563      3.069269
  C       2.490050     -0.717401      1.864101
  H       2.984002     -1.373667      2.620678
  H       1.854635     -1.394622      1.241372
  C       3.567267     -0.078367      0.948379
  H       3.074676      0.647387      0.254458
  H       4.288574      0.514144      1.559262
  C       4.375248     -1.115634      0.097791
  H       5.078264     -0.563984     -0.566721
  H       3.663008     -1.647266     -0.580043
  C       5.123227     -2.144162      0.936946
  H       4.510464     -2.979803      1.330669
  C       6.436064     -2.115163      1.280572
  H       6.814984     -2.938971      1.918179
  C       7.469893     -1.085002      0.843567
  H       8.138444     -0.857352      1.709751
  H       6.977938     -0.123295      0.573046
  C       8.364542     -1.545863     -0.353924
  H       9.040751     -0.701370     -0.627215
  H       7.713956     -1.727996     -1.244060
  C       9.198403     -2.820596     -0.061962
  H       9.831039     -2.646435      0.844785
  H       8.506930     -3.654486      0.206144
  C      10.105661     -3.292598     -1.233575
  H      10.530959     -4.292953     -0.973291
  H       9.473211     -3.455162     -2.139540
  C      11.281746     -2.335194     -1.571893
  H      11.840514     -2.115961     -0.629169
  H      10.888362     -1.353039     -1.928890
  C      12.281382     -2.890494     -2.625238
  H      13.162792     -2.205561     -2.682878
  H      12.683231     -3.872251     -2.269282
  C      11.698808     -3.065001     -4.053569
  H      10.835078     -3.771583     -4.027946
  H      11.282137     -2.086659     -4.400009
  C      12.740543     -3.577301     -5.078514
  H      13.153351     -4.568324     -4.775521
  H      12.294912     -3.694885     -6.093322
  H      13.602470     -2.874955     -5.172565
138
Coordinates from ORCA-job /wrk/rja7/qm_final_3_replicates/qm_final_1.1/qm/9/freq E -2722.573824596079
  N      -8.609943     -3.232980      5.936960
  C      -7.082292     -3.202107      5.596173
  H      -7.005042     -3.595251      4.556868
  H      -6.603601     -3.889894      6.323783
  C      -8.896185     -2.783397      7.386421
  H      -9.968085     -2.991327      7.589371
  H      -8.208738     -3.337926      8.059533
  H      -8.664907     -1.705971      7.472393
  C      -9.068046     -4.679331      5.794744
  H      -8.867455     -5.028681      4.760867
  H      -8.502984     -5.298679      6.519968
  H     -10.155348     -4.740624      6.009852
  C      -9.392616     -2.355470      4.972737
  H      -9.207320     -2.698536      3.933409
  H      -9.062760     -1.305013      5.087726
  H     -10.474307     -2.435248      5.208593
  C      -6.390223     -1.818556      5.685337
  H      -5.334417     -2.025632      5.364364
  H      -6.811987     -1.103783      4.936772
  P      -5.589601     -1.935451      8.321625
  O      -6.008984     -3.413187      8.344712
  O      -5.747297     -0.932730      9.444240
  O      -6.454381     -1.199056      6.957730
  O      -4.015412     -1.904130      7.673470
  C      -3.217897     -0.725566      7.902003
  H      -2.155469     -1.016875      7.731633
  H      -3.330524     -0.374459      8.955352
  C      -3.584522      0.456630      6.969443
  H      -4.671190      0.683012      7.043705
  O      -3.258690      0.036449      5.592805
  C      -3.994675      0.527952      4.538878
  O      -4.974490      1.251914      4.648533
  C      -3.402599      0.036850      3.206012
  H      -4.156322     -0.633952      2.725850
  H      -2.500870     -0.582032      3.409588
  C      -2.797233      1.750863      7.291688
  H      -2.884179      1.986557      8.375989
  H      -3.176073      2.607732      6.695639
  O      -1.368001      1.545088      7.024603
  C      -0.897672      1.947028      5.794415
  O      -1.512392      2.676951      5.026610
  C       0.453894      1.287041      5.485549
  H       1.018238      1.120011      6.430584
  H       0.182402      0.265279      5.120298
  C      -3.053363      1.214630      2.252719
  H      -2.418090      1.945200      2.803917
  H      -3.989535      1.755150      1.978330
  C      -2.301252      0.752256      0.980031
  H      -2.920823      0.013601      0.411962
  H      -1.377433      0.203210      1.284036
  C      -1.908640      1.928508      0.049544
  H      -1.382257      2.707571      0.654579
  H      -2.834818      2.423096     -0.335549
  C      -1.004176      1.517413     -1.138945
  H      -1.498640      0.702634     -1.724923
  H      -0.056893      1.071186     -0.743491
  C      -0.660034      2.691760     -2.089548
  H      -0.220018      3.531307     -1.496518
  H      -1.600095      3.097778     -2.537287
  C       0.324235      2.299359     -3.229895
  H      -0.090589      1.433792     -3.795282
  H       1.274424      1.932975     -2.761676
  C       0.645099      3.457209     -4.160754
  H       1.035947      4.363242     -3.651538
  C       0.499664      3.511798     -5.509064
  H       0.777437      4.461203     -6.009597
  C      -0.010944      2.414788     -6.430243
  H      -0.062984      1.443386     -5.889876
  H       0.726166      2.265686     -7.259800
  C      -1.408050      2.706507     -7.067093
  H      -2.159933      2.837700     -6.250887
  H      -1.721087      1.799420     -7.636706
  C      -1.447558      3.947418     -7.999263
  H      -0.648017      3.849268     -8.775672
  H      -1.190505      4.858270     -7.408589
  C      -2.816963      4.180533     -8.696781
  H      -2.809866      5.189389     -9.177174
  H      -3.621764      4.222470     -7.920745
  C      -3.189676      3.125882     -9.771853
  H      -3.226055      2.106738     -9.315788
  H      -2.373614      3.090359    -10.534159
  C      -4.548702      3.410566    -10.463546
  H      -4.510294      4.414840    -10.955225
  H      -5.340778      3.489359     -9.678681
  C      -4.987034      2.347176    -11.509021
  H      -6.027279      2.582760    -11.840662
  H      -5.046585      1.346341    -11.013699
  C      -4.072286      2.252378    -12.757367
  H      -3.043463      1.912911    -12.497517
  H      -3.978432      3.241770    -13.264710
  H      -4.479859      1.531428    -13.502969
  C       1.301484      2.035243      4.421355
  H       1.881995      2.843739      4.925274
  H       0.618070      2.548161      3.706419
  C       2.266841      1.109487      3.625615
  H       2.816770      0.434115      4.327331
  H       3.045922      1.741850      3.139040
  C       1.542935      0.263640      2.542010
  H       1.065994      0.957444      1.806043
  H       0.698121     -0.299249      3.007595
  C       2.439788     -0.750832      1.781875
  H       2.904821     -1.452591      2.515747
  H       1.786605     -1.380912      1.128728
  C       3.546049     -0.111095      0.902604
  H       3.084128      0.659015      0.236116
  H       4.281042      0.429454      1.545005
  C       4.326285     -1.137254      0.016319
  H       5.052388     -0.582096     -0.620126
  H       3.603202     -1.617174     -0.688364
  C       5.031325     -2.226378      0.815591
  H       4.392007     -3.068411      1.149114
  C       6.337622     -2.249804      1.183529
  H       6.685367     -3.120284      1.775092
  C       7.401891     -1.218666      0.832503
  H       8.057857     -1.060924      1.724057
  H       6.936980     -0.230317      0.615652
  C       8.309616     -1.621940     -0.375437
  H       9.003532     -0.773220     -0.583760
  H       7.672267     -1.735952     -1.286447
  C       9.121342     -2.925491     -0.152879
  H       9.735152     -2.823104      0.777645
  H       8.414045     -3.766863      0.038327
  C      10.050825     -3.320255     -1.335069
  H      10.460614     -4.342187     -1.141540
  H       9.437820     -3.408505     -2.264420
  C      11.241535     -2.351085     -1.572600
  H      11.778392     -2.206104     -0.603092
  H      10.861235     -1.341870     -1.863742
  C      12.262735     -2.828612     -2.642070
  H      13.146697     -2.144526     -2.625472
  H      12.655644     -3.836412     -2.354698
  C      11.713315     -2.889110     -4.092147
  H      10.855834     -3.601855     -4.145545
  H      11.293390     -1.888732     -4.364435
  C      12.783944     -3.300816     -5.132082
  H      13.204213     -4.308677     -4.903305
  H      12.362564     -3.339249     -6.163091
  H      13.637407     -2.582335     -5.145115
138
Coordinates from ORCA-job /wrk/rja7/qm_final_3_replicates/qm_final_1.1/qm/9/freq E -2722.573952884659
  N      -8.641682     -3.221025      5.896404
  C      -7.117075     -3.147114      5.541871
  H      -7.042938     -3.520036      4.494697
  H      -6.616545     -3.837461      6.252442
  C      -8.929225     -2.818871      7.359179
  H      -9.993733     -3.062272      7.563808
  H      -8.222667     -3.371741      8.013096
  H      -8.727042     -1.738485      7.473048
  C      -9.067778     -4.673318      5.718217
  H      -8.867222     -4.990072      4.673821
  H      -8.481951     -5.299341      6.420994
  H     -10.151490     -4.766297      5.939927
  C      -9.453234     -2.336874      4.962844
  H      -9.268475     -2.647344      3.913092
  H      -9.148283     -1.281965      5.104736
  H     -10.530454     -2.450186      5.205447
  C      -6.447598     -1.753185      5.646829
  H      -5.394932     -1.937128      5.303157
  H      -6.892946     -1.030025      4.920160
  P      -5.602801     -1.921440      8.266438
  O      -6.020648     -3.399144      8.269376
  O      -5.743858     -0.938864      9.408619
  O      -6.494166     -1.161187      6.932935
  O      -4.039073     -1.878407      7.592705
  C      -3.234058     -0.706529      7.828984
  H      -2.173487     -1.002758      7.654981
  H      -3.343373     -0.361450      8.884722
  C      -3.594150      0.482444      6.903496
  H      -4.679473      0.713692      6.979461
  O      -3.272054      0.060749      5.526062
  C      -4.011009      0.543635      4.470878
  O      -4.990078      1.269730      4.576228
  C      -3.422386      0.037628      3.142528
  H      -4.196236     -0.600689      2.648757
  H      -2.548709     -0.618018      3.354515
  C      -2.798244      1.769935      7.233828
  H      -2.890532      2.002979      8.318122
  H      -3.166193      2.632317      6.638638
  O      -1.368470      1.554823      6.975209
  C      -0.884887      1.972931      5.755572
  O      -1.480719      2.732978      5.002088
  C       0.462196      1.304664      5.443741
  H       1.017515      1.113483      6.389439
  H       0.181884      0.291945      5.058868
  C      -3.012711      1.204791      2.199152
  H      -2.360771      1.910246      2.762234
  H      -3.924088      1.779777      1.910931
  C      -2.255749      0.716998      0.938108
  H      -2.891760      0.000711      0.359475
  H      -1.356480      0.134548      1.256764
  C      -1.804611      1.875815      0.012111
  H      -1.251158      2.632739      0.621303
  H      -2.705802      2.407950     -0.381854
  C      -0.911127      1.423482     -1.169889
  H      -1.436441      0.627054     -1.754462
  H       0.014494      0.939158     -0.768132
  C      -0.514037      2.577346     -2.124763
  H      -0.031722      3.397622     -1.537423
  H      -1.435200      3.025821     -2.571093
  C       0.443489      2.132343     -3.269046
  H      -0.017170      1.284701     -3.826107
  H       1.377734      1.723269     -2.804285
  C       0.812568      3.269190     -4.207831
  H       1.270183      4.148987     -3.708198
  C       0.637591      3.334256     -5.551927
  H       0.966772      4.262850     -6.060281
  C       0.030359      2.273750     -6.457550
  H      -0.063575      1.306207     -5.915225
  H       0.729424      2.080207     -7.310222
  C      -1.368188      2.650503     -7.046600
  H      -2.076930      2.844166     -6.204408
  H      -1.764118      1.757484     -7.586218
  C      -1.363023      3.873720     -8.001694
  H      -0.616818      3.699942     -8.817176
  H      -1.005482      4.773149     -7.447279
  C      -2.746538      4.198359     -8.631326
  H      -2.683938      5.185385     -9.151537
  H      -3.497246      4.336992     -7.813262
  C      -3.270452      3.140355     -9.637763
  H      -3.364936      2.146293     -9.136153
  H      -2.508152      3.002598    -10.443038
  C      -4.639956      3.513916    -10.261834
  H      -4.548172      4.491478    -10.798585
  H      -5.373316      3.690873     -9.436996
  C      -5.227024      2.451897    -11.232735
  H      -6.263101      2.760656    -11.513699
  H      -5.337355      1.479608    -10.691356
  C      -4.401377      2.231676    -12.526318
  H      -3.389777      1.816554    -12.312720
  H      -4.259349      3.188721    -13.082187
  H      -4.911911      1.518467    -13.213844
  C       1.325643      2.061241      4.398251
  H       1.919023      2.848388      4.920653
  H       0.653241      2.601755      3.693246
  C       2.277033      1.136929      3.584169
  H       2.819362      0.443146      4.273867
  H       3.064703      1.766487      3.107722
  C       1.539678      0.318409      2.488730
  H       1.067674      1.030640      1.766562
  H       0.690150     -0.243157      2.947619
  C       2.422081     -0.692651      1.709791
  H       2.872487     -1.417444      2.430226
  H       1.761087     -1.297387      1.040693
  C       3.544574     -0.052703      0.851383
  H       3.100452      0.737974      0.197103
  H       4.283878      0.461616      1.510403
  C       4.313301     -1.074069     -0.048467
  H       5.061548     -0.521098     -0.660920
  H       3.589422     -1.520062     -0.774626
  C       4.978415     -2.200108      0.733129
  H       4.314100     -3.036111      1.031318
  C       6.275777     -2.264972      1.125195
  H       6.590614     -3.161147      1.696427
  C       7.369197     -1.245828      0.836076
  H       8.001081     -1.126400      1.750992
  H       6.929835     -0.242470      0.635167
  C       8.305148     -1.630770     -0.356328
  H       9.016917     -0.787121     -0.520018
  H       7.692679     -1.708481     -1.288235
  C       9.093127     -2.951371     -0.150213
  H       9.679108     -2.887235      0.801527
  H       8.369834     -3.788938     -0.010282
  C      10.054632     -3.316919     -1.315556
  H      10.447004     -4.349791     -1.145218
  H       9.469530     -3.366490     -2.265555
  C      11.261461     -2.353173     -1.482152
  H      11.771238     -2.249546     -0.492895
  H      10.898916     -1.329639     -1.745750
  C      12.307862     -2.799574     -2.540017
  H      13.196990     -2.125351     -2.472068
  H      12.684483     -3.821451     -2.281531
  C      11.798317     -2.798858     -4.005559
  H      10.939146     -3.503837     -4.110925
  H      11.390043     -1.786191     -4.248746
  C      12.895781     -3.174252     -5.031085
  H      13.305728     -4.192554     -4.831296
  H      12.503054     -3.169815     -6.074019
  H      13.751869     -2.459939     -4.990812
138
Coordinates from ORCA-job /wrk/rja7/qm_final_3_replicates/qm_final_1.1/qm/9/freq E -2722.574243491435
  N      -8.638743     -3.284010      5.951549
  C      -7.117519     -3.215882      5.584583
  H      -7.046912     -3.616087      4.547386
  H      -6.609880     -3.885059      6.310781
  C      -8.914947     -2.843620      7.405364
  H      -9.976882     -3.083852      7.626401
  H      -8.200799     -3.375090      8.068836
  H      -8.714498     -1.759986      7.487222
  C      -9.065372     -4.740617      5.813288
  H      -8.874044     -5.084127      4.775590
  H      -8.474546     -5.349099      6.527154
  H     -10.147142     -4.828573      6.046056
  C      -9.458983     -2.424018      5.003253
  H      -9.282475     -2.759929      3.959872
  H      -9.154471     -1.365420      5.116392
  H     -10.534021     -2.532562      5.257307
  C      -6.453567     -1.817658      5.651506
  H      -5.402453     -2.004697      5.305463
  H      -6.906524     -1.110976      4.913399
  P      -5.592401     -1.942090      8.264372
  O      -5.988051     -3.425813      8.274182
  O      -5.749741     -0.956085      9.401717
  O      -6.495293     -1.203566      6.927071
  O      -4.029545     -1.877506      7.591058
  C      -3.245035     -0.690574      7.819879
  H      -2.179000     -0.968546      7.648805
  H      -3.361450     -0.339877      8.873087
  C      -3.628132      0.484033      6.885880
  H      -4.717833      0.693836      6.961364
  O      -3.300112      0.056909      5.510818
  C      -4.066308      0.497767      4.456476
  O      -5.070130      1.189367      4.562702
  C      -3.476848     -0.007216      3.128139
  H      -4.248835     -0.648245      2.634974
  H      -2.599174     -0.657520      3.340149
  C      -2.858413      1.789718      7.206792
  H      -2.962340      2.031677      8.287979
  H      -3.239813      2.638770      6.600822
  O      -1.422744      1.600856      6.961241
  C      -0.937497      2.019011      5.742658
  O      -1.542003      2.761619      4.978795
  C       0.426232      1.377414      5.448621
  H       0.977908      1.207669      6.400479
  H       0.170345      0.355280      5.071749
  C      -3.074251      1.162216      2.183664
  H      -2.435171      1.877417      2.748425
  H      -3.989750      1.725895      1.886035
  C      -2.299801      0.680935      0.930275
  H      -2.923923     -0.038692      0.342844
  H      -1.400504      0.104119      1.260030
  C      -1.843887      1.844323      0.012385
  H      -1.313047      2.608604      0.632546
  H      -2.743138      2.365204     -0.400526
  C      -0.919250      1.402337     -1.149186
  H      -1.419380      0.597180     -1.743719
  H       0.004413      0.933210     -0.725851
  C      -0.517431      2.560468     -2.097300
  H      -0.064355      3.389886     -1.499608
  H      -1.433789      2.992305     -2.568881
  C       0.477723      2.129029     -3.214358
  H       0.047454      1.272238     -3.781721
  H       1.405885      1.737815     -2.723031
  C       0.852276      3.270804     -4.145019
  H       1.290139      4.155407     -3.636252
  C       0.699020      3.336689     -5.491744
  H       1.028043      4.269236     -5.992939
  C       0.116992      2.271851     -6.409133
  H       0.031201      1.299863     -5.873116
  H       0.828826      2.093627     -7.254263
  C      -1.280434      2.630707     -7.012550
  H      -2.003869      2.798940     -6.177428
  H      -1.652055      1.739325     -7.571370
  C      -1.284860      3.869293     -7.948079
  H      -0.527388      3.721172     -8.758236
  H      -0.947273      4.764017     -7.373829
  C      -2.666446      4.186135     -8.587122
  H      -2.611674      5.184474     -9.086349
  H      -3.428849      4.297964     -7.775889
  C      -3.164148      3.143452     -9.622561
  H      -3.253446      2.137999     -9.143569
  H      -2.390234      3.032973    -10.420573
  C      -4.530522      3.514176    -10.256025
  H      -4.445425      4.505767    -10.767784
  H      -5.277026      3.660790     -9.437184
  C      -5.089807      2.468353    -11.260468
  H      -6.127877      2.767098    -11.544784
  H      -5.188820      1.480812    -10.744965
  C      -4.246393      2.295639    -12.549697
  H      -3.228710      1.896191    -12.334870
  H      -4.117432      3.268680    -13.080546
  H      -4.734743      1.588915    -13.259655
  C       1.280401      2.141211      4.400655
  H       1.862703      2.939851      4.918139
  H       0.600544      2.666474      3.691685
  C       2.245523      1.226121      3.592513
  H       2.806524      0.553594      4.288388
  H       3.015630      1.865655      3.101254
  C       1.517735      0.374603      2.516125
  H       1.026310      1.063070      1.783979
  H       0.683595     -0.196412      2.990994
  C       2.415035     -0.635102      1.750606
  H       2.895157     -1.327519      2.483512
  H       1.759104     -1.275091      1.109948
  C       3.506663      0.006427      0.853612
  H       3.030466      0.763217      0.181856
  H       4.242603      0.561497      1.482503
  C       4.287741     -1.023558     -0.026126
  H       5.007803     -0.471880     -0.672532
  H       3.562624     -1.515177     -0.720949
  C       5.000238     -2.101883      0.780503
  H       4.361687     -2.935033      1.137114
  C       6.310537     -2.126398      1.132555
  H       6.658988     -2.988057      1.736555
  C       7.377948     -1.107591      0.756685
  H       8.028419     -0.922333      1.647162
  H       6.915179     -0.126298      0.505418
  C       8.293774     -1.549861     -0.432007
  H       8.988459     -0.707949     -0.663462
  H       7.660929     -1.693636     -1.342159
  C       9.105861     -2.844210     -0.163803
  H       9.720442     -2.709789      0.762119
  H       8.397998     -3.677947      0.055816
  C      10.034740     -3.280751     -1.331792
  H      10.441844     -4.296507     -1.103522
  H       9.420557     -3.399763     -2.256914
  C      11.226898     -2.322893     -1.604579
  H      11.768262     -2.147775     -0.642483
  H      10.847899     -1.322458     -1.926528
  C      12.241444     -2.837574     -2.662374
  H      13.126760     -2.155124     -2.673468
  H      12.634430     -3.835997     -2.343896
  C      11.682648     -2.946684     -4.105935
  H      10.821899     -3.657150     -4.128492
  H      11.265442     -1.954887     -4.411794
  C      12.744869     -3.402730     -5.136077
  H      13.162229     -4.403025     -4.871418
  H      12.317095     -3.478936     -6.162328
  H      13.601490     -2.689208     -5.181288
138
Coordinates from ORCA-job /wrk/rja7/qm_final_3_replicates/qm_final_1.1/qm/9/freq E -2722.574418645939
  N      -8.653882     -3.279621      6.022287
  C      -7.143093     -3.229969      5.613437
  H      -7.104640     -3.617674      4.569660
  H      -6.625204     -3.913607      6.318865
  C      -8.876641     -2.855678      7.489984
  H      -9.935380     -3.078559      7.741595
  H      -8.152394     -3.409699      8.123620
  H      -8.652239     -1.777164      7.580297
  C      -9.109656     -4.726462      5.875640
  H      -8.955978     -5.057479      4.827687
  H      -8.508427     -5.355593      6.562387
  H     -10.185291     -4.799789      6.139845
  C      -9.487269     -2.390801      5.112539
  H      -9.348319     -2.713094      4.059224
  H      -9.160901     -1.339529      5.232265
  H     -10.555942     -2.484811      5.397496
  C      -6.460649     -1.841160      5.680744
  H      -5.417001     -2.036792      5.316886
  H      -6.916785     -1.124953      4.954119
  P      -5.550657     -1.963400      8.282470
  O      -5.926668     -3.452331      8.295276
  O      -5.706033     -0.982135      9.424323
  O      -6.480240     -1.231411      6.959955
  O      -3.996734     -1.877735      7.591019
  C      -3.230026     -0.676295      7.803113
  H      -2.160183     -0.937675      7.629981
  H      -3.347491     -0.315495      8.852798
  C      -3.639977      0.478702      6.855931
  H      -4.733600      0.667364      6.933117
  O      -3.308145      0.041578      5.484909
  C      -4.092516      0.445415      4.429389
  O      -5.104258      1.126378      4.530342
  C      -3.497915     -0.061726      3.104639
  H      -4.273832     -0.691274      2.603062
  H      -2.627748     -0.720884      3.319999
  C      -2.896784      1.803629      7.153116
  H      -3.005863      2.063070      8.229855
  H      -3.294586      2.633706      6.531759
  O      -1.458486      1.635716      6.909681
  C      -0.978470      2.038358      5.683573
  O      -1.596896      2.748819      4.900516
  C       0.396830      1.413984      5.407484
  H       0.942551      1.262943      6.365950
  H       0.157948      0.384365      5.040780
  C      -3.078956      1.110436      2.169268
  H      -2.441879      1.821260      2.742999
  H      -3.989371      1.679183      1.865779
  C      -2.294579      0.634960      0.919628
  H      -2.912929     -0.083926      0.325423
  H      -1.395923      0.059002      1.253668
  C      -1.838857      1.804107      0.008187
  H      -1.323100      2.572709      0.635642
  H      -2.738711      2.316902     -0.413450
  C      -0.896379      1.375387     -1.144161
  H      -1.377767      0.562609     -1.743554
  H       0.030395      0.921637     -0.711430
  C      -0.504303      2.540486     -2.088664
  H      -0.076962      3.379056     -1.485040
  H      -1.422078      2.953477     -2.573999
  C       0.517532      2.130656     -3.190371
  H       0.115950      1.264524     -3.764350
  H       1.446411      1.761234     -2.683852
  C       0.880675      3.281864     -4.114412
  H       1.296042      4.172858     -3.598080
  C       0.735527      3.352731     -5.462306
  H       1.045468      4.296489     -5.954591
  C       0.185347      2.281415     -6.392130
  H       0.129460      1.300710     -5.868284
  H       0.902643      2.136012     -7.238894
  C      -1.222014      2.603887     -6.992737
  H      -1.954318      2.721727     -6.156756
  H      -1.557228      1.714911     -7.577618
  C      -1.270177      3.867950     -7.893123
  H      -0.506939      3.770993     -8.705593
  H      -0.965811      4.757067     -7.291971
  C      -2.661444      4.154229     -8.525950
  H      -2.642101      5.169700     -8.992140
  H      -3.429724      4.211514     -7.714601
  C      -3.117777      3.129446     -9.597722
  H      -3.171306      2.105978     -9.153189
  H      -2.338388      3.075136    -10.396083
  C      -4.496126      3.470419    -10.222734
  H      -4.449926      4.484213    -10.694395
  H      -5.250454      3.554038     -9.402240
  C      -5.009784      2.443576    -11.270486
  H      -6.060877      2.706810    -11.541695
  H      -5.062806      1.431793    -10.796847
  C      -4.162571      2.364071    -12.566363
  H      -3.126451      2.004837    -12.369267
  H      -4.080854      3.363335    -13.056300
  H      -4.618807      1.664997    -13.304662
  C       1.250532      2.176743      4.358117
  H       1.831427      2.977720      4.873586
  H       0.570610      2.697941      3.646341
  C       2.217942      1.260620      3.553545
  H       2.774962      0.586236      4.250831
  H       2.990041      1.900132      3.065698
  C       1.492735      0.413937      2.471728
  H       1.006964      1.105942      1.740195
  H       0.655269     -0.156221      2.941298
  C       2.388442     -0.597303      1.705419
  H       2.858819     -1.297736      2.436963
  H       1.732109     -1.228399      1.056442
  C       3.489768      0.041840      0.818872
  H       3.023210      0.809410      0.152375
  H       4.228117      0.584759      1.455286
  C       4.263635     -0.986598     -0.069200
  H       4.993061     -0.435563     -0.705495
  H       3.536494     -1.461825     -0.773302
  C       4.959492     -2.083039      0.727055
  H       4.309594     -2.913530      1.068981
  C       6.267517     -2.127792      1.084369
  H       6.603591     -3.002216      1.677132
  C       7.347363     -1.114717      0.730668
  H       7.990558     -0.945649      1.629544
  H       6.896050     -0.126471      0.485958
  C       8.269915     -1.551497     -0.454415
  H       8.974336     -0.713351     -0.669703
  H       7.643793     -1.678797     -1.371516
  C       9.066578     -2.856509     -0.194438
  H       9.672435     -2.739924      0.739508
  H       8.349108     -3.686817      0.006905
  C      10.003657     -3.286258     -1.358283
  H      10.397899     -4.309215     -1.139997
  H       9.398400     -3.385619     -2.291555
  C      11.208362     -2.337108     -1.605163
  H      11.742446     -2.183327     -0.635435
  H      10.843395     -1.327659     -1.914389
  C      12.227563     -2.846362     -2.661414
  H      13.120516     -2.173982     -2.652897
  H      12.606031     -3.854192     -2.355421
  C      11.682033     -2.925753     -4.112187
  H      10.813178     -3.625249     -4.154544
  H      11.280036     -1.924216     -4.406237
  C      12.748906     -3.378620     -5.139048
  H      13.153017     -4.387013     -4.884913
  H      12.330208     -3.435421     -6.170302
  H      13.613587     -2.673966     -5.166131
138
Coordinates from ORCA-job /wrk/rja7/qm_final_3_replicates/qm_final_1.1/qm/9/freq E -2722.574628139908
  N      -8.690384     -3.272195      6.080213
  C      -7.191898     -3.236033      5.629052
  H      -7.187890     -3.620816      4.583628
  H      -6.660240     -3.925988      6.318041
  C      -8.864867     -2.861830      7.557990
  H      -9.918288     -3.074319      7.839665
  H      -8.130120     -3.431709      8.164734
  H      -8.623940     -1.787288      7.653180
  C      -9.166947     -4.712011      5.931752
  H      -9.046708     -5.033202      4.876426
  H      -8.552130     -5.355189      6.593013
  H     -10.235176     -4.776832      6.226491
  C      -9.539212     -2.363875      5.204238
  H      -9.434357     -2.676102      4.143947
  H      -9.197409     -1.317851      5.326400
  H     -10.600132     -2.449223      5.519419
  C      -6.496780     -1.853064      5.682751
  H      -5.463441     -2.056160      5.294080
  H      -6.962672     -1.131816      4.967640
  P      -5.524094     -1.985011      8.260326
  O      -5.887687     -3.476676      8.263961
  O      -5.665508     -1.017501      9.415488
  O      -6.483702     -1.245760      6.963770
  O      -3.985793     -1.878626      7.537669
  C      -3.221293     -0.676094      7.751336
  H      -2.152845     -0.932293      7.563086
  H      -3.327260     -0.325171      8.805600
  C      -3.646357      0.487154      6.820233
  H      -4.739193      0.673054      6.913741
  O      -3.334171      0.065788      5.439587
  C      -4.145977      0.469344      4.404885
  O      -5.158043      1.145680      4.533077
  C      -3.588761     -0.039237      3.065294
  H      -4.394714     -0.627567      2.562791
  H      -2.743115     -0.736184      3.258551
  C      -2.901886      1.809805      7.118738
  H      -3.008786      2.067994      8.196139
  H      -3.300055      2.641127      6.499272
  O      -1.464442      1.640660      6.872113
  C      -0.984353      2.048879      5.648153
  O      -1.605292      2.757115      4.865090
  C       0.393824      1.430043      5.373675
  H       0.941798      1.290627      6.332706
  H       0.161291      0.395045      5.018046
  C      -3.132314      1.130388      2.144108
  H      -2.473455      1.815298      2.724944
  H      -4.023813      1.731387      1.846284
  C      -2.362876      0.640604      0.891929
  H      -3.001627     -0.055358      0.292156
  H      -1.484249      0.034862      1.223898
  C      -1.863952      1.799157     -0.010239
  H      -1.332833      2.550470      0.625234
  H      -2.743110      2.339134     -0.441396
  C      -0.918769      1.343111     -1.149710
  H      -1.413994      0.542477     -1.754086
  H      -0.011577      0.864554     -0.703282
  C      -0.478138      2.494701     -2.088741
  H      -0.042868      3.324867     -1.479284
  H      -1.374104      2.928532     -2.596055
  C       0.559628      2.054893     -3.164545
  H       0.151149      1.194780     -3.742579
  H       1.467332      1.667869     -2.633482
  C       0.969389      3.193419     -4.084111
  H       1.402969      4.072567     -3.562500
  C       0.843066      3.266935     -5.433284
  H       1.181748      4.202474     -5.922212
  C       0.279506      2.207169     -6.368037
  H       0.215323      1.223731     -5.850114
  H       0.993309      2.059787     -7.217349
  C      -1.126434      2.546258     -6.960885
  H      -1.855807      2.659349     -6.121468
  H      -1.469629      1.665110     -7.553156
  C      -1.168661      3.819224     -7.847387
  H      -0.417531      3.720296     -8.671108
  H      -0.844083      4.698783     -7.242746
  C      -2.563325      4.129469     -8.460495
  H      -2.534453      5.146100     -8.923663
  H      -3.320026      4.195733     -7.639009
  C      -3.049901      3.114090     -9.527841
  H      -3.112346      2.090986     -9.083348
  H      -2.282431      3.047514    -10.336819
  C      -4.431762      3.475949    -10.132392
  H      -4.378718      4.490017    -10.602846
  H      -5.172473      3.568871     -9.300583
  C      -4.975462      2.457214    -11.172866
  H      -6.028707      2.731578    -11.423954
  H      -5.030416      1.445055    -10.700121
  C      -4.153838      2.370881    -12.484480
  H      -3.116995      2.002687    -12.308479
  H      -4.073933      3.369090    -12.976943
  H      -4.630106      1.675275    -13.213446
  C       1.240559      2.187929      4.315345
  H       1.825237      2.991022      4.823081
  H       0.555855      2.706397      3.606110
  C       2.203577      1.268595      3.508780
  H       2.763739      0.596476      4.205842
  H       2.974381      1.905936      3.015964
  C       1.472717      0.417748      2.434188
  H       0.981810      1.106659      1.703787
  H       0.638464     -0.150942      2.911123
  C       2.365038     -0.594081      1.665790
  H       2.839188     -1.293252      2.396071
  H       1.706191     -1.226371      1.020524
  C       3.461923      0.045735      0.774209
  H       2.991604      0.813019      0.110010
  H       4.202571      0.588706      1.407928
  C       4.232412     -0.981401     -0.117648
  H       4.961307     -0.429664     -0.754004
  H       3.503809     -1.454710     -0.821578
  C       4.928531     -2.081154      0.673886
  H       4.279594     -2.914877      1.009712
  C       6.236228     -2.127758      1.031662
  H       6.572213     -3.007297      1.616943
  C       7.315410     -1.110593      0.690112
  H       7.951478     -0.943840      1.594592
  H       6.863245     -0.122351      0.446916
  C       8.247237     -1.538367     -0.490783
  H       8.950649     -0.696884     -0.696192
  H       7.627145     -1.661571     -1.412528
  C       9.045758     -2.843030     -0.234902
  H       9.644510     -2.732401      0.704268
  H       8.329204     -3.677192     -0.046791
  C       9.992640     -3.258450     -1.395914
  H      10.387227     -4.283082     -1.186054
  H       9.394607     -3.348662     -2.334657
  C      11.196828     -2.303788     -1.622738
  H      11.724277     -2.160926     -0.647790
  H      10.830668     -1.291323     -1.920708
  C      12.223291     -2.795329     -2.680234
  H      13.113514     -2.119592     -2.658259
  H      12.604953     -3.805447     -2.385836
  C      11.685374     -2.858160     -4.134623
  H      10.821841     -3.563254     -4.190861
  H      11.276708     -1.855811     -4.416384
  C      12.760588     -3.288228     -5.162595
  H      13.172971     -4.295957     -4.919354
  H      12.346514     -3.336228     -6.196144
  H      13.618717     -2.575280     -5.176764
138
Coordinates from ORCA-job /wrk/rja7/qm_final_3_replicates/qm_final_1.1/qm/9/freq E -2722.574823579989
  N      -8.716313     -3.303076      6.109159
  C      -7.220385     -3.259295      5.643992
  H      -7.224130     -3.661546      4.605263
  H      -6.677455     -3.934001      6.339257
  C      -8.884996     -2.884021      7.584782
  H      -9.933571     -3.106985      7.877316
  H      -8.140175     -3.440873      8.191010
  H      -8.656438     -1.806405      7.671131
  C      -9.181179     -4.747895      5.975411
  H      -9.065966     -5.075799      4.921625
  H      -8.554910     -5.380731      6.635906
  H     -10.246400     -4.820911      6.279128
  C      -9.579861     -2.409871      5.231887
  H      -9.478935     -2.729175      4.173327
  H      -9.247800     -1.359633      5.344132
  H     -10.637616     -2.503286      5.555277
  C      -6.530638     -1.871858      5.666848
  H      -5.500751     -2.079007      5.270946
  H      -7.004652     -1.163917      4.943883
  P      -5.535236     -1.966785      8.236488
  O      -5.892304     -3.459515      8.253276
  O      -5.681169     -0.989413      9.382848
  O      -6.503381     -1.243589      6.937171
  O      -3.997770     -1.859365      7.511160
  C      -3.237240     -0.652621      7.716666
  H      -2.166921     -0.906205      7.536235
  H      -3.349458     -0.292472      8.767232
  C      -3.662953      0.500295      6.773412
  H      -4.757880      0.677652      6.857455
  O      -3.336385      0.071684      5.397872
  C      -4.160602      0.434558      4.358505
  O      -5.192323      1.082772      4.477625
  C      -3.591061     -0.079175      3.026409
  H      -4.392411     -0.669091      2.518753
  H      -2.746143     -0.774584      3.228932
  C      -2.931892      1.830940      7.068066
  H      -3.048541      2.096201      8.142830
  H      -3.332369      2.654488      6.439600
  O      -1.491648      1.671803      6.831096
  C      -1.003957      2.093688      5.615050
  O      -1.619438      2.811928      4.836848
  C       0.378853      1.482726      5.345269
  H       0.920506      1.340021      6.307521
  H       0.154900      0.448170      4.982495
  C      -3.128628      1.088552      2.103937
  H      -2.487455      1.786257      2.688860
  H      -4.021632      1.677531      1.786855
  C      -2.333362      0.597518      0.868045
  H      -2.955879     -0.108256      0.262682
  H      -1.454800      0.001565      1.219309
  C      -1.830138      1.752930     -0.036267
  H      -1.315189      2.514574      0.600110
  H      -2.706808      2.281237     -0.486303
  C      -0.865573      1.292678     -1.157844
  H      -1.348089      0.485590     -1.763845
  H       0.035712      0.821114     -0.693233
  C      -0.412695      2.438814     -2.097858
  H       0.010123      3.274759     -1.487573
  H      -1.300308      2.866059     -2.624763
  C       0.645213      1.993358     -3.152633
  H       0.246228      1.131807     -3.734977
  H       1.541409      1.607643     -2.601618
  C       1.073413      3.129527     -4.066645
  H       1.510919      4.003339     -3.539401
  C       0.955247      3.208611     -5.416256
  H       1.304763      4.142671     -5.900211
  C       0.384834      2.157291     -6.356819
  H       0.334488      1.166621     -5.850949
  H       1.087544      2.026324     -7.217838
  C      -1.032351      2.493696     -6.924219
  H      -1.752082      2.576310     -6.072788
  H      -1.372646      1.622824     -7.533421
  C      -1.101716      3.787164     -7.778168
  H      -0.367332      3.714201     -8.619756
  H      -0.770222      4.654184     -7.159449
  C      -2.510008      4.102680     -8.355558
  H      -2.494278      5.127926     -8.800071
  H      -3.249891      4.150568     -7.517679
  C      -3.015299      3.104729     -9.430467
  H      -3.066409      2.073934     -9.002359
  H      -2.264310      3.053454    -10.255952
  C      -4.409674      3.473782    -10.000447
  H      -4.367598      4.494940    -10.456479
  H      -5.132746      3.553349     -9.151913
  C      -4.974082      2.469283    -11.043706
  H      -6.033522      2.743840    -11.266926
  H      -5.015853      1.450298    -10.584337
  C      -4.181944      2.403305    -12.374190
  H      -3.139222      2.038903    -12.227012
  H      -4.118669      3.407587    -12.856743
  H      -4.670922      1.713677    -13.100456
  C       1.229992      2.251998      4.298618
  H       1.818137      3.045055      4.817813
  H       0.548051      2.784230      3.596795
  C       2.188154      1.339000      3.478844
  H       2.740568      0.650821      4.166328
  H       2.966150      1.977342      2.998595
  C       1.451787      0.511691      2.390036
  H       0.969718      1.216045      1.668499
  H       0.610325     -0.054929      2.857036
  C       2.334895     -0.498833      1.609555
  H       2.797564     -1.214794      2.330896
  H       1.671045     -1.113142      0.952162
  C       3.443944      0.140229      0.732249
  H       2.986346      0.922171      0.076261
  H       4.187826      0.665310      1.377190
  C       4.205724     -0.884364     -0.169890
  H       4.946986     -0.333874     -0.792979
  H       3.475115     -1.336427     -0.885579
  C       4.880678     -2.006363      0.609159
  H       4.216917     -2.834554      0.929391
  C       6.185441     -2.079634      0.973566
  H       6.502797     -2.972515      1.548912
  C       7.284372     -1.077591      0.651339
  H       7.911896     -0.925701      1.564435
  H       6.850571     -0.081057      0.408379
  C       8.223368     -1.513377     -0.521406
  H       8.941519     -0.681439     -0.714262
  H       7.611488     -1.622000     -1.450480
  C       9.000406     -2.831099     -0.264938
  H       9.593651     -2.733618      0.679216
  H       8.270114     -3.655253     -0.086452
  C       9.949713     -3.255623     -1.420873
  H      10.325648     -4.287884     -1.214181
  H       9.357392     -3.330334     -2.364562
  C      11.170757     -2.319415     -1.633607
  H      11.694643     -2.191649     -0.654629
  H      10.822630     -1.299064     -1.926493
  C      12.194772     -2.820253     -2.688870
  H      13.094617     -2.157605     -2.659673
  H      12.560772     -3.837266     -2.398276
  C      11.661990     -2.868676     -4.145650
  H      10.789993     -3.562745     -4.208731
  H      11.266784     -1.860038     -4.424003
  C      12.735552     -3.307940     -5.171472
  H      13.134542     -4.321526     -4.930231
  H      12.324589     -3.347288     -6.206615
  H      13.602493     -2.605594     -5.180185
138
Coordinates from ORCA-job /wrk/rja7/qm_final_3_replicates/qm_final_1.1/qm/9/freq E -2722.575038188582
  N      -8.798505     -3.237687      6.091760
  C      -7.304720     -3.235672      5.612730
  H      -7.330500     -3.650871      4.579671
  H      -6.770952     -3.913905      6.311539
  C      -8.942761     -2.807737      7.565908
  H      -9.992979     -3.003543      7.872460
  H      -8.206515     -3.379581      8.168315
  H      -8.687843     -1.735544      7.645375
  C      -9.302066     -4.670268      5.968071
  H      -9.204462     -5.004074      4.914460
  H      -8.685587     -5.316715      6.624528
  H     -10.365995     -4.715652      6.281747
  C      -9.644736     -2.325370      5.216968
  H      -9.558921     -2.650494      4.158944
  H      -9.284325     -1.283958      5.323953
  H     -10.702153     -2.390154      5.548428
  C      -6.582401     -1.864717      5.612160
  H      -5.558031     -2.103456      5.218415
  H      -7.038621     -1.157436      4.877260
  P      -5.583254     -1.937952      8.181743
  O      -5.951444     -3.427697      8.208627
  O      -5.730160     -0.949812      9.319157
  O      -6.538779     -1.216348      6.871785
  O      -4.040475     -1.846144      7.464544
  C      -3.277541     -0.639316      7.661011
  H      -2.205879     -0.897979      7.497025
  H      -3.400954     -0.263475      8.704848
  C      -3.691438      0.500439      6.697189
  H      -4.788344      0.673362      6.761652
  O      -3.341034      0.059549      5.330724
  C      -4.175966      0.368048      4.282529
  O      -5.227002      0.988067      4.384697
  C      -3.585770     -0.151421      2.962192
  H      -4.379486     -0.743567      2.446684
  H      -2.740798     -0.842978      3.177807
  C      -2.973092      1.838178      6.987954
  H      -3.111942      2.118836      8.056285
  H      -3.365141      2.650386      6.339550
  O      -1.528094      1.683499      6.779525
  C      -1.016171      2.110632      5.575709
  O      -1.617824      2.828038      4.786113
  C       0.376269      1.508553      5.336687
  H       0.899452      1.379173      6.311166
  H       0.170732      0.468259      4.979538
  C      -3.115462      1.012978      2.036893
  H      -2.495340      1.727467      2.624375
  H      -4.009707      1.586764      1.695766
  C      -2.294395      0.514750      0.820645
  H      -2.899823     -0.206303      0.216064
  H      -1.415475     -0.067082      1.194803
  C      -1.788216      1.659218     -0.096440
  H      -1.285462      2.435232      0.531965
  H      -2.661968      2.173736     -0.567366
  C      -0.809398      1.180804     -1.198532
  H      -1.287580      0.369474     -1.802011
  H       0.080613      0.709671     -0.713660
  C      -0.330602      2.312403     -2.143643
  H       0.088229      3.152099     -1.536032
  H      -1.203227      2.739946     -2.694428
  C       0.744982      1.844356     -3.172688
  H       0.344130      0.987995     -3.761185
  H       1.620038      1.446032     -2.597564
  C       1.213377      2.971801     -4.077466
  H       1.669040      3.831087     -3.541868
  C       1.104090      3.061807     -5.427003
  H       1.477096      3.990290     -5.903875
  C       0.508316      2.030574     -6.374791
  H       0.484024      1.025866     -5.894850
  H       1.180561      1.930577     -7.263463
  C      -0.931812      2.369247     -6.879418
  H      -1.623353      2.395553     -6.001057
  H      -1.277973      1.522906     -7.519403
  C      -1.050378      3.702411     -7.663206
  H      -0.352334      3.681110     -8.538359
  H      -0.700012      4.540857     -7.016200
  C      -2.483709      4.032560     -8.165168
  H      -2.490766      5.076737     -8.563528
  H      -3.188457      4.038021     -7.296345
  C      -3.029663      3.080008     -9.261230
  H      -3.067124      2.032463     -8.874419
  H      -2.309185      3.062540    -10.114905
  C      -4.442297      3.474963     -9.765360
  H      -4.411249      4.512143    -10.184554
  H      -5.133455      3.526238     -8.888494
  C      -5.049817      2.510797    -10.822285
  H      -6.114142      2.799487    -10.999743
  H      -5.084293      1.477357    -10.395532
  C      -4.302961      2.482083    -12.179563
  H      -3.257337      2.110055    -12.079101
  H      -4.250884      3.499997    -12.634379
  H      -4.818886      1.816499    -12.909637
  C       1.241700      2.279858      4.303040
  H       1.825865      3.069152      4.832137
  H       0.569332      2.817385      3.596009
  C       2.204673      1.366203      3.489353
  H       2.739526      0.665342      4.177865
  H       2.996602      2.000419      3.026674
  C       1.472531      0.558330      2.383727
  H       1.007372      1.275737      1.664968
  H       0.619068     -0.002533      2.835929
  C       2.350692     -0.452193      1.598856
  H       2.801992     -1.181280      2.314205
  H       1.685097     -1.051852      0.929832
  C       3.469470      0.187607      0.734887
  H       3.021686      0.981623      0.086911
  H       4.214786      0.698596      1.389421
  C       4.224473     -0.831951     -0.178045
  H       4.969167     -0.278713     -0.794624
  H       3.491890     -1.272209     -0.898929
  C       4.895479     -1.964563      0.588832
  H       4.229900     -2.794797      0.899877
  C       6.200015     -2.044602      0.951398
  H       6.516461     -2.944140      1.516717
  C       7.299273     -1.040359      0.638962
  H       7.923878     -0.893038      1.554816
  H       6.865534     -0.042758      0.400264
  C       8.239221     -1.468545     -0.535584
  H       8.955607     -0.634233     -0.724557
  H       7.626868     -1.573330     -1.464780
  C       9.019149     -2.785814     -0.287713
  H       9.616611     -2.691492      0.654098
  H       8.291751     -3.612513     -0.109636
  C       9.962308     -3.202744     -1.451047
  H      10.339361     -4.236405     -1.253829
  H       9.364670     -3.270184     -2.391869
  C      11.181811     -2.264602     -1.664642
  H      11.712898     -2.144618     -0.688551
  H      10.830862     -1.242055     -1.946272
  C      12.197780     -2.756377     -2.732063
  H      13.095390     -2.090479     -2.708396
  H      12.570446     -3.773431     -2.450325
  C      11.651174     -2.800173     -4.183984
  H      10.784045     -3.500720     -4.242276
  H      11.245375     -1.793204     -4.452718
  C      12.717437     -3.226435     -5.222935
  H      13.127672     -4.237287     -4.989275
  H      12.295309     -3.266009     -6.253575
  H      13.578248     -2.516679     -5.239341
138
Coordinates from ORCA-job /wrk/rja7/qm_final_3_replicates/qm_final_1.1/qm/9/freq E -2722.575219397291
  N      -8.831446     -3.267567      6.161260
  C      -7.351438     -3.267206      5.636216
  H      -7.409932     -3.686945      4.606402
  H      -6.795123     -3.941261      6.321089
  C      -8.928806     -2.838118      7.638395
  H      -9.967027     -3.038465      7.980720
  H      -8.170790     -3.406516      8.216521
  H      -8.677268     -1.764444      7.710616
  C      -9.341566     -4.698917      6.050726
  H      -9.278474     -5.029619      4.993611
  H      -8.706165     -5.348259      6.685923
  H     -10.395085     -4.743335      6.398035
  C      -9.700670     -2.351825      5.312925
  H      -9.644815     -2.674181      4.252155
  H      -9.335097     -1.311395      5.412410
  H     -10.748364     -2.415615      5.674170
  C      -6.634141     -1.895036      5.606835
  H      -5.618264     -2.135724      5.191795
  H      -7.108456     -1.195978      4.875872
  P      -5.573956     -1.937154      8.153809
  O      -5.919094     -3.432263      8.194118
  O      -5.717025     -0.945862      9.289738
  O      -6.563526     -1.234420      6.858340
  O      -4.044619     -1.825487      7.410674
  C      -3.292862     -0.609272      7.593678
  H      -2.219147     -0.859242      7.429324
  H      -3.416218     -0.225124      8.634482
  C      -3.719777      0.516966      6.620242
  H      -4.819165      0.675044      6.678393
  O      -3.355233      0.073793      5.257513
  C      -4.200911      0.339469      4.206106
  O      -5.268783      0.931903      4.299228
  C      -3.594023     -0.173467      2.891244
  H      -4.381301     -0.765989      2.366563
  H      -2.746182     -0.859710      3.112122
  C      -3.022109      1.867350      6.902247
  H      -3.173131      2.159006      7.965939
  H      -3.419882      2.666425      6.240942
  O      -1.573539      1.729389      6.707401
  C      -1.055679      2.146407      5.502879
  O      -1.662064      2.836881      4.693152
  C       0.348128      1.561282      5.288242
  H       0.861761      1.455433      6.270650
  H       0.163168      0.512458      4.945504
  C      -3.121195      0.995550      1.970177
  H      -2.516246      1.718793      2.563096
  H      -4.017303      1.559015      1.616470
  C      -2.282426      0.499383      0.764779
  H      -2.878162     -0.225072      0.154696
  H      -1.406498     -0.078901      1.151702
  C      -1.767190      1.638750     -0.154032
  H      -1.270488      2.419133      0.473611
  H      -2.634610      2.149959     -0.639983
  C      -0.775957      1.145697     -1.239620
  H      -1.253990      0.337309     -1.846863
  H       0.099698      0.666931     -0.737072
  C      -0.264421      2.264875     -2.183404
  H       0.153090      3.103576     -1.573789
  H      -1.118495      2.698816     -2.757696
  C       0.828605      1.772198     -3.184502
  H       0.424392      0.923224     -3.781497
  H       1.679004      1.357201     -2.584955
  C       1.345789      2.886024     -4.079826
  H       1.818982      3.730490     -3.535987
  C       1.258901      2.979899     -5.431039
  H       1.664539      3.897343     -5.902419
  C       0.642635      1.966600     -6.386419
  H       0.639226      0.950499     -5.929852
  H       1.288265      1.894554     -7.296542
  C      -0.814576      2.306057     -6.840080
  H      -1.480298      2.298628     -5.941360
  H      -1.171055      1.476695     -7.496425
  C      -0.964072      3.661643     -7.579077
  H      -0.292290      3.672021     -8.474881
  H      -0.598327      4.480761     -6.915983
  C      -2.412405      4.001911     -8.028130
  H      -2.429377      5.055572     -8.400358
  H      -3.090471      3.985932     -7.138595
  C      -2.992871      3.077961     -9.131156
  H      -3.036611      2.023315     -8.765374
  H      -2.289699      3.070465     -9.999298
  C      -4.408664      3.504325     -9.601272
  H      -4.365125      4.545801    -10.008404
  H      -5.081909      3.557530     -8.710648
  C      -5.053984      2.565315    -10.658332
  H      -6.111149      2.885631    -10.823957
  H      -5.114246      1.530645    -10.237344
  C      -4.318659      2.522203    -12.021281
  H      -3.283151      2.121067    -11.929467
  H      -4.240168      3.540526    -12.471589
  H      -4.858009      1.875458    -12.751328
  C       1.214148      2.332307      4.254199
  H       1.793962      3.125435      4.782304
  H       0.542082      2.864466      3.543037
  C       2.179761      1.417247      3.445370
  H       2.717502      0.721189      4.136511
  H       2.969088      2.050117      2.976555
  C       1.443357      0.603261      2.347431
  H       0.976259      1.317913      1.627473
  H       0.591224      0.045867      2.806210
  C       2.315188     -0.411611      1.560227
  H       2.772554     -1.137709      2.274713
  H       1.643873     -1.013825      0.899325
  C       3.426252      0.224157      0.683072
  H       2.972622      1.013153      0.033287
  H       4.175467      0.741397      1.328267
  C       4.175949     -0.800201     -0.229630
  H       4.918370     -0.249863     -0.851387
  H       3.439246     -1.241783     -0.945388
  C       4.850625     -1.929825      0.538605
  H       4.186077     -2.758419      0.856214
  C       6.155686     -2.005433      0.901467
  H       6.473731     -2.900399      1.472995
  C       7.253130     -1.000002      0.584555
  H       7.871165     -0.839509      1.502556
  H       6.816546     -0.007271      0.331614
  C       8.201967     -1.437554     -0.579821
  H       8.916924     -0.603116     -0.773473
  H       7.595426     -1.554308     -1.511410
  C       8.984635     -2.749521     -0.312859
  H       9.575397     -2.642333      0.631842
  H       8.259761     -3.577225     -0.129076
  C       9.937399     -3.177815     -1.464638
  H      10.315927     -4.207819     -1.252039
  H       9.346854     -3.257580     -2.409002
  C      11.156298     -2.239182     -1.680556
  H      11.680561     -2.107852     -0.702154
  H      10.805583     -1.220398     -1.975441
  C      12.181551     -2.741517     -2.734542
  H      13.076771     -2.072408     -2.713139
  H      12.554986     -3.753670     -2.436850
  C      11.646552     -2.805637     -4.190219
  H      10.784103     -3.512007     -4.246817
  H      11.237731     -1.804237     -4.474654
  C      12.723023     -3.239810     -5.215377
  H      13.135250     -4.246089     -4.966042
  H      12.309254     -3.293310     -6.248808
  H      13.581251     -2.526989     -5.234405
138
Coordinates from ORCA-job /wrk/rja7/qm_final_3_replicates/qm_final_1.1/qm/9/freq E -2722.575355596629
  N      -8.864215     -3.221172      6.161240
  C      -7.381626     -3.241317      5.644404
  H      -7.440290     -3.664806      4.616270
  H      -6.836808     -3.919807      6.333777
  C      -8.964633     -2.786856      7.636249
  H     -10.005950     -2.979322      7.972495
  H      -8.213261     -3.359075      8.219486
  H      -8.707438     -1.714395      7.708787
  C      -9.392900     -4.645657      6.050241
  H      -9.330295     -4.978048      4.993694
  H      -8.770655     -5.302804      6.690419
  H     -10.448570     -4.674529      6.392715
  C      -9.715031     -2.295876      5.304890
  H      -9.653229     -2.619819      4.245002
  H      -9.337499     -1.259887      5.406015
  H     -10.766793     -2.346214      5.656273
  C      -6.653889     -1.875557      5.614971
  H      -5.636024     -2.124432      5.209192
  H      -7.117668     -1.176329      4.877453
  P      -5.612008     -1.917788      8.166975
  O      -5.975892     -3.408452      8.217589
  O      -5.742659     -0.917625      9.297168
  O      -6.589110     -1.211306      6.864610
  O      -4.083136     -1.828647      7.422017
  C      -3.317827     -0.619952      7.596853
  H      -2.247997     -0.883117      7.427107
  H      -3.430701     -0.231211      8.637065
  C      -3.737532      0.507809      6.622614
  H      -4.834933      0.678583      6.683794
  O      -3.381568      0.059641      5.259788
  C      -4.225308      0.333410      4.209151
  O      -5.290539      0.930395      4.302698
  C      -3.619880     -0.177854      2.893359
  H      -4.408216     -0.767883      2.368299
  H      -2.771192     -0.863343      3.112634
  C      -3.023507      1.852320      6.897329
  H      -3.161841      2.145932      7.962096
  H      -3.420949      2.654397      6.239465
  O      -1.577959      1.704375      6.688012
  C      -1.071846      2.107922      5.473585
  O      -1.685433      2.790948      4.662898
  C       0.336112      1.532942      5.255980
  H       0.855700      1.438632      6.236400
  H       0.157802      0.481131      4.920029
  C      -3.144969      0.989929      1.973412
  H      -2.532356      1.707023      2.566318
  H      -4.037608      1.561215      1.623527
  C      -2.316670      0.483474      0.766512
  H      -2.925611     -0.229332      0.155663
  H      -1.451228     -0.110429      1.150621
  C      -1.779319      1.613443     -0.149496
  H      -1.266015      2.382210      0.479191
  H      -2.634665      2.143480     -0.636737
  C      -0.795297      1.096585     -1.230411
  H      -1.293937      0.306844     -1.845509
  H       0.061248      0.588343     -0.723547
  C      -0.241555      2.201522     -2.166142
  H       0.199069      3.023972     -1.550722
  H      -1.076354      2.664594     -2.746133
  C       0.840743      1.672946     -3.160040
  H       0.408599      0.843491     -3.765285
  H       1.669640      1.221089     -2.556883
  C       1.407419      2.766662     -4.048979
  H       1.913672      3.590844     -3.503822
  C       1.335883      2.855552     -5.400714
  H       1.785953      3.749511     -5.876951
  C       0.677291      1.862225     -6.349318
  H       0.650201      0.845610     -5.894515
  H       1.304818      1.774767     -7.269958
  C      -0.775892      2.248401     -6.778540
  H      -1.421596      2.289907     -5.866534
  H      -1.179522      1.421769     -7.410459
  C      -0.880676      3.592642     -7.544598
  H      -0.222490      3.555168     -8.449250
  H      -0.471103      4.408029     -6.902597
  C      -2.320507      3.984901     -7.978744
  H      -2.298532      5.031367     -8.370211
  H      -2.984094      4.012778     -7.078719
  C      -2.955571      3.068116     -9.057639
  H      -3.050930      2.024903     -8.670029
  H      -2.259671      3.009292     -9.929649
  C      -4.350308      3.558765     -9.529894
  H      -4.250959      4.585702     -9.963130
  H      -5.014319      3.670291     -8.637693
  C      -5.052832      2.632990    -10.561949
  H      -6.085501      3.018204    -10.743069
  H      -5.183408      1.617544    -10.111252
  C      -4.315447      2.501179    -11.918279
  H      -3.312207      2.029934    -11.806279
  H      -4.160184      3.499212    -12.393391
  H      -4.895414      1.876220    -12.635968
  C       1.191372      2.306762      4.213662
  H       1.765109      3.107995      4.736175
  H       0.511969      2.827938      3.501552
  C       2.162522      1.396006      3.406501
  H       2.713380      0.712434      4.099765
  H       2.940235      2.033851      2.925424
  C       1.427859      0.565150      2.319988
  H       0.946796      1.269705      1.598158
  H       0.586526     -0.000314      2.788173
  C       2.306060     -0.444312      1.531704
  H       2.783807     -1.156250      2.247090
  H       1.636132     -1.063125      0.885116
  C       3.395700      0.200286      0.634555
  H       2.921676      0.974167     -0.018957
  H       4.142812      0.738462      1.265018
  C       4.154284     -0.821395     -0.274339
  H       4.881920     -0.265749     -0.908669
  H       3.418089     -1.281381     -0.978861
  C       4.852559     -1.931612      0.501213
  H       4.203531     -2.768313      0.829528
  C       6.160088     -1.979386      0.861164
  H       6.496651     -2.861943      1.441242
  C       7.238239     -0.957064      0.529541
  H       7.857329     -0.776336      1.442951
  H       6.782795      0.024948      0.268684
  C       8.190091     -1.390038     -0.634003
  H       8.890378     -0.545918     -0.839195
  H       7.582782     -1.526894     -1.562309
  C       8.995639     -2.685448     -0.353953
  H       9.585063     -2.557093      0.589064
  H       8.286252     -3.523925     -0.158332
  C       9.955600     -3.111849     -1.500591
  H      10.352961     -4.131686     -1.274069
  H       9.366647     -3.214645     -2.443851
  C      11.157757     -2.154564     -1.729149
  H      11.678492     -2.000783     -0.752039
  H      10.790353     -1.146300     -2.039116
  C      12.194794     -2.654976     -2.772654
  H      13.078214     -1.970238     -2.758163
  H      12.583603     -3.656259     -2.458489
  C      11.667072     -2.748431     -4.229469
  H      10.817108     -3.470159     -4.280368
  H      11.243536     -1.757679     -4.529437
  C      12.755300     -3.178360     -5.243861
  H      13.181237     -4.175278     -4.980241
  H      12.348117     -3.250064     -6.278829
  H      13.602971     -2.453177     -5.267625
138
Coordinates from ORCA-job /wrk/rja7/qm_final_3_replicates/qm_final_1.1/qm/9/freq E -2722.575595204441
  N      -8.901963     -3.197526      6.155354
  C      -7.421717     -3.223515      5.629129
  H      -7.487701     -3.652677      4.603591
  H      -6.875904     -3.900805      6.318908
  C      -8.992910     -2.767744      7.632322
  H     -10.032653     -2.961471      7.972242
  H      -8.238472     -3.341666      8.209871
  H      -8.735946     -1.695558      7.707787
  C      -9.436879     -4.619571      6.043997
  H      -9.382533     -4.949350      4.986201
  H      -8.813284     -5.280857      6.678633
  H     -10.490326     -4.644449      6.393519
  C      -9.755018     -2.267451      5.306191
  H      -9.697814     -2.587631      4.244857
  H      -9.375934     -1.232421      5.409628
  H     -10.805445     -2.317975      5.661473
  C      -6.688963     -1.860533      5.588223
  H      -5.673296     -2.113177      5.179576
  H      -7.154272     -1.165005      4.848323
  P      -5.634139     -1.881424      8.137020
  O      -5.997094     -3.371541      8.204695
  O      -5.760167     -0.870417      9.257870
  O      -6.617086     -1.187062      6.833017
  O      -4.108262     -1.800139      7.385472
  C      -3.341597     -0.590841      7.549567
  H      -2.271947     -0.855859      7.381257
  H      -3.454016     -0.193224      8.586394
  C      -3.761194      0.526958      6.564011
  H      -4.859651      0.693805      6.619225
  O      -3.397649      0.069348      5.206807
  C      -4.235908      0.332308      4.149869
  O      -5.308012      0.918364      4.234280
  C      -3.629682     -0.201230      2.843067
  H      -4.421350     -0.788698      2.319610
  H      -2.789344     -0.892750      3.075184
  C      -3.052777      1.876555      6.829460
  H      -3.200243      2.180815      7.890017
  H      -3.447994      2.670959      6.161042
  O      -1.605220      1.730445      6.634163
  C      -1.087278      2.130796      5.423457
  O      -1.693622      2.809362      4.603615
  C       0.324930      1.558565      5.223470
  H       0.834596      1.470202      6.209535
  H       0.151009      0.505256      4.890282
  C      -3.137462      0.953582      1.915277
  H      -2.520415      1.667724      2.506911
  H      -4.022575      1.531729      1.557600
  C      -2.307368      0.432156      0.716316
  H      -2.920943     -0.274527      0.102971
  H      -1.451623     -0.171030      1.107400
  C      -1.749539      1.553378     -0.198307
  H      -1.234983      2.319043      0.433291
  H      -2.594350      2.090417     -0.695961
  C      -0.758905      1.024982     -1.267936
  H      -1.261456      0.244763     -1.892147
  H       0.083545      0.502518     -0.752203
  C      -0.179995      2.124483     -2.194199
  H       0.266381      2.938660     -1.571804
  H      -1.002840      2.601733     -2.779763
  C       0.902760      1.585834     -3.181891
  H       0.463008      0.766536     -3.795460
  H       1.721063      1.118380     -2.575923
  C       1.490349      2.675502     -4.062050
  H       2.012595      3.485723     -3.511094
  C       1.418345      2.776461     -5.413233
  H       1.882768      3.666567     -5.883117
  C       0.739474      1.801929     -6.368099
  H       0.729215      0.775030     -5.936496
  H       1.341166      1.739606     -7.307427
  C      -0.726839      2.190715     -6.748806
  H      -1.347117      2.209856     -5.818987
  H      -1.145329      1.377249     -7.388286
  C      -0.855711      3.551580     -7.480700
  H      -0.226500      3.535049     -8.406046
  H      -0.426632      4.352574     -6.832980
  C      -2.310022      3.949047     -7.858042
  H      -2.307077      5.006274     -8.219844
  H      -2.943138      3.945986     -6.935920
  C      -2.973846      3.058577     -8.941730
  H      -3.050180      2.004269     -8.580291
  H      -2.305965      3.029084     -9.836819
  C      -4.387177      3.550988     -9.352513
  H      -4.310616      4.592515     -9.754482
  H      -5.022031      3.626691     -8.435711
  C      -5.117322      2.654052    -10.391013
  H      -6.158426      3.036679    -10.522611
  H      -5.225025      1.622316     -9.972474
  C      -4.428698      2.578437    -11.777209
  H      -3.421281      2.106509    -11.719484
  H      -4.293271      3.594994    -12.217778
  H      -5.032790      1.980007    -12.497583
  C       1.189217      2.327130      4.184028
  H       1.763485      3.126930      4.708094
  H       0.515176      2.848903      3.467348
  C       2.162699      1.411779      3.383848
  H       2.710870      0.731357      4.082279
  H       2.942156      2.047890      2.903345
  C       1.433615      0.575276      2.297485
  H       0.951662      1.276100      1.572581
  H       0.593215      0.008148      2.764794
  C       2.317635     -0.433261      1.514653
  H       2.793926     -1.143172      2.233019
  H       1.651526     -1.054341      0.866536
  C       3.409264      0.213279      0.621493
  H       2.936403      0.986933     -0.033506
  H       4.153199      0.751963      1.255335
  C       4.173189     -0.806014     -0.285302
  H       4.903004     -0.249081     -0.916195
  H       3.440572     -1.265243     -0.994140
  C       4.867148     -1.918705      0.490658
  H       4.217068     -2.758844      0.807939
  C       6.173205     -1.969655      0.855571
  H       6.507381     -2.857737      1.428696
  C       7.254031     -0.947092      0.534056
  H       7.871614     -0.775193      1.450350
  H       6.801516      0.038107      0.280203
  C       8.207917     -1.372687     -0.630180
  H       8.911084     -0.528739     -0.826368
  H       7.602709     -1.499703     -1.561196
  C       9.009265     -2.672762     -0.359279
  H       9.597481     -2.554540      0.585853
  H       8.296730     -3.510626     -0.172358
  C       9.969719     -3.091790     -1.508202
  H      10.362945     -4.115255     -1.290943
  H       9.382117     -3.183526     -2.453428
  C      11.175972     -2.136894     -1.724963
  H      11.695300     -1.994445     -0.745447
  H      10.812973     -1.124487     -2.026646
  C      12.213117     -2.631185     -2.770900
  H      13.099293     -1.950178     -2.747464
  H      12.596993     -3.637177     -2.465698
  C      11.688318     -2.707309     -4.229606
  H      10.833704     -3.422851     -4.290057
  H      11.271836     -1.710778     -4.520374
  C      12.776592     -3.132776     -5.245592
  H      13.196617     -4.134655     -4.991265
  H      12.371779     -3.191833     -6.282268
  H      13.628272     -2.412057     -5.259345
138
Coordinates from ORCA-job /wrk/rja7/qm_final_3_replicates/qm_final_1.1/qm/9/freq E -2722.575758835978
  N      -8.902335     -3.200496      6.164767
  C      -7.424278     -3.234065      5.632186
  H      -7.494307     -3.690030      4.618538
  H      -6.873665     -3.892304      6.336396
  C      -8.988984     -2.747093      7.635579
  H     -10.026372     -2.943494      7.981230
  H      -8.227369     -3.304988      8.219236
  H      -8.740783     -1.671872      7.692080
  C      -9.435362     -4.625455      6.080486
  H      -9.385986     -4.973186      5.028288
  H      -8.806118     -5.274656      6.721939
  H     -10.486291     -4.645091      6.437185
  C      -9.761966     -2.287030      5.303929
  H      -9.705301     -2.622410      4.247287
  H      -9.388752     -1.248763      5.392566
  H     -10.811118     -2.339229      5.662504
  C      -6.699294     -1.869051      5.554315
  H      -5.683280     -2.122660      5.148276
  H      -7.172512     -1.194161      4.800647
  P      -5.634067     -1.829099      8.096764
  O      -5.979028     -3.321669      8.192177
  O      -5.765713     -0.800362      9.199995
  O      -6.628421     -1.168314      6.784289
  O      -4.113749     -1.744186      7.334928
  C      -3.360915     -0.523397      7.477121
  H      -2.288567     -0.779341      7.311610
  H      -3.477201     -0.108096      8.506399
  C      -3.793344      0.569784      6.469471
  H      -4.894168      0.722137      6.519202
  O      -3.422205      0.088505      5.123012
  C      -4.259420      0.321679      4.059044
  O      -5.333769      0.905626      4.127929
  C      -3.645317     -0.235181      2.765155
  H      -4.432675     -0.832474      2.246389
  H      -2.807489     -0.923354      3.015794
  C      -3.104479      1.933082      6.713188
  H      -3.270918      2.258996      7.764535
  H      -3.499233      2.708203      6.022094
  O      -1.653000      1.800326      6.543427
  C      -1.122490      2.191237      5.335452
  O      -1.729524      2.841773      4.493783
  C       0.291531      1.617295      5.155221
  H       0.793404      1.541705      6.146157
  H       0.119256      0.559610      4.834879
  C      -3.143008      0.902692      1.821936
  H      -2.523736      1.619123      2.407736
  H      -4.023057      1.482009      1.453720
  C      -2.309650      0.360623      0.634413
  H      -2.925708     -0.344323      0.021627
  H      -1.464021     -0.249105      1.037564
  C      -1.725543      1.468343     -0.280911
  H      -1.210439      2.231616      0.353220
  H      -2.555755      2.013044     -0.794142
  C      -0.726144      0.922582     -1.333867
  H      -1.234009      0.155181     -1.970027
  H       0.094468      0.378891     -0.805692
  C      -0.108461      2.012710     -2.244428
  H       0.351150      2.812232     -1.612490
  H      -0.913250      2.514739     -2.834334
  C       0.967749      1.455694     -3.227874
  H       0.511247      0.651420     -3.848973
  H       1.771392      0.964197     -2.621323
  C       1.585525      2.536472     -4.097966
  H       2.139114      3.321517     -3.541211
  C       1.508240      2.655371     -5.447471
  H       2.002061      3.533283     -5.910415
  C       0.782783      1.717873     -6.406259
  H       0.769078      0.680109     -6.001875
  H       1.350737      1.670777     -7.366965
  C      -0.687750      2.143471     -6.728072
  H      -1.275358      2.161111     -5.777839
  H      -1.146880      1.349989     -7.365079
  C      -0.810595      3.519476     -7.431855
  H      -0.221796      3.501667     -8.383227
  H      -0.333042      4.298535     -6.791040
  C      -2.270688      3.955899     -7.737040
  H      -2.265355      5.020412     -8.076448
  H      -2.860353      3.943160     -6.786596
  C      -2.999219      3.099277     -8.806498
  H      -3.069079      2.037765     -8.464460
  H      -2.377975      3.081221     -9.734748
  C      -4.427094      3.613153     -9.129097
  H      -4.363190      4.662990     -9.511426
  H      -5.008558      3.673331     -8.176597
  C      -5.224150      2.746288    -10.143392
  H      -6.266181      3.143460    -10.207713
  H      -5.321485      1.706450     -9.742848
  C      -4.617482      2.696385    -11.568753
  H      -3.617223      2.206121    -11.581226
  H      -4.491993      3.721770    -11.991415
  H      -5.272429      2.125766    -12.266970
  C       1.161805      2.369802      4.109536
  H       1.736441      3.173737      4.626760
  H       0.491787      2.885040      3.384401
  C       2.139052      1.445209      3.325062
  H       2.688574      0.778391      4.035454
  H       2.917849      2.078650      2.839651
  C       1.421075      0.587926      2.247086
  H       0.932280      1.274245      1.513400
  H       0.585260      0.017885      2.719029
  C       2.321282     -0.419017      1.482052
  H       2.795251     -1.119096      2.211479
  H       1.667116     -1.051412      0.832806
  C       3.418754      0.229414      0.597375
  H       2.949248      0.997950     -0.066206
  H       4.153294      0.772649      1.238057
  C       4.198032     -0.789521     -0.296134
  H       4.935688     -0.232673     -0.918194
  H       3.477180     -1.252227     -1.014881
  C       4.881535     -1.901106      0.490484
  H       4.228144     -2.742531      0.797245
  C       6.183170     -1.954846      0.869681
  H       6.508547     -2.845760      1.443637
  C       7.270797     -0.936059      0.561589
  H       7.883092     -0.774325      1.483488
  H       6.825264      0.053697      0.312341
  C       8.231537     -1.357311     -0.598322
  H       8.943400     -0.517252     -0.779186
  H       7.633476     -1.469030     -1.535919
  C       9.019004     -2.667666     -0.335791
  H       9.601874     -2.566631      0.614449
  H       8.295452     -3.499493     -0.165163
  C       9.982622     -3.081883     -1.483684
  H      10.361860     -4.113132     -1.278198
  H       9.400744     -3.154151     -2.433850
  C      11.202177     -2.139253     -1.677518
  H      11.715953     -2.016766     -0.692637
  H      10.853272     -1.118498     -1.968072
  C      12.238794     -2.630829     -2.724619
  H      13.134495     -1.963005     -2.684875
  H      12.607126     -3.646690     -2.433069
  C      11.721405     -2.676158     -4.186937
  H      10.852727     -3.373203     -4.262508
  H      11.325614     -1.667770     -4.465509
  C      12.807052     -3.107540     -5.203004
  H      13.206653     -4.120929     -4.961792
  H      12.406672     -3.144059     -6.242408
  H      13.672263     -2.402992     -5.200686
138
Coordinates from ORCA-job /wrk/rja7/qm_final_3_replicates/qm_final_1.1/qm/9/freq E -2722.575914332093
  N      -8.959620     -3.164516      6.202316
  C      -7.490129     -3.211849      5.647170
  H      -7.580128     -3.657572      4.630417
  H      -6.938686     -3.883767      6.337730
  C      -9.018731     -2.729243      7.680506
  H     -10.052880     -2.919379      8.039524
  H      -8.253297     -3.301732      8.244865
  H      -8.758432     -1.657466      7.745859
  C      -9.514418     -4.580787      6.108026
  H      -9.487694     -4.914978      5.050676
  H      -8.883875     -5.247467      6.729951
  H     -10.559271     -4.590091      6.482374
  C      -9.819786     -2.228083      5.367189
  H      -9.782632     -2.548435      4.304979
  H      -9.432983     -1.195658      5.466022
  H     -10.864279     -2.273268      5.740099
  C      -6.748400     -1.856002      5.569444
  H      -5.739657     -2.119426      5.152631
  H      -7.220977     -1.171640      4.823892
  P      -5.652411     -1.835562      8.099826
  O      -5.999980     -3.327983      8.186092
  O      -5.771728     -0.815828      9.212607
  O      -6.657585     -1.161706      6.802254
  O      -4.138663     -1.748629      7.325025
  C      -3.382408     -0.528888      7.463215
  H      -2.311419     -0.786686      7.292193
  H      -3.492474     -0.112459      8.492681
  C      -3.818181      0.562642      6.454951
  H      -4.918303      0.717111      6.510630
  O      -3.455790      0.072019      5.109842
  C      -4.294215      0.301885      4.046797
  O      -5.364101      0.894438      4.112769
  C      -3.682750     -0.268133      2.757724
  H      -4.473199     -0.863709      2.240942
  H      -2.851107     -0.961389      3.015008
  C      -3.125197      1.925038      6.689368
  H      -3.285854      2.254426      7.740600
  H      -3.521705      2.698577      5.997575
  O      -1.674882      1.787491      6.511719
  C      -1.148087      2.173724      5.300106
  O      -1.750312      2.837439      4.465215
  C       0.268003      1.604883      5.120947
  H       0.765223      1.518672      6.113321
  H       0.097156      0.550719      4.788088
  C      -3.167575      0.859765      1.809708
  H      -2.540070      1.570717      2.393292
  H      -4.040455      1.447349      1.437782
  C      -2.335080      0.304140      0.627430
  H      -2.956717     -0.393718      0.012250
  H      -1.500079     -0.316764      1.037323
  C      -1.728702      1.402409     -0.284664
  H      -1.210904      2.160366      0.353525
  H      -2.546643      1.956877     -0.807080
  C      -0.725752      0.843435     -1.326918
  H      -1.237922      0.085965     -1.971616
  H       0.078837      0.283967     -0.790691
  C      -0.079561      1.926256     -2.225632
  H       0.384775      2.716700     -1.585700
  H      -0.869476      2.443510     -2.822614
  C       0.998027      1.355965     -3.198662
  H       0.536990      0.557250     -3.823632
  H       1.789997      0.854187     -2.585457
  C       1.637592      2.428472     -4.063078
  H       2.205665      3.200810     -3.503117
  C       1.565983      2.552198     -5.412324
  H       2.081455      3.419350     -5.871827
  C       0.821055      1.632571     -6.373647
  H       0.787227      0.593750     -5.972913
  H       1.386617      1.576668     -7.335409
  C      -0.640682      2.089567     -6.692648
  H      -1.227835      2.117531     -5.742398
  H      -1.117110      1.308034     -7.331514
  C      -0.734700      3.470895     -7.391302
  H      -0.146742      3.443207     -8.343101
  H      -0.239483      4.236959     -6.748434
  C      -2.185317      3.939959     -7.693228
  H      -2.158222      5.004540     -8.031446
  H      -2.772942      3.939633     -6.741295
  C      -2.935418      3.100609     -8.761555
  H      -3.024429      2.039799     -8.421853
  H      -2.319852      3.072262     -9.693384
  C      -4.354888      3.642045     -9.075134
  H      -4.273735      4.689940     -9.459534
  H      -4.928446      3.714539     -8.118681
  C      -5.174712      2.789315    -10.083007
  H      -6.208082      3.208839    -10.145066
  H      -5.292745      1.753205     -9.678485
  C      -4.573763      2.720831    -11.510070
  H      -3.584153      2.209205    -11.523122
  H      -4.428586      3.741654    -11.937287
  H      -5.242644      2.160669    -12.203581
  C       1.143580      2.367475      4.086981
  H       1.716593      3.165338      4.615347
  H       0.477591      2.891172      3.363983
  C       2.126020      1.451577      3.299421
  H       2.677980      0.786017      4.009170
  H       2.901821      2.092009      2.818199
  C       1.418931      0.592817      2.215414
  H       0.927347      1.276322      1.481062
  H       0.586059      0.013914      2.682207
  C       2.331242     -0.405669      1.454591
  H       2.811190     -1.098488      2.187014
  H       1.685319     -1.047694      0.806373
  C       3.423682      0.250246      0.569826
  H       2.948349      1.012918     -0.096164
  H       4.153727      0.800622      1.209244
  C       4.210607     -0.765734     -0.319605
  H       4.944197     -0.205566     -0.943403
  H       3.493610     -1.237478     -1.036490
  C       4.901848     -1.867485      0.473358
  H       4.253632     -2.709088      0.790381
  C       6.203856     -1.909657      0.850644
  H       6.535464     -2.792340      1.433651
  C       7.283534     -0.886409      0.531283
  H       7.899730     -0.714970      1.448761
  H       6.830870      0.099142      0.277873
  C       8.239634     -1.310243     -0.631067
  H       8.943127     -0.465931     -0.824415
  H       7.636450     -1.435499     -1.563721
  C       9.039954     -2.610912     -0.361918
  H       9.631049     -2.495279      0.581492
  H       8.324681     -3.446615     -0.176408
  C       9.995123     -3.028116     -1.514983
  H      10.386687     -4.053365     -1.302536
  H       9.403540     -3.116902     -2.457724
  C      11.202634     -2.075443     -1.733010
  H      11.727018     -1.937822     -0.755742
  H      10.839719     -1.061171     -2.029192
  C      12.230881     -2.566681     -2.788436
  H      13.120731     -1.890325     -2.765974
  H      12.612593     -3.576348     -2.492590
  C      11.695185     -2.630356     -4.243434
  H      10.831934     -3.335730     -4.301227
  H      11.286547     -1.628292     -4.526089
  C      12.771415     -3.061568     -5.269640
  H      13.182697     -4.069444     -5.025097
  H      12.358161     -3.110441     -6.303480
  H      13.630506     -2.349677     -5.284293
138
Coordinates from ORCA-job /wrk/rja7/qm_final_3_replicates/qm_final_1.1/qm/9/freq E -2722.576068044880
  N      -8.975962     -3.130450      6.230062
  C      -7.508507     -3.209771      5.676647
  H      -7.604139     -3.681140      4.672148
  H      -6.964550     -3.870531      6.383770
  C      -9.031866     -2.674769      7.702936
  H     -10.067421     -2.852782      8.063957
  H      -8.270029     -3.245251      8.274426
  H      -8.764167     -1.604102      7.754537
  C      -9.555325     -4.538414      6.154148
  H      -9.538967     -4.884733      5.100544
  H      -8.935069     -5.208814      6.782459
  H     -10.598772     -4.524620      6.532437
  C      -9.820175     -2.191696      5.381552
  H      -9.782008     -2.522341      4.322471
  H      -9.421301     -1.162899      5.472640
  H     -10.867199     -2.220567      5.749297
  C      -6.755352     -1.863173      5.563307
  H      -5.744072     -2.145606      5.166175
  H      -7.215044     -1.200069      4.790820
  P      -5.677682     -1.768664      8.096854
  O      -6.021676     -3.259952      8.215766
  O      -5.809373     -0.724276      9.185725
  O      -6.674489     -1.130303      6.775446
  O      -4.160547     -1.691942      7.328917
  C      -3.413344     -0.463323      7.439525
  H      -2.340313     -0.717360      7.276869
  H      -3.527908     -0.025207      8.459533
  C      -3.854813      0.603650      6.406932
  H      -4.955135      0.756509      6.460779
  O      -3.493021      0.084408      5.072139
  C      -4.338923      0.282747      4.008580
  O      -5.414469      0.866087      4.067912
  C      -3.731442     -0.315639      2.730685
  H      -4.520335     -0.928162      2.232844
  H      -2.893320     -0.996354      3.000008
  C      -3.166437      1.972269      6.608966
  H      -3.327175      2.324219      7.652962
  H      -3.566611      2.727886      5.899816
  O      -1.716718      1.832313      6.430210
  C      -1.191508      2.185320      5.207733
  O      -1.791919      2.829041      4.355915
  C       0.231627      1.628670      5.053371
  H       0.716837      1.558045      6.052960
  H       0.075099      0.569625      4.728978
  C      -3.224855      0.787916      1.751295
  H      -2.585920      1.509282      2.310220
  H      -4.097949      1.370933      1.373340
  C      -2.408458      0.194577      0.575495
  H      -3.046214     -0.502741     -0.023398
  H      -1.586110     -0.436269      0.996325
  C      -1.778742      1.260735     -0.357695
  H      -1.243388      2.017470      0.266825
  H      -2.582054      1.826081     -0.891384
  C      -0.789856      0.657084     -1.388128
  H      -1.327297     -0.076382     -2.039858
  H      -0.019796      0.060103     -0.841745
  C      -0.079838      1.708786     -2.275137
  H       0.411601      2.475310     -1.626509
  H      -0.834752      2.265146     -2.882618
  C       0.982611      1.088248     -3.232833
  H       0.492400      0.314385     -3.867070
  H       1.739178      0.546176     -2.609944
  C       1.690224      2.128443     -4.083257
  H       2.310289      2.854505     -3.516539
  C       1.624304      2.271161     -5.430481
  H       2.200028      3.103429     -5.882650
  C       0.809775      1.415501     -6.394834
  H       0.730178      0.369654     -6.018701
  H       1.347786      1.353917     -7.371814
  C      -0.632092      1.958831     -6.664963
  H      -1.195107      1.995273     -5.700198
  H      -1.166015      1.223597     -7.312717
  C      -0.662270      3.364096     -7.322527
  H      -0.095590      3.329744     -8.287154
  H      -0.109679      4.079561     -6.668724
  C      -2.087613      3.927420     -7.578952
  H      -2.001633      4.996525     -7.892312
  H      -2.653709      3.941062     -6.614018
  C      -2.913152      3.165144     -8.649805
  H      -3.067753      2.104864     -8.333599
  H      -2.320531      3.120127     -9.595855
  C      -4.298343      3.809012     -8.922818
  H      -4.152366      4.853211     -9.297733
  H      -4.844376      3.908966     -7.952663
  C      -5.196254      3.028693     -9.922823
  H      -6.192575      3.530989     -9.973869
  H      -5.392992      2.004684     -9.518132
  C      -4.614367      2.911635    -11.354658
  H      -3.668066      2.323881    -11.372596
  H      -4.391766      3.917507    -11.783771
  H      -5.330044      2.404681    -12.042362
  C       1.113787      2.389744      4.024602
  H       1.674304      3.196245      4.553369
  H       0.452913      2.903058      3.289214
  C       2.113531      1.475862      3.259124
  H       2.665717      0.826279      3.983433
  H       2.885333      2.119808      2.776023
  C       1.429945      0.592899      2.180171
  H       0.934789      1.257096      1.431278
  H       0.602574      0.005032      2.646384
  C       2.367908     -0.399506      1.442666
  H       2.856370     -1.070227      2.189892
  H       1.741166     -1.066900      0.801048
  C       3.453229      0.262390      0.554181
  H       2.968964      1.013471     -0.118012
  H       4.176797      0.827565      1.187504
  C       4.250496     -0.751819     -0.328130
  H       4.980712     -0.188865     -0.952901
  H       3.538337     -1.233265     -1.043505
  C       4.948454     -1.840810      0.475736
  H       4.304859     -2.680962      0.805750
  C       6.249020     -1.865426      0.857926
  H       6.586951     -2.734835      1.456862
  C       7.317721     -0.833190      0.529140
  H       7.936453     -0.649939      1.442267
  H       6.854365      0.146216      0.271520
  C       8.270729     -1.255420     -0.636140
  H       8.964653     -0.405569     -0.839888
  H       7.663548     -1.393217     -1.564498
  C       9.085233     -2.545454     -0.362251
  H       9.679619     -2.416816      0.577466
  H       8.380632     -3.387865     -0.166667
  C      10.039201     -2.959753     -1.516533
  H      10.444269     -3.978629     -1.298839
  H       9.443621     -3.062294     -2.455547
  C      11.233459     -1.993649     -1.749045
  H      11.761777     -1.843856     -0.775497
  H      10.857127     -0.985370     -2.048540
  C      12.262851     -2.479708     -2.806494
  H      13.145751     -1.794279     -2.790985
  H      12.655838     -3.484061     -2.507505
  C      11.722306     -2.555514     -4.259338
  H      10.866513     -3.270206     -4.310780
  H      11.302898     -1.558882     -4.545144
  C      12.799047     -2.981336     -5.287651
  H      13.219920     -3.984609     -5.040608
  H      12.383167     -3.037298     -6.320114
  H      13.651818     -2.261971     -5.308357
138
Coordinates from ORCA-job /wrk/rja7/qm_final_3_replicates/qm_final_1.1/qm/9/freq E -2722.576234194022
  N      -9.014006     -3.102098      6.238955
  C      -7.549642     -3.217045      5.686299
  H      -7.652864     -3.699548      4.687863
  H      -7.016532     -3.877458      6.401989
  C      -9.058670     -2.639830      7.711036
  H     -10.096696     -2.795531      8.074575
  H      -8.307395     -3.223130      8.283251
  H      -8.768808     -1.574722      7.757610
  C      -9.626894     -4.496404      6.167965
  H      -9.622101     -4.845168      5.115078
  H      -9.020804     -5.179959      6.795907
  H     -10.668421     -4.456915      6.549591
  C      -9.836936     -2.146294      5.388364
  H      -9.805203     -2.478850      4.329704
  H      -9.416031     -1.126222      5.478868
  H     -10.884712     -2.152239      5.755086
  C      -6.772877     -1.885669      5.553699
  H      -5.763271     -2.191185      5.169444
  H      -7.216665     -1.228980      4.766616
  P      -5.702376     -1.758901      8.087736
  O      -6.043164     -3.250438      8.212985
  O      -5.848677     -0.708156      9.168750
  O      -6.689555     -1.132465      6.753464
  O      -4.178071     -1.681565      7.333970
  C      -3.440575     -0.446079      7.435701
  H      -2.364254     -0.692503      7.284633
  H      -3.566748      0.002408      8.449893
  C      -3.884355      0.604945      6.387233
  H      -4.986618      0.746599      6.432234
  O      -3.507759      0.073795      5.061355
  C      -4.350860      0.242149      3.990647
  O      -5.436017      0.808938      4.034535
  C      -3.726439     -0.371103      2.728368
  H      -4.506832     -0.992524      2.228516
  H      -2.889157     -1.045283      3.016122
  C      -3.213288      1.983321      6.576485
  H      -3.381053      2.343284      7.616632
  H      -3.621404      2.726581      5.858816
  O      -1.761923      1.859759      6.398417
  C      -1.241929      2.208245      5.171956
  O      -1.856796      2.823739      4.309803
  C       0.179623      1.649592      5.012321
  H       0.667025      1.574868      6.010362
  H       0.020659      0.591841      4.684389
  C      -3.210252      0.722465      1.742743
  H      -2.574017      1.448873      2.298834
  H      -4.079154      1.302112      1.350573
  C      -2.382398      0.116940      0.580423
  H      -3.015290     -0.583773     -0.019536
  H      -1.567668     -0.513213      1.017248
  C      -1.738894      1.174628     -0.352647
  H      -1.207955      1.932704      0.273728
  H      -2.534431      1.740675     -0.897456
  C      -0.743279      0.563714     -1.371704
  H      -1.279249     -0.162681     -2.032262
  H       0.014027     -0.043154     -0.817741
  C      -0.011992      1.612023     -2.245651
  H       0.478121      2.371080     -1.587308
  H      -0.754534      2.178785     -2.859041
  C       1.055579      0.986329     -3.193708
  H       0.567706      0.214923     -3.832875
  H       1.803816      0.440304     -2.564715
  C       1.777818      2.023329     -4.035799
  H       2.413300      2.732458     -3.464754
  C       1.705956      2.184063     -5.380744
  H       2.293917      3.011659     -5.825570
  C       0.870904      1.353960     -6.349326
  H       0.772789      0.306459     -5.981781
  H       1.404235      1.288663     -7.328853
  C      -0.561594      1.925851     -6.608137
  H      -1.116019      1.974325     -5.638561
  H      -1.115053      1.200578     -7.250320
  C      -0.571494      3.331253     -7.267267
  H      -0.016465      3.283630     -8.238347
  H       0.003115      4.035980     -6.621257
  C      -1.986660      3.924964     -7.509320
  H      -1.878465      4.986939     -7.840026
  H      -2.537316      3.968948     -6.536267
  C      -2.849934      3.168780     -8.554192
  H      -3.026535      2.117618     -8.219867
  H      -2.276637      3.094819     -9.510272
  C      -4.222919      3.844180     -8.813515
  H      -4.058394      4.873957     -9.219334
  H      -4.743679      3.984553     -7.834444
  C      -5.164063      3.061252     -9.771107
  H      -6.146982      3.589717     -9.816658
  H      -5.379987      2.055822     -9.331061
  C      -4.616306      2.883093    -11.210156
  H      -3.683816      2.273675    -11.227831
  H      -4.380461      3.868487    -11.677927
  H      -5.357801      2.369644    -11.864902
  C       1.060661      2.412964      3.984337
  H       1.622514      3.217100      4.515497
  H       0.399149      2.929820      3.251821
  C       2.062740      1.504285      3.216343
  H       2.616240      0.854096      3.939169
  H       2.831932      2.153200      2.735677
  C       1.387102      0.622555      2.131585
  H       0.889888      1.286756      1.383946
  H       0.562397      0.026398      2.592283
  C       2.336389     -0.359330      1.393357
  H       2.828613     -1.027461      2.140472
  H       1.718743     -1.031848      0.747884
  C       3.418822      0.313469      0.509242
  H       2.931214      1.068338     -0.155920
  H       4.141602      0.876124      1.145516
  C       4.218703     -0.691599     -0.382448
  H       4.946055     -0.121082     -1.003383
  H       3.506985     -1.170054     -1.100251
  C       4.922010     -1.782963      0.413988
  H       4.279140     -2.621617      0.749109
  C       6.224288     -1.807396      0.791923
  H       6.563216     -2.675177      1.392622
  C       7.293429     -0.777550      0.456001
  H       7.911930     -0.587944      1.367773
  H       6.830270      0.199964      0.191268
  C       8.247794     -1.208692     -0.705358
  H       8.939361     -0.358919     -0.917336
  H       7.641540     -1.357796     -1.632534
  C       9.065970     -2.493653     -0.416805
  H       9.657280     -2.352613      0.523066
  H       8.363708     -3.336151     -0.213127
  C      10.025595     -2.918139     -1.563135
  H      10.434179     -3.932592     -1.331856
  H       9.433624     -3.034436     -2.502958
  C      11.216609     -1.950053     -1.804024
  H      11.741541     -1.787174     -0.830716
  H      10.837410     -0.946663     -2.115556
  C      12.251118     -2.444128     -2.853136
  H      13.132413     -1.756667     -2.841359
  H      12.645323     -3.444584     -2.543017
  C      11.715873     -2.535787     -4.307196
  H      10.861520     -3.252438     -4.353949
  H      11.295969     -1.542853     -4.604842
  C      12.796877     -2.970403     -5.327447
  H      13.218817     -3.970169     -5.068438
  H      12.384692     -3.037780     -6.360718
  H      13.648235     -2.249550     -5.352903
138
Coordinates from ORCA-job /wrk/rja7/qm_final_3_replicates/qm_final_1.1/qm/9/freq E -2722.576376035449
  N      -9.095313     -3.064954      6.278191
  C      -7.637720     -3.203548      5.715247
  H      -7.753001     -3.695309      4.722691
  H      -7.105476     -3.860834      6.434046
  C      -9.120836     -2.596409      7.748853
  H     -10.158461     -2.733496      8.120005
  H      -8.376436     -3.190099      8.318365
  H      -8.812458     -1.536429      7.789434
  C      -9.729420     -4.450269      6.217683
  H      -9.740044     -4.802551      5.166032
  H      -9.126857     -5.141016      6.841091
  H     -10.766057     -4.393727      6.609731
  C      -9.911965     -2.100101      5.431311
  H      -9.892060     -2.435602      4.373441
  H      -9.477498     -1.085565      5.516607
  H     -10.957059     -2.091562      5.805271
  C      -6.847371     -1.882570      5.560225
  H      -5.843921     -2.202339      5.171306
  H      -7.291834     -1.230265      4.770387
  P      -5.756178     -1.741049      8.082641
  O      -6.100896     -3.230349      8.216305
  O      -5.896206     -0.684942      9.158983
  O      -6.746499     -1.117311      6.750440
  O      -4.234447     -1.673423      7.323599
  C      -3.489518     -0.442224      7.416728
  H      -2.414708     -0.697078      7.268532
  H      -3.613692      0.014800      8.427440
  C      -3.924169      0.604245      6.359968
  H      -5.025124      0.756169      6.404198
  O      -3.554077      0.058091      5.038561
  C      -4.393087      0.230419      3.965217
  O      -5.464442      0.823181      3.999484
  C      -3.769263     -0.392250      2.707068
  H      -4.553372     -1.007859      2.205610
  H      -2.940903     -1.074571      3.001446
  C      -3.240885      1.978779      6.540765
  H      -3.409251      2.346897      7.577796
  H      -3.640878      2.720971      5.817187
  O      -1.789420      1.846247      6.369939
  C      -1.262064      2.198144      5.147878
  O      -1.872501      2.817291      4.285398
  C       0.160096      1.638963      4.990700
  H       0.648831      1.572074      5.988637
  H       0.004060      0.578563      4.670071
  C      -3.235352      0.692477      1.721140
  H      -2.595261      1.414007      2.278578
  H      -4.095130      1.280784      1.321557
  C      -2.404350      0.075002      0.566816
  H      -3.037622     -0.625579     -0.033001
  H      -1.597152     -0.557305      1.012997
  C      -1.747285      1.125404     -0.365044
  H      -1.224241      1.886675      0.263997
  H      -2.535290      1.688994     -0.923114
  C      -0.737096      0.510166     -1.366805
  H      -1.264481     -0.215873     -2.034580
  H       0.010751     -0.097302     -0.800509
  C       0.010069      1.555400     -2.231305
  H       0.496256      2.311026     -1.565859
  H      -0.722565      2.126904     -2.851914
  C       1.086522      0.925821     -3.167038
  H       0.603766      0.155895     -3.811767
  H       1.825672      0.378216     -2.529397
  C       1.823276      1.960294     -3.999880
  H       2.462659      2.659388     -3.420969
  C       1.755746      2.136175     -5.343618
  H       2.347915      2.966942     -5.776911
  C       0.921676      1.320818     -6.324813
  H       0.818332      0.270136     -5.968173
  H       1.459760      1.262510     -7.302197
  C      -0.508424      1.897546     -6.583176
  H      -1.064215      1.940306     -5.614274
  H      -1.062968      1.176807     -7.229909
  C      -0.516515      3.305597     -7.234711
  H       0.030868      3.260955     -8.210137
  H       0.065340      4.005680     -6.589864
  C      -1.931768      3.903510     -7.463678
  H      -1.824398      4.967723     -7.787650
  H      -2.476175      3.941071     -6.486963
  C      -2.802558      3.153264     -8.505877
  H      -2.966965      2.097302     -8.179771
  H      -2.241039      3.091887     -9.469535
  C      -4.184337      3.819866     -8.738279
  H      -4.035753      4.855728     -9.134921
  H      -4.690403      3.945191     -7.749666
  C      -5.135523      3.037802     -9.687039
  H      -6.128636      3.548809     -9.696671
  H      -5.322340      2.020701     -9.260744
  C      -4.625520      2.898617    -11.144316
  H      -3.682405      2.308500    -11.201759
  H      -4.423103      3.897199    -11.599611
  H      -5.375901      2.383218    -11.787275
  C       1.036830      2.399085      3.956656
  H       1.584548      3.218272      4.479594
  H       0.371288      2.897253      3.214989
  C       2.057331      1.496775      3.204707
  H       2.608146      0.854339      3.936472
  H       2.827038      2.150461      2.731496
  C       1.403437      0.603752      2.116206
  H       0.906840      1.261247      1.361658
  H       0.580271      0.001200      2.570741
  C       2.371618     -0.368050      1.389202
  H       2.859425     -1.034338      2.140928
  H       1.769488     -1.043883      0.732844
  C       3.459157      0.318543      0.521427
  H       2.973200      1.078109     -0.139786
  H       4.173822      0.877746      1.170051
  C       4.271292     -0.672422     -0.375650
  H       4.996611     -0.091136     -0.989052
  H       3.566005     -1.148947     -1.100708
  C       4.980432     -1.768157      0.410190
  H       4.342918     -2.616229      0.731468
  C       6.285143     -1.794547      0.782225
  H       6.629398     -2.672276      1.365248
  C       7.352698     -0.760813      0.452462
  H       7.980844     -0.588184      1.361170
  H       6.889160      0.222082      0.209311
  C       8.295227     -1.173731     -0.725596
  H       8.992092     -0.325196     -0.924563
  H       7.679963     -1.297734     -1.650409
  C       9.104041     -2.472921     -0.472589
  H       9.704401     -2.358527      0.465151
  H       8.394316     -3.312203     -0.281795
  C      10.050312     -2.882484     -1.636284
  H      10.446055     -3.907843     -1.432408
  H       9.450964     -2.967988     -2.574681
  C      11.253584     -1.926128     -1.861331
  H      11.784979     -1.791154     -0.887343
  H      10.886946     -0.911199     -2.149843
  C      12.275704     -2.411514     -2.925741
  H      13.166857     -1.737018     -2.903200
  H      12.657237     -3.423918     -2.639329
  C      11.732249     -2.464392     -4.378492
  H      10.865368     -3.165278     -4.435406
  H      11.327751     -1.458638     -4.653883
  C      12.800997     -2.895921     -5.412537
  H      13.208932     -3.906574     -5.174110
  H      12.382572     -2.938206     -6.444581
  H      13.663056     -2.187696     -5.428751
138
Coordinates from ORCA-job /wrk/rja7/qm_final_3_replicates/qm_final_1.1/qm/9/freq E -2722.576457481070
  N      -9.114443     -3.040072      6.330201
  C      -7.662017     -3.200410      5.760779
  H      -7.787715     -3.703833      4.775304
  H      -7.130154     -3.852186      6.484724
  C      -9.124468     -2.564682      7.798906
  H     -10.161222     -2.688426      8.176862
  H      -8.384127     -3.164603      8.366759
  H      -8.803902     -1.508130      7.832329
  C      -9.767665     -4.416971      6.278860
  H      -9.792033     -4.771682      5.228153
  H      -9.168794     -5.114353      6.898590
  H     -10.799822     -4.344932      6.680058
  C      -9.923119     -2.067149      5.484224
  H      -9.911244     -2.405017      4.426990
  H      -9.476140     -1.057878      5.566316
  H     -10.966526     -2.045786      5.862558
  C      -6.862338     -1.887591      5.582911
  H      -5.861300     -2.220616      5.198536
  H      -7.303806     -1.245601      4.783280
  P      -5.762618     -1.712373      8.098123
  O      -6.099825     -3.202017      8.245149
  O      -5.908319     -0.646996      9.164996
  O      -6.756210     -1.104433      6.760622
  O      -4.241597     -1.643805      7.337707
  C      -3.505642     -0.406591      7.412595
  H      -2.429272     -0.656982      7.266788
  H      -3.631948      0.064614      8.416594
  C      -3.947434      0.621495      6.341433
  H      -5.048530      0.771909      6.387497
  O      -3.581370      0.056949      5.026660
  C      -4.434040      0.196656      3.958683
  O      -5.515374      0.770829      3.993850
  C      -3.814965     -0.440092      2.705212
  H      -4.600681     -1.060309      2.212166
  H      -2.985324     -1.118609      3.004434
  C      -3.264796      1.999525      6.497933
  H      -3.425601      2.382299      7.530782
  H      -3.670457      2.731081      5.766655
  O      -1.814463      1.864626      6.319535
  C      -1.293807      2.203553      5.091236
  O      -1.904784      2.822824      4.229167
  C       0.131087      1.650564      4.935507
  H       0.620206      1.588037      5.933616
  H      -0.019768      0.588894      4.616984
  C      -3.283354      0.633516      1.705405
  H      -2.648106      1.365540      2.254095
  H      -4.144581      1.213366      1.296344
  C      -2.447263      0.003547      0.561615
  H      -3.078924     -0.699809     -0.036719
  H      -1.646150     -0.627796      1.019702
  C      -1.779001      1.043244     -0.373957
  H      -1.261153      1.809766      0.253003
  H      -2.560090      1.602381     -0.945949
  C      -0.758830      0.415231     -1.357703
  H      -1.281856     -0.311803     -2.027799
  H      -0.022106     -0.192156     -0.777322
  C       0.007838      1.449375     -2.219388
  H       0.494503      2.203128     -1.552085
  H      -0.711889      2.024579     -2.851241
  C       1.089569      0.802789     -3.138401
  H       0.605667      0.038557     -3.789061
  H       1.810449      0.246575     -2.488086
  C       1.855623      1.824632     -3.960481
  H       2.508191      2.504303     -3.373215
  C       1.800900      2.010550     -5.303556
  H       2.414031      2.830849     -5.727645
  C       0.954996      1.220700     -6.295512
  H       0.833373      0.167741     -5.951343
  H       1.494510      1.165334     -7.272080
  C      -0.464238      1.824267     -6.550190
  H      -1.025364      1.854544     -5.584067
  H      -1.025518      1.125712     -7.215506
  C      -0.445079      3.245371     -7.171217
  H       0.105048      3.212452     -8.145460
  H       0.146837      3.921122     -6.509360
  C      -1.847859      3.874404     -7.392314
  H      -1.717285      4.942389     -7.694864
  H      -2.395313      3.903291     -6.417093
  C      -2.729526      3.162285     -8.451845
  H      -2.918802      2.104522     -8.145595
  H      -2.163258      3.105167     -9.412990
  C      -4.094085      3.864753     -8.680560
  H      -3.918474      4.903316     -9.058724
  H      -4.603600      3.985860     -7.693225
  C      -5.057022      3.121384     -9.648160
  H      -6.038699      3.654193     -9.653062
  H      -5.268472      2.101105     -9.241291
  C      -4.543256      2.997764    -11.105384
  H      -3.611817      2.390036    -11.169867
  H      -4.318645      3.999884    -11.542270
  H      -5.301185      2.509770    -11.760716
  C       1.003773      2.413148      3.899747
  H       1.543230      3.239566      4.419967
  H       0.335891      2.902421      3.154375
  C       2.031742      1.513855      3.154183
  H       2.586444      0.879562      3.890135
  H       2.798222      2.168920      2.677773
  C       1.383006      0.609341      2.071531
  H       0.883717      1.259954      1.312697
  H       0.562563      0.006484      2.530055
  C       2.355911     -0.360599      1.350025
  H       2.840209     -1.027393      2.103650
  H       1.759589     -1.036168      0.688302
  C       3.447392      0.330657      0.490653
  H       2.965333      1.094629     -0.168485
  H       4.159554      0.885238      1.146074
  C       4.263203     -0.655532     -0.407889
  H       4.990650     -0.070950     -1.015646
  H       3.561019     -1.128971     -1.137839
  C       4.970433     -1.753877      0.375000
  H       4.332654     -2.603483      0.691912
  C       6.275144     -1.782790      0.746086
  H       6.619495     -2.664302      1.323350
  C       7.342025     -0.745871      0.424185
  H       7.971735     -0.581914      1.333560
  H       6.877942      0.239333      0.191468
  C       8.282295     -1.146053     -0.760053
  H       8.978861     -0.295408     -0.950777
  H       7.665535     -1.260025     -1.685191
  C       9.091124     -2.447800     -0.522759
  H       9.688840     -2.345711      0.418161
  H       8.381620     -3.290216     -0.345648
  C      10.040941     -2.840227     -1.689282
  H      10.436100     -3.868279     -1.498448
  H       9.445235     -2.912186     -2.631089
  C      11.245312     -1.880830     -1.894973
  H      11.771800     -1.759011     -0.916606
  H      10.879956     -0.862072     -2.171697
  C      12.272727     -2.351922     -2.960762
  H      13.163768     -1.677790     -2.924851
  H      12.652848     -3.368008     -2.685680
  C      11.736743     -2.385935     -4.416813
  H      10.870240     -3.086184     -4.486965
  H      11.333369     -1.376862     -4.681543
  C      12.810996     -2.804211     -5.450602
  H      13.217920     -3.817719     -5.222755
  H      12.397597     -2.833622     -6.485121
  H      13.672933     -2.095648     -5.453540
138
Coordinates from ORCA-job /wrk/rja7/qm_final_3_replicates/qm_final_1.1/qm/9/freq E -2722.576487447821
  N      -9.149508     -2.993708      6.353389
  C      -7.704743     -3.213169      5.790448
  H      -7.842589     -3.727521      4.811924
  H      -7.192648     -3.868517      6.525204
  C      -9.140138     -2.515254      7.822301
  H     -10.181898     -2.595573      8.197537
  H      -8.427346     -3.145015      8.392363
  H      -8.775595     -1.473106      7.851208
  C      -9.858713     -4.342929      6.302356
  H      -9.902939     -4.694210      5.250810
  H      -9.285059     -5.065758      6.917139
  H     -10.884620     -4.228677      6.709800
  C      -9.917274     -1.987700      5.506593
  H      -9.914918     -2.323052      4.448447
  H      -9.431456     -0.997091      5.594067
  H     -10.960487     -1.927589      5.881810
  C      -6.864562     -1.927305      5.590456
  H      -5.867903     -2.297413      5.229388
  H      -7.280300     -1.295442      4.769808
  P      -5.779894     -1.710610      8.107441
  O      -6.113609     -3.200008      8.263575
  O      -5.945707     -0.634931      9.161866
  O      -6.756437     -1.117567      6.749348
  O      -4.248058     -1.642881      7.368876
  C      -3.522302     -0.400273      7.433498
  H      -2.442550     -0.646384      7.303753
  H      -3.663276      0.085910      8.428617
  C      -3.956327      0.610096      6.343309
  H      -5.057553      0.762383      6.378433
  O      -3.580243      0.026774      5.040183
  C      -4.429523      0.142887      3.965082
  O      -5.520717      0.697946      3.988314
  C      -3.802580     -0.514806      2.726449
  H      -4.581976     -1.150047      2.242019
  H      -2.969063     -1.180479      3.042664
  C      -3.272722      1.990185      6.487027
  H      -3.429113      2.378555      7.518195
  H      -3.679948      2.717605      5.752508
  O      -1.822555      1.854636      6.305788
  C      -1.306332      2.189500      5.074544
  O      -1.920260      2.808017      4.213814
  C       0.111988      1.623256      4.906042
  H       0.598767      1.525114      5.902388
  H      -0.050872      0.573704      4.555285
  C      -3.275463      0.542230      1.707867
  H      -2.645957      1.287711      2.244269
  H      -4.139145      1.110554      1.287731
  C      -2.434952     -0.101056      0.574465
  H      -3.061174     -0.819646     -0.011490
  H      -1.628146     -0.717795      1.043392
  C      -1.784788      0.934363     -0.377337
  H      -1.276804      1.716618      0.238243
  H      -2.578808      1.473723     -0.950554
  C      -0.760490      0.314833     -1.361297
  H      -1.275053     -0.428477     -2.020027
  H      -0.003919     -0.269659     -0.783063
  C      -0.025301      1.357855     -2.241729
  H       0.464714      2.118741     -1.584851
  H      -0.766404      1.920942     -2.859069
  C       1.047152      0.723069     -3.180077
  H       0.560649     -0.043654     -3.826067
  H       1.782268      0.172208     -2.542770
  C       1.794399      1.754263     -4.008069
  H       2.466041      2.422324     -3.428966
  C       1.704894      1.959882     -5.346179
  H       2.309409      2.784173     -5.774973
  C       0.833047      1.186648     -6.327592
  H       0.681122      0.141152     -5.972745
  H       1.370313      1.105192     -7.303817
  C      -0.567797      1.828938     -6.586050
  H      -1.130650      1.874776     -5.621967
  H      -1.145316      1.143739     -7.251795
  C      -0.509541      3.247686     -7.208537
  H       0.045127      3.200139     -8.179301
  H       0.094551      3.910742     -6.544373
  C      -1.893886      3.912495     -7.439285
  H      -1.729616      4.973708     -7.749769
  H      -2.444909      3.965070     -6.467060
  C      -2.791385      3.217397     -8.496461
  H      -3.007905      2.166467     -8.184890
  H      -2.222369      3.138953     -9.454595
  C      -4.135503      3.954839     -8.735568
  H      -3.930015      4.985921     -9.119225
  H      -4.647475      4.096877     -7.752355
  C      -5.111906      3.231049     -9.704215
  H      -6.084508      3.780509     -9.706461
  H      -5.340245      2.213678     -9.299256
  C      -4.603849      3.102915    -11.162865
  H      -3.678447      2.486337    -11.231775
  H      -4.370412      4.102819    -11.600461
  H      -5.369462      2.624422    -11.816154
  C       0.995511      2.406746      3.895259
  H       1.516422      3.231774      4.436423
  H       0.337374      2.899922      3.143789
  C       2.043618      1.523978      3.158110
  H       2.592198      0.888137      3.897427
  H       2.813418      2.188229      2.700447
  C       1.420063      0.623025      2.056224
  H       0.937190      1.278777      1.289841
  H       0.590014      0.017925      2.493248
  C       2.410645     -0.340123      1.352482
  H       2.869282     -1.019677      2.110937
  H       1.835663     -1.003945      0.660905
  C       3.530725      0.362088      0.538796
  H       3.074600      1.146334     -0.115087
  H       4.230227      0.893120      1.226634
  C       4.363002     -0.611720     -0.357835
  H       5.104037     -0.019557     -0.941315
  H       3.675082     -1.072733     -1.108840
  C       5.053560     -1.720776      0.422698
  H       4.405323     -2.564558      0.734423
  C       6.357743     -1.767816      0.792844
  H       6.691298     -2.656780      1.365081
  C       7.436600     -0.741346      0.475978
  H       8.075986     -0.598882      1.382352
  H       6.984091      0.253294      0.260762
  C       8.362503     -1.135966     -0.721688
  H       9.065547     -0.289656     -0.907772
  H       7.737739     -1.233850     -1.643372
  C       9.160857     -2.447057     -0.504826
  H       9.761624     -2.362258      0.436055
  H       8.444597     -3.285722     -0.337550
  C      10.104745     -2.831878     -1.678440
  H      10.493167     -3.864444     -1.498814
  H       9.507616     -2.889725     -2.620340
  C      11.316339     -1.879180     -1.873487
  H      11.841185     -1.767596     -0.893039
  H      10.958702     -0.856088     -2.144787
  C      12.342806     -2.350978     -2.940159
  H      13.239270     -1.684348     -2.897951
  H      12.713798     -3.371799     -2.670089
  C      11.810105     -2.372847     -4.397591
  H      10.936846     -3.064364     -4.472162
  H      11.417091     -1.358919     -4.659363
  C      12.882973     -2.797471     -5.430322
  H      13.278329     -3.816470     -5.206626
  H      12.471608     -2.817018     -6.465912
  H      13.752349     -2.098021     -5.427289
138
Coordinates from ORCA-job /wrk/rja7/qm_final_3_replicates/qm_final_1.1/qm/9/freq E -2722.576590812936
  N      -9.212720     -2.966758      6.319509
  C      -7.766818     -3.210757      5.768018
  H      -7.903820     -3.739097      4.796893
  H      -7.267395     -3.860966      6.515922
  C      -9.208898     -2.485630      7.788006
  H     -10.254564     -2.553389      8.154918
  H      -8.507998     -3.122027      8.365348
  H      -8.833527     -1.447591      7.818374
  C      -9.942089     -4.304665      6.264478
  H      -9.986302     -4.654832      5.212673
  H      -9.383137     -5.036057      6.882527
  H     -10.968488     -4.175523      6.666517
  C      -9.957495     -1.950436      5.464621
  H      -9.947655     -2.285702      4.406516
  H      -9.459068     -0.966551      5.557575
  H     -11.004038     -1.875970      5.827870
  C      -6.909550     -1.937903      5.551411
  H      -5.912107     -2.325411      5.212157
  H      -7.308237     -1.321332      4.710934
  P      -5.846935     -1.670841      8.071915
  O      -6.178864     -3.158245      8.247437
  O      -6.030857     -0.578836      9.106918
  O      -6.808766     -1.102756      6.693064
  O      -4.305746     -1.609863      7.353360
  C      -3.582023     -0.365081      7.409470
  H      -2.500468     -0.610897      7.296095
  H      -3.735220      0.133537      8.396544
  C      -4.003252      0.631571      6.301396
  H      -5.104709      0.784324      6.320913
  O      -3.611193      0.034212      5.009497
  C      -4.448066      0.133699      3.923379
  O      -5.539842      0.688429      3.925594
  C      -3.803291     -0.534888      2.699830
  H      -4.579600     -1.164863      2.204350
  H      -2.980240     -1.204617      3.034485
  C      -3.321490      2.013529      6.436767
  H      -3.488758      2.412496      7.462305
  H      -3.721839      2.732577      5.690516
  O      -1.869496      1.876133      6.272149
  C      -1.339620      2.198913      5.043555
  O      -1.945954      2.803543      4.167519
  C       0.083381      1.637908      4.897667
  H       0.555496      1.540591      5.901067
  H      -0.070153      0.588757      4.541652
  C      -3.249833      0.512968      1.684695
  H      -2.616555      1.252424      2.225752
  H      -4.101367      1.090561      1.252743
  C      -2.406600     -0.146055      0.561669
  H      -3.037329     -0.860306     -0.024567
  H      -1.610444     -0.770009      1.039942
  C      -1.739562      0.874554     -0.394919
  H      -1.223665      1.654987      0.216343
  H      -2.524564      1.419638     -0.975089
  C      -0.720617      0.233179     -1.370480
  H      -1.244523     -0.502076     -2.030980
  H       0.020300     -0.363060     -0.784753
  C       0.040233      1.258064     -2.250606
  H       0.541776      2.011170     -1.593727
  H      -0.685364      1.833752     -2.874853
  C       1.105301      0.596952     -3.179155
  H       0.605571     -0.158840     -3.828079
  H       1.822758      0.029776     -2.535455
  C       1.882016      1.606589     -4.006679
  H       2.576758      2.252278     -3.429462
  C       1.790292      1.818543     -5.343766
  H       2.417307      2.624079     -5.775641
  C       0.885259      1.075643     -6.319387
  H       0.726602      0.026252     -5.979121
  H       1.397729      1.005422     -7.309530
  C      -0.512945      1.741575     -6.532672
  H      -1.049612      1.781661     -5.553329
  H      -1.117441      1.075163     -7.193251
  C      -0.448762      3.168336     -7.137211
  H       0.079677      3.126276     -8.122792
  H       0.182420      3.811548     -6.479107
  C      -1.828615      3.857892     -7.320444
  H      -1.656880      4.921351     -7.618593
  H      -2.351832      3.902528     -6.332575
  C      -2.764554      3.194025     -8.364617
  H      -2.990612      2.142190     -8.063766
  H      -2.221862      3.122648     -9.338635
  C      -4.101842      3.957205     -8.557138
  H      -3.887811      4.990379     -8.930118
  H      -4.586581      4.091758     -7.559118
  C      -5.114326      3.266338     -9.512596
  H      -6.074568      3.836567     -9.488258
  H      -5.355630      2.249398     -9.114380
  C      -4.638109      3.143925    -10.982313
  H      -3.726749      2.509789    -11.075193
  H      -4.392471      4.143632    -11.413634
  H      -5.425795      2.687992    -11.625465
  C       0.978747      2.427976      3.902380
  H       1.484703      3.255974      4.452921
  H       0.329067      2.916729      3.140497
  C       2.043569      1.553182      3.180204
  H       2.590178      0.924457      3.927139
  H       2.811485      2.223523      2.728346
  C       1.439397      0.643267      2.074939
  H       0.959306      1.292384      1.301661
  H       0.609976      0.032870      2.505946
  C       2.443429     -0.314823      1.382265
  H       2.912359     -0.979343      2.147580
  H       1.876667     -0.994594      0.699395
  C       3.551322      0.392407      0.555901
  H       3.082136      1.164415     -0.102983
  H       4.248271      0.939001      1.233856
  C       4.388664     -0.579960     -0.337851
  H       5.117381      0.015324     -0.933283
  H       3.699044     -1.055842     -1.078256
  C       5.098933     -1.673525      0.446701
  H       4.460865     -2.515816      0.782425
  C       6.408669     -1.704648      0.798539
  H       6.757783     -2.580250      1.381909
  C       7.473877     -0.674500      0.448391
  H       8.127762     -0.513471      1.340987
  H       7.009519      0.313035      0.226025
  C       8.381387     -1.080459     -0.759494
  H       9.072664     -0.230776     -0.972659
  H       7.740891     -1.199637     -1.667758
  C       9.197467     -2.379341     -0.535494
  H       9.817422     -2.271026      0.390377
  H       8.494223     -3.222228     -0.336765
  C      10.119778     -2.776628     -1.721966
  H      10.524847     -3.800708     -1.530593
  H       9.502445     -2.860471     -2.648762
  C      11.314437     -1.813282     -1.964192
  H      11.858988     -1.674310     -0.998049
  H      10.938140     -0.800761     -2.249391
  C      12.324624     -2.295761     -3.041703
  H      13.212225     -1.616228     -3.033774
  H      12.715019     -3.305158     -2.756531
  C      11.761938     -2.357840     -4.486724
  H      10.898558     -3.064175     -4.528219
  H      11.348089     -1.355775     -4.761575
  C      12.819625     -2.788079     -5.532776
  H      13.234494     -3.796454     -5.296620
  H      12.387914     -2.834640     -6.559184
  H      13.678545     -2.076430     -5.562179
138
Coordinates from ORCA-job /wrk/rja7/qm_final_3_replicates/qm_final_1.1/qm/9/freq E -2722.576608082612
  N      -9.179273     -2.975393      6.305584
  C      -7.729224     -3.235796      5.776299
  H      -7.855049     -3.783514      4.814757
  H      -7.240261     -3.871889      6.542870
  C      -9.191175     -2.477119      7.768805
  H     -10.242170     -2.529251      8.123431
  H      -8.505027     -3.112695      8.363753
  H      -8.805261     -1.442889      7.791839
  C      -9.916544     -4.308545      6.254599
  H      -9.949144     -4.669147      5.206090
  H      -9.369107     -5.036904      6.886061
  H     -10.947610     -4.171736      6.642076
  C      -9.903812     -1.961685      5.430797
  H      -9.882246     -2.307786      4.376473
  H      -9.397479     -0.981476      5.520977
  H     -10.954438     -1.874159      5.778798
  C      -6.867296     -1.968365      5.546538
  H      -5.865140     -2.362026      5.229598
  H      -7.252930     -1.367134      4.688831
  P      -5.840589     -1.668773      8.072634
  O      -6.165626     -3.156526      8.251359
  O      -6.047900     -0.571456      9.097463
  O      -6.785300     -1.116235      6.676805
  O      -4.292051     -1.601222      7.373326
  C      -3.578947     -0.350433      7.426611
  H      -2.495230     -0.587889      7.318788
  H      -3.740509      0.151394      8.410628
  C      -4.003214      0.640418      6.313347
  H      -5.104107      0.796430      6.336542
  O      -3.620953      0.035641      5.022216
  C      -4.463290      0.139784      3.941061
  O      -5.543643      0.716749      3.945092
  C      -3.828263     -0.530081      2.713000
  H      -4.613612     -1.143697      2.213064
  H      -3.015936     -1.215045      3.043490
  C      -3.316830      2.020776      6.437441
  H      -3.475071      2.425338      7.462402
  H      -3.721055      2.736849      5.690614
  O      -1.867440      1.877244      6.259851
  C      -1.349807      2.195504      5.025389
  O      -1.963491      2.800076      4.154398
  C       0.072328      1.637226      4.866643
  H       0.555170      1.540270      5.864902
  H      -0.082847      0.588254      4.510338
  C      -3.257521      0.516893      1.707320
  H      -2.612215      1.241777      2.254543
  H      -4.098383      1.112345      1.278846
  C      -2.425691     -0.146547      0.578752
  H      -3.065807     -0.852356     -0.007418
  H      -1.634100     -0.780651      1.049906
  C      -1.751399      0.873935     -0.373741
  H      -1.231452      1.648785      0.241206
  H      -2.533374      1.425755     -0.951644
  C      -0.734027      0.233332     -1.350720
  H      -1.257263     -0.501701     -2.012016
  H       0.007281     -0.363047     -0.765522
  C       0.026546      1.261492     -2.226840
  H       0.521874      2.015670     -1.566750
  H      -0.698413      1.835647     -2.853395
  C       1.099615      0.607932     -3.150964
  H       0.607250     -0.150184     -3.802584
  H       1.819123      0.044826     -2.504866
  C       1.870764      1.624757     -3.975081
  H       2.560707      2.272945     -3.394989
  C       1.776413      1.844575     -5.310728
  H       2.397164      2.657564     -5.737512
  C       0.880267      1.100279     -6.293071
  H       0.724123      0.049603     -5.955987
  H       1.398987      1.033873     -7.280524
  C      -0.520218      1.759971     -6.512429
  H      -1.061712      1.795127     -5.535095
  H      -1.118441      1.090671     -7.175535
  C      -0.463470      3.187739     -7.115712
  H       0.066846      3.150182     -8.100773
  H       0.162189      3.834766     -6.456630
  C      -1.848464      3.867741     -7.301112
  H      -1.686773      4.934130     -7.593938
  H      -2.375210      3.902993     -6.314730
  C      -2.774426      3.199145     -8.351214
  H      -2.985714      2.142390     -8.057009
  H      -2.230346      3.140790     -9.325297
  C      -4.122442      3.943720     -8.538571
  H      -3.924107      4.984792     -8.898036
  H      -4.610775      4.058136     -7.539714
  C      -5.123448      3.248539     -9.503297
  H      -6.095170      3.798180     -9.467210
  H      -5.342367      2.220360     -9.121555
  C      -4.649289      3.160779    -10.976158
  H      -3.724864      2.548232    -11.083138
  H      -4.427756      4.172603    -11.391870
  H      -5.429069      2.697719    -11.623992
  C       0.954646      2.429875      3.862596
  H       1.455859      3.265556      4.405589
  H       0.294690      2.908124      3.102648
  C       2.021618      1.561363      3.136779
  H       2.573990      0.933678      3.880456
  H       2.784655      2.236280      2.683343
  C       1.417609      0.651441      2.031885
  H       0.931283      1.301103      1.263448
  H       0.592409      0.036491      2.464699
  C       2.424183     -0.300549      1.333336
  H       2.898438     -0.964240      2.095897
  H       1.857836     -0.981373      0.650720
  C       3.528155      0.412570      0.506042
  H       3.054442      1.184547     -0.149212
  H       4.224304      0.959689      1.184386
  C       4.368157     -0.554473     -0.391406
  H       5.096454      0.043800     -0.984037
  H       3.678868     -1.027985     -1.134036
  C       5.075928     -1.652902      0.389939
  H       4.434014     -2.492790      0.724010
  C       6.384384     -1.689015      0.748379
  H       6.726553     -2.566191      1.333506
  C       7.457086     -0.664445      0.405390
  H       8.101668     -0.502552      1.304380
  H       6.999454      0.324035      0.173773
  C       8.378295     -1.080936     -0.788323
  H       9.078012     -0.236643     -0.995363
  H       7.749972     -1.200283     -1.704854
  C       9.182684     -2.384765     -0.545942
  H       9.788422     -2.276211      0.389008
  H       8.470395     -3.221880     -0.354609
  C      10.122262     -2.793624     -1.715277
  H      10.516860     -3.819870     -1.513258
  H       9.519806     -2.877262     -2.651750
  C      11.326974     -1.839313     -1.942399
  H      11.854108     -1.696495     -0.967301
  H      10.961966     -0.826786     -2.241585
  C      12.354430     -2.334470     -2.997359
  H      13.244772     -1.658847     -2.977604
  H      12.735033     -3.343480     -2.697883
  C      11.818369     -2.404207     -4.452097
  H      10.953790     -3.108145     -4.505444
  H      11.412497     -1.402603     -4.740281
  C      12.894003     -2.842658     -5.476123
  H      13.302967     -3.850037     -5.225886
  H      12.481333     -2.895377     -6.510005
  H      13.754323     -2.132438     -5.493964
138
Coordinates from ORCA-job /wrk/rja7/qm_final_3_replicates/qm_final_1.1/qm/9/freq E -2722.576673113557
  N      -9.213120     -2.957951      6.367028
  C      -7.770377     -3.239521      5.827647
  H      -7.909589     -3.797715      4.873920
  H      -7.280763     -3.870692      6.597659
  C      -9.206315     -2.451419      7.827725
  H     -10.254617     -2.489552      8.192464
  H      -8.521735     -3.090836      8.420048
  H      -8.808805     -1.421419      7.840425
  C      -9.967533     -4.281734      6.328932
  H     -10.015294     -4.646322      5.282367
  H      -9.422417     -5.014316      6.957564
  H     -10.992997     -4.131614      6.726338
  C      -9.931095     -1.938046      5.493965
  H      -9.921879     -2.287972      4.440714
  H      -9.410769     -0.964518      5.577638
  H     -10.977786     -1.835782      5.849763
  C      -6.898407     -1.983268      5.575253
  H      -5.899362     -2.389478      5.264788
  H      -7.281158     -1.394621      4.707548
  P      -5.860612     -1.642870      8.092072
  O      -6.173816     -3.130711      8.287724
  O      -6.076713     -0.535103      9.104010
  O      -6.810909     -1.112481      6.690790
  O      -4.313300     -1.571685      7.390908
  C      -3.608727     -0.315691      7.426800
  H      -2.523416     -0.547327      7.322235
  H      -3.773916      0.199460      8.403307
  C      -4.039021      0.656149      6.299287
  H      -5.140694      0.806423      6.320422
  O      -3.654314      0.034367      5.017248
  C      -4.499518      0.116540      3.936401
  O      -5.585440      0.682983      3.934908
  C      -3.863892     -0.570485      2.718181
  H      -4.646588     -1.197374      2.229985
  H      -3.046967     -1.245058      3.058670
  C      -3.358710      2.041262      6.404161
  H      -3.522698      2.460957      7.422088
  H      -3.762308      2.744147      5.644617
  O      -1.907539      1.899235      6.237366
  C      -1.381180      2.202515      5.002857
  O      -1.989642      2.793512      4.118852
  C       0.040101      1.637808      4.858376
  H       0.514719      1.542247      5.860645
  H      -0.116910      0.588513      4.503607
  C      -3.301925      0.463655      1.694307
  H      -2.660557      1.200994      2.228750
  H      -4.147178      1.047247      1.258192
  C      -2.466480     -0.210206      0.574754
  H      -3.104770     -0.920144     -0.008497
  H      -1.677283     -0.841151      1.054273
  C      -1.785637      0.801925     -0.382067
  H      -1.271039      1.582368      0.230129
  H      -2.563182      1.348315     -0.970975
  C      -0.759062      0.153191     -1.343814
  H      -1.275710     -0.585244     -2.006552
  H      -0.025929     -0.440863     -0.746091
  C       0.014642      1.174817     -2.215806
  H       0.504958      1.930465     -1.553616
  H      -0.701189      1.748778     -2.852859
  C       1.095524      0.513705     -3.124972
  H       0.606438     -0.241016     -3.783031
  H       1.802302     -0.054414     -2.469424
  C       1.884346      1.525026     -3.939125
  H       2.578966      2.161778     -3.351944
  C       1.801593      1.750873     -5.274435
  H       2.437718      2.555264     -5.694888
  C       0.897266      1.026329     -6.264250
  H       0.716100     -0.021196     -5.929915
  H       1.421633      0.950496     -7.248035
  C      -0.486257      1.717689     -6.493757
  H      -1.035904      1.763386     -5.521540
  H      -1.093612      1.063748     -7.163881
  C      -0.390944      3.145288     -7.092725
  H       0.149378      3.097713     -8.071869
  H       0.241871      3.776762     -6.425404
  C      -1.758309      3.856552     -7.291508
  H      -1.570745      4.920136     -7.578885
  H      -2.294920      3.899969     -6.310739
  C      -2.686662      3.211661     -8.354504
  H      -2.923275      2.158581     -8.066330
  H      -2.132658      3.144458     -9.322348
  C      -4.016133      3.985281     -8.554676
  H      -3.791498      5.023636     -8.906619
  H      -4.513866      4.105388     -7.561124
  C      -5.019889      3.316081     -9.534772
  H      -5.980290      3.885703     -9.507211
  H      -5.264477      2.290544     -9.161557
  C      -4.530241      3.226210    -11.002492
  H      -3.618209      2.594222    -11.102363
  H      -4.282667      4.235406    -11.409833
  H      -5.312091      2.783464    -11.661971
  C       0.933307      2.423141      3.858197
  H       1.426684      3.263881      4.400532
  H       0.280925      2.894196      3.087316
  C       2.010006      1.551252      3.150644
  H       2.560341      0.934886      3.905211
  H       2.772589      2.225475      2.695249
  C       1.419962      0.625789      2.050679
  H       0.929669      1.264710      1.276147
  H       0.599507      0.005448      2.484794
  C       2.440168     -0.317669      1.361036
  H       2.920098     -0.971812      2.128214
  H       1.884406     -1.008390      0.679666
  C       3.538018      0.406500      0.534684
  H       3.056128      1.174479     -0.119275
  H       4.228738      0.959716      1.213648
  C       4.386392     -0.549820     -0.366418
  H       5.107922      0.057150     -0.958380
  H       3.700503     -1.027554     -1.109598
  C       5.105928     -1.644235      0.409457
  H       4.471594     -2.488560      0.746733
  C       6.417829     -1.675050      0.755317
  H       6.769643     -2.552755      1.333928
  C       7.482635     -0.644557      0.405479
  H       8.140157     -0.489335      1.296250
  H       7.019031      0.344845      0.189995
  C       8.387483     -1.046710     -0.805589
  H       9.084102     -0.199786     -1.012240
  H       7.746656     -1.155549     -1.714729
  C       9.195004     -2.353366     -0.590554
  H       9.813948     -2.256738      0.336967
  H       8.484837     -3.192504     -0.400232
  C      10.117648     -2.747269     -1.778435
  H      10.514681     -3.776156     -1.595366
  H       9.501656     -2.818957     -2.707026
  C      11.319332     -1.790397     -2.010752
  H      11.860016     -1.659440     -1.041447
  H      10.950392     -0.774325     -2.292592
  C      12.331458     -2.272709     -3.086271
  H      13.222424     -1.597762     -3.070781
  H      12.715845     -3.285483     -2.804848
  C      11.774401     -2.323863     -4.533831
  H      10.908228     -3.026174     -4.583397
  H      11.365364     -1.318440     -4.803739
  C      12.834491     -2.750926     -5.578686
  H      13.245448     -3.761997     -5.347327
  H      12.406768     -2.789966     -6.607048
  H      13.695527     -2.041641     -5.599887
138
Coordinates from ORCA-job /wrk/rja7/qm_final_3_replicates/qm_final_1.1/qm/9/freq E -2722.576669042791
  N      -9.253007     -2.894003      6.331883
  C      -7.816925     -3.205134      5.785950
  H      -7.971913     -3.754132      4.829120
  H      -7.338472     -3.851350      6.550287
  C      -9.229474     -2.405353      7.798137
  H     -10.277112     -2.422112      8.166176
  H      -8.559352     -3.068380      8.380778
  H      -8.807259     -1.385347      7.821473
  C     -10.040298     -4.197609      6.279003
  H     -10.100373     -4.547184      5.227807
  H      -9.511853     -4.951743      6.896525
  H     -11.060743     -4.027887      6.681515
  C      -9.945097     -1.844053      5.473170
  H      -9.945344     -2.179661      4.415248
  H      -9.398413     -0.886334      5.570333
  H     -10.988377     -1.719604      5.831927
  C      -6.918474     -1.966737      5.539306
  H      -5.926117     -2.392953      5.233236
  H      -7.285639     -1.369808      4.670644
  P      -5.880828     -1.641425      8.061344
  O      -6.202646     -3.128378      8.249226
  O      -6.100213     -0.535226      9.074977
  O      -6.819372     -1.098618      6.655469
  O      -4.327274     -1.575727      7.373184
  C      -3.617882     -0.322921      7.413380
  H      -2.532591     -0.559162      7.317809
  H      -3.789033      0.195534      8.387204
  C      -4.035561      0.647197      6.280452
  H      -5.136875      0.800942      6.292126
  O      -3.641297      0.020114      5.004000
  C      -4.480708      0.089729      3.917755
  O      -5.573579      0.642441      3.907342
  C      -3.834455     -0.602719      2.708604
  H      -4.611658     -1.237490      2.220670
  H      -3.015057     -1.269435      3.058232
  C      -3.350889      2.030851      6.387039
  H      -3.518066      2.452931      7.403299
  H      -3.748130      2.734172      5.624403
  O      -1.898986      1.883995      6.227054
  C      -1.364272      2.190067      4.996659
  O      -1.964114      2.790547      4.113106
  C       0.054960      1.618007      4.855277
  H       0.523292      1.510796      5.859357
  H      -0.106283      0.573162      4.490029
  C      -3.274975      0.427594      1.678900
  H      -2.644371      1.176229      2.209898
  H      -4.124080      0.999210      1.234147
  C      -2.429340     -0.247236      0.567990
  H      -3.059446     -0.968633     -0.010219
  H      -1.633639     -0.865633      1.053868
  C      -1.760347      0.762122     -0.399954
  H      -1.252356      1.554527      0.202260
  H      -2.544787      1.293491     -0.993409
  C      -0.730154      0.111259     -1.357001
  H      -1.242448     -0.640189     -2.008173
  H       0.011177     -0.467644     -0.754314
  C       0.029673      1.128295     -2.246765
  H       0.521151      1.894539     -1.597757
  H      -0.694863      1.689637     -2.884983
  C       1.105797      0.462182     -3.159072
  H       0.611366     -0.293489     -3.812315
  H       1.814068     -0.105092     -2.505354
  C       1.891342      1.469336     -3.981600
  H       2.596745      2.101801     -3.402665
  C       1.792200      1.694917     -5.315719
  H       2.425371      2.496371     -5.746220
  C       0.866293      0.977145     -6.290744
  H       0.692246     -0.072914     -5.960488
  H       1.367832      0.910609     -7.286634
  C      -0.521377      1.671310     -6.482763
  H      -1.049757      1.706869     -5.498691
  H      -1.143175      1.025264     -7.147563
  C      -0.436036      3.104917     -7.067862
  H       0.084691      3.067668     -8.057716
  H       0.210742      3.728072     -6.405705
  C      -1.805813      3.819886     -7.231315
  H      -1.621831      4.887862     -7.504224
  H      -2.325471      3.846635     -6.240995
  C      -2.752432      3.194052     -8.289841
  H      -2.989614      2.137935     -8.013474
  H      -2.211357      3.138699     -9.265645
  C      -4.079963      3.978111     -8.461795
  H      -3.851883      5.021932     -8.794833
  H      -4.568491      4.080853     -7.461807
  C      -5.095179      3.335122     -9.447536
  H      -6.051056      3.911218     -9.402329
  H      -5.344856      2.304213     -9.092879
  C      -4.615883      3.269867    -10.919998
  H      -3.711617      2.630156    -11.038517
  H      -4.359605      4.284382    -11.308409
  H      -5.406575      2.849611    -11.583594
  C       0.959811      2.407757      3.867888
  H       1.451730      3.242020      4.421489
  H       0.315974      2.887242      3.095260
  C       2.036770      1.534977      3.160780
  H       2.578332      0.908676      3.913361
  H       2.806794      2.207287      2.715350
  C       1.445167      0.624517      2.048605
  H       0.962297      1.276609      1.279908
  H       0.619151      0.005347      2.473377
  C       2.459176     -0.317637      1.349367
  H       2.929471     -0.988454      2.108144
  H       1.900223     -0.991240      0.653930
  C       3.567055      0.411036      0.540764
  H       3.095031      1.190378     -0.107239
  H       4.254760      0.951563      1.233002
  C       4.417920     -0.538141     -0.365078
  H       5.144470      0.073638     -0.946007
  H       3.736080     -1.006756     -1.117448
  C       5.131960     -1.640155      0.404080
  H       4.495520     -2.487203      0.730592
  C       6.442637     -1.676025      0.752441
  H       6.792371     -2.559525      1.323476
  C       7.508652     -0.643113      0.413696
  H       8.162571     -0.493840      1.308300
  H       7.045648      0.347690      0.203094
  C       8.417949     -1.036412     -0.796814
  H       9.113061     -0.186691     -0.996741
  H       7.780562     -1.142143     -1.708783
  C       9.228084     -2.341773     -0.586463
  H       9.842665     -2.248937      0.344476
  H       8.519969     -3.184316     -0.404174
  C      10.156064     -2.725480     -1.773234
  H      10.556046     -3.753936     -1.594840
  H       9.543645     -2.793556     -2.704590
  C      11.355518     -1.763175     -1.994962
  H      11.890755     -1.634159     -1.022316
  H      10.984312     -0.747456     -2.275116
  C      12.374924     -2.238171     -3.067034
  H      13.262296     -1.558577     -3.046543
  H      12.763121     -3.249456     -2.785593
  C      11.824445     -2.289529     -4.517110
  H      10.961750     -2.995907     -4.571408
  H      11.411931     -1.285651     -4.787582
  C      12.891039     -2.710809     -5.557706
  H      13.305490     -3.720347     -5.325805
  H      12.467598     -2.750523     -6.587834
  H      13.749049     -1.997712     -5.574662
138
Coordinates from ORCA-job /wrk/rja7/qm_final_3_replicates/qm_final_1.1/qm/9/freq E -2722.576714231484
  N      -9.233086     -2.930802      6.371171
  C      -7.793997     -3.225258      5.823449
  H      -7.943988     -3.781140      4.869901
  H      -7.305763     -3.861546      6.590057
  C      -9.214226     -2.434082      7.834889
  H     -10.260999     -2.462457      8.204724
  H      -8.534507     -3.085060      8.420193
  H      -8.805264     -1.408551      7.852712
  C     -10.001911     -4.245316      6.327069
  H     -10.058147     -4.602710      5.278272
  H      -9.462561     -4.987860      6.949129
  H     -11.024501     -4.087951      6.729194
  C      -9.940793     -1.895309      5.507791
  H      -9.939161     -2.237393      4.451918
  H      -9.406310     -0.929972      5.597570
  H     -10.984773     -1.782196      5.868140
  C      -6.911940     -1.976687      5.569039
  H      -5.916121     -2.391900      5.259160
  H      -7.289680     -1.386192      4.700350
  P      -5.870106     -1.638203      8.086731
  O      -6.184582     -3.125830      8.280506
  O      -6.090813     -0.529425      9.097175
  O      -6.817080     -1.105169      6.682960
  O      -4.320365     -1.568126      7.391452
  C      -3.614077     -0.313464      7.425890
  H      -2.528831     -0.547059      7.324542
  H      -3.780905      0.205610      8.400161
  C      -4.040521      0.655036      6.294398
  H      -5.141855      0.808061      6.313700
  O      -3.655090      0.027048      5.015725
  C      -4.498282      0.104843      3.933186
  O      -5.586411      0.666996      3.928182
  C      -3.859983     -0.586258      2.718906
  H      -4.642149     -1.214043      2.230225
  H      -3.044107     -1.259919      3.063341
  C      -3.355881      2.039038      6.394063
  H      -3.518655      2.464066      7.409838
  H      -3.756928      2.739893      5.631202
  O      -1.904762      1.892022      6.227583
  C      -1.376395      2.192940      4.993202
  O      -1.981270      2.788553      4.109795
  C       0.042555      1.621668      4.847801
  H       0.515811      1.519976      5.850121
  H      -0.119591      0.574873      4.488443
  C      -3.296113      0.446128      1.694061
  H      -2.658903      1.186850      2.228516
  H      -4.141730      1.026426      1.254113
  C      -2.456398     -0.227508      0.578004
  H      -3.092456     -0.939234     -0.005623
  H      -1.665873     -0.856152      1.058801
  C      -1.777120      0.783680     -0.381080
  H      -1.262034      1.566133      0.228235
  H      -2.555869      1.327536     -0.970749
  C      -0.751708      0.131262     -1.342063
  H      -1.268550     -0.613838     -1.996951
  H      -0.014297     -0.455578     -0.742147
  C       0.015060      1.148117     -2.225617
  H       0.507499      1.909928     -1.572153
  H      -0.704935      1.715258     -2.863947
  C       1.091349      0.481415     -3.136817
  H       0.596561     -0.271106     -3.793362
  H       1.796275     -0.089824     -2.482882
  C       1.881865      1.488605     -3.954614
  H       2.582400      2.122213     -3.371081
  C       1.792997      1.712950     -5.289670
  H       2.428650      2.514870     -5.715553
  C       0.878306      0.991911     -6.272718
  H       0.698573     -0.056356     -5.940024
  H       1.391822      0.919889     -7.262224
  C      -0.505900      1.687232     -6.485044
  H      -1.046536      1.727703     -5.507822
  H      -1.120505      1.039711     -7.154944
  C      -0.411501      3.118704     -7.074537
  H       0.124147      3.077337     -8.056301
  H       0.225219      3.744337     -6.405165
  C      -1.778869      3.832564     -7.261632
  H      -1.591992      4.900317     -7.533449
  H      -2.314443      3.860919     -6.279816
  C      -2.707502      3.204183     -8.334556
  H      -2.947569      2.147938     -8.061040
  H      -2.151250      3.149083     -9.301801
  C      -4.033744      3.985410     -8.527754
  H      -3.802814      5.030434     -8.854991
  H      -4.539063      4.084957     -7.535806
  C      -5.031009      3.342047     -9.531465
  H      -5.989114      3.915295     -9.500147
  H      -5.283241      2.309347     -9.183843
  C      -4.527834      3.282471    -10.996244
  H      -3.620740      2.644509    -11.102314
  H      -4.267106      4.298726    -11.377007
  H      -5.306901      2.862717    -11.673792
  C       0.942181      2.406648      3.851985
  H       1.435519      3.244681      4.398538
  H       0.294479      2.880399      3.078993
  C       2.018231      1.531702      3.146288
  H       2.562494      0.909972      3.900668
  H       2.785539      2.203661      2.695682
  C       1.426825      0.614813      2.039409
  H       0.940479      1.261242      1.268224
  H       0.603888     -0.005544      2.468565
  C       2.442838     -0.328151      1.343555
  H       2.917919     -0.991514      2.105892
  H       1.884181     -1.008994      0.655014
  C       3.545535      0.398767      0.526613
  H       3.067876      1.169571     -0.127515
  H       4.231337      0.949442      1.212609
  C       4.400154     -0.553179     -0.372700
  H       5.123321      0.057741     -0.958705
  H       3.720073     -1.030665     -1.121082
  C       5.119645     -1.646324      0.404039
  H       4.487014     -2.493600      0.737275
  C       6.430881     -1.674447      0.750803
  H       6.785070     -2.552432      1.327572
  C       7.492126     -0.639511      0.403602
  H       8.147053     -0.481821      1.296018
  H       7.024881      0.348062      0.187395
  C       8.400594     -1.037272     -0.805923
  H       9.093952     -0.187353     -1.011079
  H       7.762159     -1.148610     -1.716493
  C       9.213063     -2.340337     -0.590477
  H       9.829515     -2.242091      0.338657
  H       8.506538     -3.182962     -0.402513
  C      10.138892     -2.728454     -1.777365
  H      10.540591     -3.755607     -1.595282
  H       9.524220     -2.801643     -2.706848
  C      11.336326     -1.765543     -2.007004
  H      11.874107     -1.631539     -1.036413
  H      10.963096     -0.751503     -2.290484
  C      12.353493     -2.243890     -3.079656
  H      13.240127     -1.563216     -3.064155
  H      12.743570     -3.253603     -2.795224
  C      11.799307     -2.301457     -4.528096
  H      10.937059     -3.008692     -4.577565
  H      11.385445     -1.298907     -4.801367
  C      12.863479     -2.726072     -5.569817
  H      13.279109     -3.734454     -5.335044
  H      12.437681     -2.770021     -6.598796
  H      13.721038     -2.012552     -5.591633
138
Coordinates from ORCA-job /wrk/rja7/qm_final_3_replicates/qm_final_1.1/qm/9/freq E -2722.576726863057
  N      -9.234377     -2.923790      6.388145
  C      -7.798534     -3.233236      5.840914
  H      -7.953235     -3.795936      4.892207
  H      -7.313434     -3.866384      6.612081
  C      -9.210792     -2.428699      7.852756
  H     -10.257912     -2.446875      8.222115
  H      -8.537990     -3.086733      8.437909
  H      -8.791543     -1.407445      7.871565
  C     -10.016951     -4.229769      6.342523
  H     -10.078425     -4.585146      5.293315
  H      -9.484701     -4.979013      6.962655
  H     -11.037425     -4.062773      6.746170
  C      -9.930620     -1.879263      5.526067
  H      -9.931046     -2.218972      4.469434
  H      -9.386468     -0.919674      5.619107
  H     -10.973962     -1.756811      5.885262
  C      -6.909723     -1.991696      5.575308
  H      -5.914389     -2.413704      5.273400
  H      -7.282264     -1.409087      4.699120
  P      -5.871764     -1.631778      8.090193
  O      -6.177260     -3.120471      8.287255
  O      -6.105125     -0.520661      9.095339
  O      -6.816798     -1.109495      6.680915
  O      -4.320741     -1.553816      7.400305
  C      -3.624650     -0.293491      7.426497
  H      -2.537495     -0.519204      7.328623
  H      -3.797072      0.231599      8.396644
  C      -4.056751      0.663870      6.287193
  H      -5.158392      0.814269      6.308139
  O      -3.673900      0.025325      5.013025
  C      -4.519298      0.095546      3.931729
  O      -5.605426      0.661573      3.923978
  C      -3.883976     -0.605423      2.721286
  H      -4.668442     -1.231960      2.235271
  H      -3.071836     -1.281343      3.070144
  C      -3.375567      2.050135      6.373352
  H      -3.537716      2.483495      7.385723
  H      -3.779574      2.743132      5.604922
  O      -1.924639      1.904583      6.205155
  C      -1.399620      2.197558      4.967668
  O      -2.007080      2.786762      4.081700
  C       0.020106      1.628839      4.823095
  H       0.493992      1.527822      5.825150
  H      -0.140302      0.581930      4.463089
  C      -3.313340      0.418644      1.692215
  H      -2.670377      1.156990      2.223331
  H      -4.154546      1.003157      1.249514
  C      -2.478239     -0.265442      0.578747
  H      -3.118827     -0.975772     -0.001543
  H      -1.691811     -0.897150      1.062319
  C      -1.792372      0.738249     -0.383684
  H      -1.274687      1.520391      0.223696
  H      -2.567463      1.283816     -0.976626
  C      -0.768256      0.078310     -1.340607
  H      -1.286815     -0.666008     -1.995065
  H      -0.035410     -0.510821     -0.737366
  C       0.006230      1.089748     -2.223507
  H       0.500128      1.850156     -1.569490
  H      -0.709056      1.659879     -2.864566
  C       1.081851      0.416934     -3.130660
  H       0.585136     -0.332524     -3.789184
  H       1.781023     -0.158600     -2.474422
  C       1.881710      1.419822     -3.944858
  H       2.590642      2.042468     -3.359700
  C       1.792073      1.653161     -5.278420
  H       2.436037      2.450156     -5.700976
  C       0.867850      0.948133     -6.264073
  H       0.674401     -0.098982     -5.935456
  H       1.380232      0.872621     -7.254043
  C      -0.507348      1.662353     -6.473483
  H      -1.048057      1.704844     -5.496335
  H      -1.130165      1.026289     -7.146711
  C      -0.395180      3.095984     -7.055256
  H       0.141481      3.053391     -8.036508
  H       0.248046      3.710346     -6.381889
  C      -1.753756      3.826939     -7.240263
  H      -1.554584      4.894624     -7.503583
  H      -2.291334      3.854500     -6.259450
  C      -2.687244      3.217455     -8.319808
  H      -2.937359      2.160903     -8.056636
  H      -2.131151      3.166411     -9.287399
  C      -4.006159      4.012503     -8.505539
  H      -3.765804      5.059834     -8.818263
  H      -4.512607      4.103131     -7.513288
  C      -5.006910      3.391405     -9.519799
  H      -5.961463      3.969948     -9.479473
  H      -5.265429      2.354688     -9.189266
  C      -4.503848      3.352845    -10.985429
  H      -3.601297      2.710310    -11.102305
  H      -4.236199      4.373486    -11.349083
  H      -5.285790      2.949598    -11.669683
  C       0.917378      2.415317      3.826929
  H       1.403340      3.258948      4.371467
  H       0.268470      2.881407      3.050147
  C       2.001883      1.545581      3.128484
  H       2.548898      0.931694      3.887304
  H       2.764876      2.221941      2.677160
  C       1.422144      0.618380      2.024090
  H       0.930927      1.256636      1.249224
  H       0.604549     -0.008685      2.453947
  C       2.450279     -0.317337      1.335511
  H       2.928696     -0.973168      2.102308
  H       1.901044     -1.006500      0.647613
  C       3.549686      0.416402      0.519957
  H       3.067723      1.182304     -0.136675
  H       4.229707      0.973192      1.206590
  C       4.413454     -0.530638     -0.376075
  H       5.135010      0.084309     -0.959678
  H       3.738423     -1.012054     -1.126579
  C       5.135987     -1.620078      0.403127
  H       4.504376     -2.465910      0.741973
  C       6.448096     -1.646220      0.747704
  H       6.803072     -2.521312      1.328362
  C       7.509342     -0.613351      0.393774
  H       8.167355     -0.453646      1.283515
  H       7.042487      0.374051      0.176073
  C       8.414121     -1.015677     -0.817211
  H       9.109011     -0.167765     -1.025563
  H       7.773502     -1.127371     -1.726225
  C       9.224227     -2.320357     -0.600987
  H       9.842324     -2.221905      0.327013
  H       8.515847     -3.160867     -0.410523
  C      10.147790     -2.712672     -1.788427
  H      10.547115     -3.740584     -1.605207
  H       9.531848     -2.785970     -2.717062
  C      11.347313     -1.753135     -2.021068
  H      11.885351     -1.617575     -1.050850
  H      10.976458     -0.738989     -2.307294
  C      12.363457     -2.236670     -3.092352
  H      13.252076     -1.558577     -3.077843
  H      12.750593     -3.246888     -2.805704
  C      11.809757     -2.295505     -4.540907
  H      10.945015     -2.999718     -4.589324
  H      11.399574     -1.292099     -4.816506
  C      12.872967     -2.725868     -5.581262
  H      13.284917     -3.735226     -5.344257
  H      12.447690     -2.770376     -6.610428
  H      13.733004     -2.015379     -5.603833
138
Coordinates from ORCA-job /wrk/rja7/qm_final_3_replicates/qm_final_1.1/qm/9/freq E -2722.576749108385
  N      -9.238487     -2.915134      6.426162
  C      -7.808610     -3.234501      5.866761
  H      -7.975465     -3.799783      4.921731
  H      -7.319788     -3.867321      6.635791
  C      -9.200104     -2.428935      7.893471
  H     -10.244641     -2.439932      8.270329
  H      -8.529434     -3.096149      8.470404
  H      -8.771821     -1.411472      7.915973
  C     -10.032525     -4.213496      6.378616
  H     -10.105275     -4.562822      5.328045
  H      -9.502325     -4.970867      6.990609
  H     -11.048743     -4.040865      6.790675
  C      -9.930671     -1.858507      5.575265
  H      -9.940513     -2.191166      4.516446
  H      -9.376865     -0.904791      5.671816
  H     -10.970695     -1.729697      5.941789
  C      -6.917046     -1.997693      5.589911
  H      -5.923958     -2.423912      5.286237
  H      -7.291179     -1.418835      4.711884
  P      -5.867654     -1.626907      8.098906
  O      -6.163099     -3.117200      8.296164
  O      -6.109150     -0.516139      9.102816
  O      -6.818349     -1.110118      6.690593
  O      -4.318904     -1.539581      7.407175
  C      -3.631039     -0.274939      7.424881
  H      -2.542680     -0.494405      7.326750
  H      -3.805094      0.255351      8.392018
  C      -4.070925      0.673178      6.280504
  H      -5.172595      0.822416      6.306894
  O      -3.695241      0.024860      5.009194
  C      -4.545658      0.090141      3.931645
  O      -5.629874      0.659937      3.925090
  C      -3.917893     -0.620568      2.722853
  H      -4.707169     -1.243622      2.240506
  H      -3.110134     -1.300834      3.073521
  C      -3.390634      2.060492      6.351961
  H      -3.550266      2.503495      7.360578
  H      -3.797094      2.745886      5.578020
  O      -1.940139      1.913611      6.180811
  C      -1.417491      2.199536      4.940786
  O      -2.026241      2.784508      4.052864
  C       0.001466      1.629161      4.796306
  H       0.476403      1.529549      5.798001
  H      -0.160069      0.581825      4.437936
  C      -3.341256      0.395543      1.689377
  H      -2.695191      1.133616      2.217107
  H      -4.179014      0.981943      1.242663
  C      -2.508190     -0.297851      0.580194
  H      -3.150860     -1.009510      0.003879
  H      -1.723862     -0.929230      1.067536
  C      -1.818141      0.697798     -0.387706
  H      -1.301444      1.483711      0.215500
  H      -2.590267      1.239919     -0.987645
  C      -0.790952      0.028991     -1.335078
  H      -1.306977     -0.721216     -1.984801
  H      -0.060977     -0.555038     -0.723328
  C      -0.011481      1.032137     -2.222702
  H       0.479428      1.797904     -1.572752
  H      -0.722731      1.597349     -2.872574
  C       1.067846      0.350569     -3.118903
  H       0.572105     -0.398187     -3.778952
  H       1.758281     -0.226678     -2.455139
  C       1.879531      1.346838     -3.929623
  H       2.593595      1.961283     -3.342068
  C       1.793949      1.583826     -5.262795
  H       2.446372      2.375021     -5.683206
  C       0.862185      0.892141     -6.250802
  H       0.656204     -0.153678     -5.925684
  H       1.373722      0.813949     -7.240995
  C      -0.504394      1.623658     -6.458038
  H      -1.046645      1.665592     -5.481711
  H      -1.133522      1.000221     -7.137207
  C      -0.374261      3.060466     -7.028452
  H       0.166849      3.019585     -8.007364
  H       0.272430      3.662411     -6.347321
  C      -1.723936      3.807266     -7.214340
  H      -1.512745      4.876601     -7.461056
  H      -2.269350      3.826823     -6.237643
  C      -2.654495      3.222971     -8.310264
  H      -2.918183      2.165411     -8.064819
  H      -2.090811      3.180432     -9.273873
  C      -3.962936      4.035303     -8.495062
  H      -3.707537      5.087387     -8.778473
  H      -4.482503      4.106845     -7.508030
  C      -4.955039      3.450823     -9.539129
  H      -5.905005      4.036573     -9.495282
  H      -5.226684      2.407465     -9.241688
  C      -4.432716      3.449138    -10.998653
  H      -3.537924      2.797287    -11.123363
  H      -4.145903      4.476334    -11.327339
  H      -5.210897      3.077751    -11.704891
  C       0.898527      2.412987      3.798048
  H       1.381034      3.260638      4.339389
  H       0.249698      2.873184      3.017668
  C       1.987137      1.543101      3.106236
  H       2.534213      0.934179      3.868945
  H       2.748748      2.220064      2.653549
  C       1.412847      0.609253      2.004620
  H       0.916779      1.242300      1.228774
  H       0.600146     -0.022665      2.436918
  C       2.446779     -0.321328      1.317298
  H       2.928518     -0.973492      2.085179
  H       1.901423     -1.014214      0.630086
  C       3.542220      0.417952      0.501586
  H       3.055568      1.177251     -0.159328
  H       4.215550      0.982929      1.188027
  C       4.416335     -0.524695     -0.388971
  H       5.134850      0.094686     -0.971573
  H       3.747706     -1.013273     -1.140565
  C       5.145076     -1.606352      0.395067
  H       4.517761     -2.453171      0.739437
  C       6.457788     -1.624708      0.737843
  H       6.817477     -2.495110      1.322633
  C       7.513966     -0.588899      0.377247
  H       8.172772     -0.422132      1.265115
  H       7.042675      0.395518      0.155664
  C       8.418222     -0.992861     -0.833472
  H       9.110571     -0.143770     -1.045499
  H       7.776864     -1.109199     -1.741410
  C       9.232022     -2.294797     -0.614545
  H       9.850428     -2.192504      0.312848
  H       8.526004     -3.136730     -0.421611
  C      10.155632     -2.687081     -1.801863
  H      10.557372     -3.713849     -1.617523
  H       9.539069     -2.763136     -2.729886
  C      11.352780     -1.725149     -2.036947
  H      11.890224     -1.585594     -1.066951
  H      10.979499     -0.712678     -2.325939
  C      12.370448     -2.208899     -3.106701
  H      13.257242     -1.528373     -3.093762
  H      12.760301     -3.217294     -2.817356
  C      11.817293     -2.272771     -4.555235
  H      10.954281     -2.979202     -4.602262
  H      11.404736     -1.271055     -4.833395
  C      12.881885     -2.703000     -5.594249
  H      13.296447     -3.710640     -5.354496
  H      12.457028     -2.751363     -6.623412
  H      13.740057     -1.990309     -5.618418
138
Coordinates from ORCA-job /wrk/rja7/qm_final_3_replicates/qm_final_1.1/qm/9/freq E -2722.576768972162
  N      -9.273715     -2.858276      6.549065
  C      -7.872777     -3.213759      5.932552
  H      -8.093032     -3.768902      4.992624
  H      -7.372345     -3.863611      6.679374
  C      -9.170984     -2.425535      8.030070
  H     -10.202957     -2.411906      8.439791
  H      -8.509300     -3.136183      8.563247
  H      -8.705287     -1.425291      8.076189
  C     -10.118363     -4.122112      6.484291
  H     -10.240082     -4.433378      5.426177
  H      -9.598995     -4.919746      7.052994
  H     -11.113697     -3.927126      6.935668
  C      -9.948337     -1.744950      5.757153
  H      -9.999884     -2.037564      4.687799
  H      -9.354964     -0.817621      5.873571
  H     -10.972495     -1.593495      6.158135
  C      -6.962432     -1.997746      5.629847
  H      -5.984338     -2.443556      5.305487
  H      -7.344308     -1.414361      4.758131
  P      -5.848401     -1.634468      8.115294
  O      -6.123163     -3.129726      8.296619
  O      -6.097468     -0.536168      9.132004
  O      -6.824867     -1.108811      6.724901
  O      -4.310879     -1.522072      7.408283
  C      -3.639816     -0.249212      7.407911
  H      -2.549706     -0.455633      7.301933
  H      -3.811141      0.289877      8.371010
  C      -4.102872      0.681300      6.257740
  H      -5.203787      0.831129      6.305441
  O      -3.754650      0.010368      4.990747
  C      -4.621733      0.068811      3.926520
  O      -5.699457      0.650923      3.928216
  C      -4.020206     -0.667739      2.719879
  H      -4.826805     -1.274560      2.245711
  H      -3.229018     -1.365857      3.073499
  C      -3.420570      2.068613      6.292047
  H      -3.567418      2.533820      7.292646
  H      -3.835254      2.737967      5.508427
  O      -1.972258      1.915010      6.106045
  C      -1.459885      2.185497      4.858296
  O      -2.074562      2.763022      3.969536
  C      -0.044553      1.608189      4.706689
  H       0.434402      1.503154      5.705879
  H      -0.212118      0.563009      4.344708
  C      -3.421097      0.325228      1.676539
  H      -2.761157      1.056738      2.195936
  H      -4.246032      0.923041      1.221141
  C      -2.599247     -0.396673      0.577030
  H      -3.253027     -1.107562      0.012371
  H      -1.823542     -1.031723      1.073360
  C      -1.894938      0.571995     -0.407878
  H      -1.373153      1.365143      0.181244
  H      -2.657636      1.109112     -1.024175
  C      -0.868756     -0.129202     -1.332667
  H      -1.387316     -0.891212     -1.966455
  H      -0.148555     -0.704641     -0.700954
  C      -0.072372      0.842809     -2.239053
  H       0.423050      1.618623     -1.604830
  H      -0.771747      1.400547     -2.907990
  C       1.002686      0.124865     -3.112022
  H       0.496952     -0.617216     -3.772141
  H       1.666722     -0.463476     -2.432050
  C       1.852180      1.091146     -3.920633
  H       2.595057      1.670991     -3.333769
  C       1.768153      1.339193     -5.252003
  H       2.450388      2.104165     -5.673463
  C       0.797597      0.697412     -6.236595
  H       0.546758     -0.340737     -5.918387
  H       1.295465      0.605192     -7.232428
  C      -0.535789      1.493196     -6.425245
  H      -1.073388      1.540590     -5.446707
  H      -1.194785      0.914120     -7.115376
  C      -0.341318      2.934744     -6.965355
  H       0.206171      2.890911     -7.940585
  H       0.325189      3.493547     -6.266843
  C      -1.655972      3.741698     -7.145746
  H      -1.398199      4.809993     -7.348833
  H      -2.218154      3.749085     -6.178392
  C      -2.589601      3.240025     -8.279375
  H      -2.907670      2.187615     -8.079910
  H      -2.008879      3.208487     -9.233249
  C      -3.853447      4.121773     -8.457454
  H      -3.539205      5.176533     -8.660063
  H      -4.408150      4.153442     -7.487615
  C      -4.827078      3.659411     -9.577322
  H      -5.751585      4.283757     -9.523900
  H      -5.155070      2.610073     -9.371822
  C      -4.247142      3.744219    -11.012861
  H      -3.392724      3.045204    -11.162659
  H      -3.880300      4.773341    -11.239220
  H      -5.018463      3.487510    -11.775336
  C       0.852913      2.391015      3.708203
  H       1.325583      3.245761      4.247173
  H       0.205789      2.840617      2.920279
  C       1.954642      1.525979      3.030907
  H       2.501914      0.927913      3.801869
  H       2.711843      2.208129      2.578850
  C       1.399067      0.578665      1.931148
  H       0.889931      1.200103      1.154714
  H       0.600884     -0.070388      2.365611
  C       2.451876     -0.332316      1.244626
  H       2.936605     -0.982159      2.012630
  H       1.920983     -1.028125      0.549174
  C       3.542962      0.428137      0.442919
  H       3.049878      1.173781     -0.229005
  H       4.191402      1.010589      1.138480
  C       4.453576     -0.495420     -0.431362
  H       5.169265      0.140695     -0.999112
  H       3.810011     -0.996628     -1.196262
  C       5.191873     -1.561844      0.363854
  H       4.572801     -2.413224      0.711946
  C       6.503693     -1.563468      0.710859
  H       6.870636     -2.426152      1.302529
  C       7.550701     -0.519419      0.346172
  H       8.206696     -0.341899      1.234037
  H       7.070888      0.459566      0.118855
  C       8.459781     -0.920131     -0.861942
  H       9.147971     -0.067520     -1.073465
  H       7.821097     -1.040673     -1.771305
  C       9.280073     -2.217784     -0.641428
  H       9.894855     -2.113226      0.288211
  H       8.577908     -3.063618     -0.451464
  C      10.209102     -2.603383     -1.826647
  H      10.614383     -3.629121     -1.644567
  H       9.595447     -2.678944     -2.756724
  C      11.403129     -1.635861     -2.054996
  H      11.935161     -1.494949     -1.082162
  H      11.027099     -0.624589     -2.344636
  C      12.428171     -2.113886     -3.120296
  H      13.312231     -1.429890     -3.101644
  H      12.820606     -3.121231     -2.830865
  C      11.882683     -2.176653     -4.571744
  H      11.021830     -2.885341     -4.624840
  H      11.468881     -1.175519     -4.850080
  C      12.953910     -2.601873     -5.606033
  H      13.369997     -3.608837     -5.366036
  H      12.534616     -2.649435     -6.637513
  H      13.810257     -1.886802     -5.624326
138
Coordinates from ORCA-job /wrk/rja7/qm_final_3_replicates/qm_final_1.1/qm/9/freq E -2722.576859075480
  N      -9.309181     -2.823372      6.572869
  C      -7.923163     -3.195472      5.932271
  H      -8.166879     -3.737264      4.990397
  H      -7.422833     -3.860738      6.665288
  C      -9.178080     -2.408766      8.056750
  H     -10.203598     -2.385113      8.481989
  H      -8.519279     -3.135129      8.571987
  H      -8.697471     -1.415782      8.107933
  C     -10.176402     -4.072153      6.506917
  H     -10.318720     -4.369093      5.447310
  H      -9.662478     -4.885081      7.058646
  H     -11.161224     -3.864752      6.975311
  C      -9.976608     -1.690730      5.802510
  H     -10.048217     -1.970916      4.730980
  H      -9.366866     -0.774292      5.920446
  H     -10.992424     -1.527410      6.219750
  C      -6.997837     -1.991679      5.626854
  H      -6.031188     -2.450524      5.286596
  H      -7.382004     -1.395962      4.764629
  P      -5.846161     -1.661300      8.100799
  O      -6.133217     -3.155578      8.270988
  O      -6.074270     -0.570633      9.130548
  O      -6.832273     -1.112567      6.725854
  O      -4.314524     -1.556281      7.379623
  C      -3.633170     -0.288817      7.383279
  H      -2.545269     -0.502845      7.269636
  H      -3.794760      0.245452      8.350720
  C      -4.096255      0.651385      6.241201
  H      -5.196721      0.803454      6.292609
  O      -3.752218     -0.011328      4.968922
  C      -4.624483      0.048759      3.909021
  O      -5.704347      0.626818      3.917997
  C      -4.025929     -0.682253      2.697900
  H      -4.834159     -1.285165      2.221361
  H      -3.235360     -1.383540      3.046692
  C      -3.411603      2.037257      6.283405
  H      -3.554580      2.495564      7.287761
  H      -3.827750      2.712809      5.505826
  O      -1.963841      1.884439      6.091851
  C      -1.454899      2.161616      4.843964
  O      -2.073171      2.741068      3.959009
  C      -0.039425      1.586016      4.686346
  H       0.440833      1.475662      5.684330
  H      -0.206722      0.542538      4.319259
  C      -3.425918      0.315444      1.659201
  H      -2.768190      1.045977      2.182652
  H      -4.250904      0.913898      1.204640
  C      -2.599810     -0.401045      0.559341
  H      -3.249997     -1.112593     -0.008637
  H      -1.823493     -1.034904      1.056246
  C      -1.895793      0.572562     -0.420846
  H      -1.380613      1.367256      0.172039
  H      -2.658019      1.107071     -1.039944
  C      -0.861381     -0.122030     -1.341497
  H      -1.373222     -0.885138     -1.979423
  H      -0.141835     -0.695432     -0.707252
  C      -0.064280      0.855231     -2.241863
  H       0.424644      1.631880     -1.603675
  H      -0.762367      1.411216     -2.913510
  C       1.018718      0.142857     -3.109979
  H       0.519731     -0.602115     -3.771968
  H       1.682571     -0.441647     -2.426515
  C       1.867543      1.112802     -3.914954
  H       2.608223      1.692680     -3.325401
  C       1.785496      1.363670     -5.245929
  H       2.466879      2.131097     -5.664341
  C       0.817671      0.721956     -6.233136
  H       0.571667     -0.318607     -5.919006
  H       1.315732      0.635897     -7.229380
  C      -0.519403      1.511968     -6.418256
  H      -1.054223      1.557965     -5.438112
  H      -1.177912      0.928783     -7.105431
  C      -0.332895      2.953091     -6.961760
  H       0.209720      2.909350     -7.939730
  H       0.335200      3.515992     -6.267952
  C      -1.651180      3.754911     -7.137641
  H      -1.397314      4.821629     -7.353628
  H      -2.204622      3.770389     -6.165415
  C      -2.594393      3.239143     -8.256787
  H      -2.909614      2.188947     -8.041830
  H      -2.022538      3.196434     -9.215559
  C      -3.860863      4.117449     -8.434198
  H      -3.550203      5.167398     -8.665355
  H      -4.399870      4.170977     -7.456535
  C      -4.852800      3.628894     -9.526444
  H      -5.774844      4.257123     -9.475588
  H      -5.180727      2.586572     -9.287755
  C      -4.294665      3.672898    -10.972329
  H      -3.443170      2.968953    -11.115394
  H      -3.930667      4.694931    -11.233278
  H      -5.077648      3.395921    -11.715541
  C       0.856627      2.375103      3.691294
  H       1.330454      3.226029      4.235389
  H       0.208840      2.830517      2.907324
  C       1.957960      1.514489      3.007732
  H       2.507013      0.913719      3.775361
  H       2.714046      2.199329      2.557870
  C       1.402541      0.571810      1.904023
  H       0.893678      1.196423      1.129846
  H       0.604038     -0.078653      2.335586
  C       2.455748     -0.336463      1.215065
  H       2.937811     -0.990880      1.980825
  H       1.926193     -1.028142      0.514469
  C       3.549843      0.427291      0.420686
  H       3.059817      1.176812     -0.249027
  H       4.196574      1.005631      1.121382
  C       4.462608     -0.492869     -0.454893
  H       5.181362      0.145429     -1.016364
  H       3.821687     -0.989463     -1.225057
  C       5.196706     -1.563550      0.338384
  H       4.575777     -2.416548      0.679081
  C       6.506540     -1.567237      0.692548
  H       6.869887     -2.433156      1.281714
  C       7.555940     -0.521954      0.338899
  H       8.206026     -0.347915      1.231781
  H       7.077803      0.458024      0.112164
  C       8.472709     -0.918378     -0.864748
  H       9.161585     -0.064687     -1.069523
  H       7.839585     -1.036715     -1.778250
  C       9.292328     -2.216098     -0.642596
  H       9.901583     -2.113489      0.290870
  H       8.589389     -3.062681     -0.458941
  C      10.228456     -2.598525     -1.823179
  H      10.632965     -3.624527     -1.640901
  H       9.620501     -2.672148     -2.757100
  C      11.423700     -1.630313     -2.041888
  H      11.951224     -1.493254     -1.066082
  H      11.048966     -0.617882     -2.329201
  C      12.453162     -2.104147     -3.104740
  H      13.337461     -1.420658     -3.079625
  H      12.844080     -3.112808     -2.817800
  C      11.913682     -2.161179     -4.558670
  H      11.052942     -2.869553     -4.617773
  H      11.500961     -1.159039     -4.835002
  C      12.988883     -2.582971     -5.590207
  H      13.403522     -3.591037     -5.352349
  H      12.573501     -2.626481     -6.623450
  H      13.845602     -1.868208     -5.602613
138
Coordinates from ORCA-job /wrk/rja7/qm_final_3_replicates/qm_final_1.1/qm/9/freq E -2722.576975454509
  N      -9.365708     -2.693483      6.623663
  C      -8.050688     -3.122388      5.876811
  H      -8.391699     -3.586587      4.924089
  H      -7.559146     -3.864326      6.537819
  C      -9.119942     -2.392592      8.120004
  H     -10.114959     -2.329925      8.609764
  H      -8.487604     -3.196846      8.544798
  H      -8.568110     -1.440041      8.212291
  C     -10.332793     -3.866432      6.532635
  H     -10.559478     -4.076167      5.467071
  H      -9.854912     -4.753281      6.995736
  H     -11.267504     -3.615122      7.075385
  C      -9.987109     -1.465335      5.969401
  H     -10.141100     -1.665544      4.888462
  H      -9.304872     -0.604786      6.109512
  H     -10.962904     -1.260069      6.457632
  C      -7.065632     -1.966036      5.582337
  H      -6.146565     -2.465343      5.174128
  H      -7.452268     -1.306516      4.769469
  P      -5.785228     -1.811205      8.016975
  O      -6.103317     -3.306246      8.104978
  O      -5.955199     -0.782634      9.119681
  O      -6.799285     -1.151426      6.711008
  O      -4.274576     -1.692892      7.256862
  C      -3.577377     -0.435049      7.305119
  H      -2.493884     -0.655623      7.163957
  H      -3.716287      0.058972      8.297199
  C      -4.051384      0.553837      6.210561
  H      -5.150038      0.709879      6.285516
  O      -3.731127     -0.064554      4.910680
  C      -4.623856      0.025026      3.869798
  O      -5.701269      0.605970      3.914355
  C      -4.055959     -0.691154      2.636351
  H      -4.883756     -1.262947      2.154879
  H      -3.279955     -1.419825      2.961550
  C      -3.360818      1.933997      6.294428
  H      -3.488694      2.357251      7.316197
  H      -3.784085      2.637902      5.546184
  O      -1.916499      1.785930      6.078957
  C      -1.426221      2.095072      4.831164
  O      -2.058216      2.693915      3.969321
  C      -0.012605      1.526084      4.642179
  H       0.483344      1.403347      5.631102
  H      -0.180742      0.486771      4.263893
  C      -3.437947      0.311146      1.612255
  H      -2.771224      1.025852      2.145735
  H      -4.252408      0.927593      1.162415
  C      -2.618476     -0.406438      0.508074
  H      -3.274652     -1.109410     -0.063666
  H      -1.849474     -1.050465      1.004025
  C      -1.903755      0.566011     -0.465185
  H      -1.391239      1.359004      0.132708
  H      -2.658866      1.102847     -1.090796
  C      -0.863442     -0.130973     -1.377252
  H      -1.372592     -0.891787     -2.020093
  H      -0.150896     -0.707324     -0.737970
  C      -0.055027      0.843785     -2.270925
  H       0.432517      1.617312     -1.628340
  H      -0.744725      1.402896     -2.948177
  C       1.032209      0.125150     -3.129877
  H       0.534903     -0.619393     -3.793738
  H       1.687280     -0.460524     -2.439201
  C       1.892681      1.088671     -3.930244
  H       2.642622      1.654266     -3.338790
  C       1.810989      1.347585     -5.259597
  H       2.500079      2.109297     -5.675878
  C       0.832672      0.720539     -6.245464
  H       0.581530     -0.320561     -5.936997
  H       1.324189      0.638057     -7.245199
  C      -0.500770      1.519004     -6.416484
  H      -1.025091      1.567436     -5.430842
  H      -1.169188      0.938041     -7.095998
  C      -0.312143      2.957436     -6.964710
  H       0.216874      2.907941     -7.949874
  H       0.369289      3.518292     -6.281868
  C      -1.626438      3.768042     -7.127371
  H      -1.364712      4.825960     -7.375152
  H      -2.157122      3.812579     -6.143604
  C      -2.602525      3.234238     -8.208808
  H      -2.932139      2.197762     -7.953207
  H      -2.054171      3.150491     -9.178516
  C      -3.857556      4.129505     -8.387751
  H      -3.536289      5.156315     -8.695437
  H      -4.353857      4.254093     -7.394173
  C      -4.904963      3.594256     -9.403044
  H      -5.806080      4.253244     -9.365860
  H      -5.254972      2.584180     -9.073933
  C      -4.401462      3.511507    -10.866917
  H      -3.576355      2.772503    -10.985953
  H      -4.018492      4.499304    -11.218258
  H      -5.219507      3.204439    -11.558589
  C       0.863957      2.333661      3.645662
  H       1.340568      3.180350      4.194252
  H       0.203712      2.796683      2.876674
  C       1.961089      1.487793      2.939084
  H       2.527382      0.889300      3.695996
  H       2.704626      2.180778      2.481048
  C       1.397693      0.543320      1.841642
  H       0.877849      1.164175      1.071690
  H       0.606411     -0.110077      2.281673
  C       2.450144     -0.360672      1.147822
  H       2.931295     -1.018275      1.911297
  H       1.922951     -1.050151      0.443319
  C       3.545200      0.409008      0.361368
  H       3.057784      1.156573     -0.312136
  H       4.183167      0.990818      1.067563
  C       4.470843     -0.506468     -0.504887
  H       5.195907      0.135863     -1.053863
  H       3.842421     -1.002219     -1.285844
  C       5.196778     -1.575036      0.297786
  H       4.576201     -2.434422      0.622568
  C       6.498272     -1.569269      0.679493
  H       6.856867     -2.435809      1.270671
  C       7.545059     -0.512947      0.353801
  H       8.177666     -0.341016      1.259493
  H       7.063565      0.465276      0.125953
  C       8.483372     -0.893301     -0.837624
  H       9.168897     -0.033139     -1.025989
  H       7.864315     -1.009586     -1.760912
  C       9.307874     -2.186337     -0.611393
  H       9.905447     -2.084900      0.329704
  H       8.608106     -3.038257     -0.440870
  C      10.259482     -2.556337     -1.782659
  H      10.667009     -3.581342     -1.601633
  H       9.663381     -2.626906     -2.724286
  C      11.452690     -1.580978     -1.979963
  H      11.972340     -1.453525     -0.998679
  H      11.075656     -0.566555     -2.257346
  C      12.491002     -2.037407     -3.041629
  H      13.373346     -1.352077     -3.001874
  H      12.883023     -3.048653     -2.765336
  C      11.961310     -2.078010     -4.499726
  H      11.103743     -2.788945     -4.572699
  H      11.546158     -1.074300     -4.766587
  C      13.044195     -2.484073     -5.529466
  H      13.460053     -3.493872     -5.301309
  H      12.634863     -2.516088     -6.565546
  H      13.899081     -1.766931     -5.528670
138
Coordinates from ORCA-job /wrk/rja7/qm_final_3_replicates/qm_final_1.1/qm/9/freq E -2722.577156878912
  N      -9.391895     -2.674084      6.637185
  C      -8.076942     -3.153305      5.925715
  H      -8.411915     -3.650338      4.987497
  H      -7.604531     -3.875689      6.621383
  C      -9.163138     -2.337671      8.129063
  H     -10.163811     -2.237616      8.601075
  H      -8.558894     -3.144963      8.586745
  H      -8.589608     -1.396656      8.204577
  C     -10.385715     -3.825858      6.561170
  H     -10.601436     -4.056219      5.497670
  H      -9.936282     -4.712120      7.052982
  H     -11.321769     -3.538417      7.083173
  C      -9.972864     -1.449523      5.940288
  H     -10.112113     -1.673905      4.862162
  H      -9.272227     -0.602443      6.071293
  H     -10.951672     -1.208033      6.405323
  C      -7.070036     -2.023440      5.595959
  H      -6.151897     -2.551737      5.224281
  H      -7.437014     -1.395239      4.749975
  P      -5.814801     -1.786837      8.030754
  O      -6.137194     -3.278286      8.154754
  O      -6.000053     -0.728661      9.103139
  O      -6.810773     -1.165559      6.693583
  O      -4.292984     -1.687209      7.290312
  C      -3.595488     -0.428389      7.322683
  H      -2.511625     -0.651849      7.189024
  H      -3.738264      0.077498      8.308176
  C      -4.061520      0.551520      6.216276
  H      -5.159484      0.713988      6.285664
  O      -3.740524     -0.076413      4.921478
  C      -4.634959      0.003292      3.880624
  O      -5.711632      0.585808      3.920871
  C      -4.065949     -0.718423      2.650890
  H      -4.894626     -1.287802      2.169181
  H      -3.292749     -1.447903      2.980779
  C      -3.363745      1.929065      6.292314
  H      -3.484741      2.354929      7.313795
  H      -3.787774      2.632858      5.544563
  O      -1.921187      1.774222      6.070438
  C      -1.437120      2.078908      4.819085
  O      -2.072475      2.677927      3.959778
  C      -0.024270      1.510077      4.622495
  H       0.475822      1.383530      5.608795
  H      -0.193529      0.472925      4.239086
  C      -3.442675      0.278492      1.624955
  H      -2.775673      0.993837      2.157453
  H      -4.253392      0.896137      1.169935
  C      -2.623447     -0.445170      0.524400
  H      -3.280658     -1.149633     -0.044237
  H      -1.855766     -1.088192      1.022955
  C      -1.909099      0.524572     -0.451770
  H      -1.397810      1.320288      0.143662
  H      -2.666183      1.058182     -1.077773
  C      -0.867947     -0.171903     -1.362511
  H      -1.375204     -0.934317     -2.004927
  H      -0.152613     -0.744062     -0.722907
  C      -0.062590      0.805023     -2.257512
  H       0.425809      1.577141     -1.613905
  H      -0.754220      1.364537     -2.932237
  C       1.025253      0.088567     -3.117395
  H       0.529415     -0.654038     -3.784586
  H       1.679714     -0.498878     -2.427596
  C       1.887171      1.054282     -3.913606
  H       2.639694      1.614135     -3.319973
  C       1.803316      1.323400     -5.240621
  H       2.492964      2.086935     -5.652508
  C       0.825810      0.703455     -6.231332
  H       0.564558     -0.335240     -5.923276
  H       1.323843      0.616104     -7.227579
  C      -0.500505      1.511403     -6.411216
  H      -1.033156      1.557646     -5.429905
  H      -1.165959      0.937199     -7.099199
  C      -0.298289      2.951002     -6.950493
  H       0.235801      2.903942     -7.933040
  H       0.382252      3.503761     -6.260281
  C      -1.606139      3.772593     -7.115858
  H      -1.334316      4.828894     -7.359589
  H      -2.140194      3.818106     -6.133984
  C      -2.581727      3.249403     -8.202931
  H      -2.919656      2.214787     -7.951157
  H      -2.029581      3.163940     -9.170292
  C      -3.829885      4.153694     -8.385162
  H      -3.500639      5.178027     -8.692702
  H      -4.327690      4.282478     -7.392845
  C      -4.878894      3.624012     -9.401693
  H      -5.777207      4.286964     -9.365852
  H      -5.233757      2.616045     -9.071291
  C      -4.374919      3.537510    -10.864894
  H      -3.546044      2.802246    -10.981408
  H      -3.996261      4.525383    -11.220986
  H      -5.191609      3.224227    -11.555453
  C       0.847472      2.324047      3.626716
  H       1.313100      3.177037      4.174856
  H       0.184411      2.778448      2.854941
  C       1.953911      1.486817      2.923901
  H       2.523659      0.893558      3.682455
  H       2.692855      2.185076      2.466566
  C       1.400582      0.536666      1.825576
  H       0.882146      1.153964      1.051643
  H       0.609735     -0.118799      2.262822
  C       2.460936     -0.362944      1.138305
  H       2.942454     -1.016855      1.904649
  H       1.941459     -1.056031      0.431535
  C       3.555152      0.412692      0.355716
  H       3.066491      1.162161     -0.314630
  H       4.191049      0.993534      1.064631
  C       4.484078     -0.497113     -0.513143
  H       5.204955      0.148702     -1.063357
  H       3.855806     -0.994900     -1.292984
  C       5.215228     -1.563744      0.287393
  H       4.597459     -2.424103      0.614908
  C       6.517992     -1.554835      0.665207
  H       6.880279     -2.419632      1.256672
  C       7.561463     -0.496167      0.335939
  H       8.197558     -0.324000      1.239055
  H       7.076910      0.481141      0.110839
  C       8.496225     -0.874219     -0.859228
  H       9.178950     -0.012465     -1.050488
  H       7.874062     -0.992725     -1.780091
  C       9.324847     -2.164929     -0.634196
  H       9.924294     -2.060920      0.305389
  H       8.628049     -3.018744     -0.460875
  C      10.275479     -2.534084     -1.806733
  H      10.686043     -3.557664     -1.624368
  H       9.678377     -2.607712     -2.747441
  C      11.465810     -1.555868     -2.007804
  H      11.985375     -1.423650     -1.027131
  H      11.085929     -0.543586     -2.288969
  C      12.505753     -2.013718     -3.067334
  H      13.385756     -1.325273     -3.030583
  H      12.900561     -3.022514     -2.786148
  C      11.976484     -2.063000     -4.525379
  H      11.121101     -2.776827     -4.594984
  H      11.558833     -1.061660     -4.797214
  C      13.060891     -2.470786     -5.552836
  H      13.480118     -3.477920     -5.319206
  H      12.652040     -2.509495     -6.588879
  H      13.913392     -1.750837     -5.555647
138
Coordinates from ORCA-job /wrk/rja7/qm_final_3_replicates/qm_final_1.1/qm/9/freq E -2722.577329012292
  N      -9.415134     -2.614495      6.685133
  C      -8.125843     -3.155040      5.969951
  H      -8.486237     -3.659314      5.044759
  H      -7.672967     -3.880008      6.675663
  C      -9.166198     -2.287688      8.175532
  H     -10.159345     -2.146049      8.652721
  H      -8.596546     -3.120394      8.631014
  H      -8.553304     -1.371800      8.250331
  C     -10.462729     -3.718017      6.615463
  H     -10.694455     -3.938471      5.553323
  H     -10.055265     -4.624867      7.106547
  H     -11.381064     -3.384353      7.141161
  C      -9.943584     -1.364394      5.990995
  H     -10.096603     -1.580883      4.913357
  H      -9.204220     -0.551018      6.121853
  H     -10.908260     -1.080782      6.461156
  C      -7.081407     -2.069148      5.607167
  H      -6.182555     -2.636739      5.247258
  H      -7.431038     -1.450268      4.746797
  P      -5.803039     -1.816412      8.025365
  O      -6.137341     -3.304495      8.151717
  O      -5.989544     -0.752950      9.093172
  O      -6.791528     -1.194658      6.683303
  O      -4.277243     -1.723945      7.293272
  C      -3.581359     -0.463388      7.319299
  H      -2.497961     -0.684584      7.178753
  H      -3.719430      0.043419      8.304881
  C      -4.057729      0.513101      6.214203
  H      -5.155805      0.670964      6.290097
  O      -3.743211     -0.115326      4.918660
  C      -4.650635     -0.053899      3.887999
  O      -5.731512      0.520185      3.935330
  C      -4.086359     -0.777597      2.657291
  H      -4.919040     -1.343183      2.177502
  H      -3.315649     -1.509945      2.986663
  C      -3.365372      1.893883      6.284517
  H      -3.480797      2.318799      7.307012
  H      -3.798791      2.595738      5.540436
  O      -1.923522      1.746173      6.052930
  C      -1.449538      2.048543      4.796865
  O      -2.095524      2.636655      3.937905
  C      -0.032042      1.492405      4.595097
  H       0.472571      1.370880      5.579622
  H      -0.193667      0.454060      4.211699
  C      -3.461216      0.217614      1.630160
  H      -2.794761      0.934159      2.162001
  H      -4.271045      0.835132      1.173250
  C      -2.641526     -0.505686      0.529249
  H      -3.298931     -1.211153     -0.037852
  H      -1.871701     -1.147552      1.025927
  C      -1.930689      0.464837     -0.449274
  H      -1.420032      1.262318      0.144321
  H      -2.690848      0.995739     -1.073885
  C      -0.889503     -0.229497     -1.361499
  H      -1.394795     -0.995069     -2.001673
  H      -0.170046     -0.796554     -0.722106
  C      -0.089841      0.749875     -2.259417
  H       0.397027      1.523582     -1.616507
  H      -0.784489      1.306779     -2.933189
  C       1.000262      0.037691     -3.119955
  H       0.506866     -0.701979     -3.792188
  H       1.653217     -0.552673     -2.431144
  C       1.863718      1.007740     -3.909659
  H       2.617532      1.561326     -3.311834
  C       1.780659      1.287930     -5.234641
  H       2.472902      2.052562     -5.640036
  C       0.804786      0.678147     -6.233595
  H       0.535002     -0.359981     -5.931470
  H       1.308909      0.592299     -7.226952
  C      -0.516144      1.494626     -6.419642
  H      -1.058783      1.532677     -5.443418
  H      -1.176489      0.930551     -7.120645
  C      -0.302290      2.938861     -6.941335
  H       0.241125      2.901295     -7.919156
  H       0.372801      3.481073     -6.237746
  C      -1.605698      3.767795     -7.109435
  H      -1.327433      4.826205     -7.335814
  H      -2.149107      3.801204     -6.132219
  C      -2.571147      3.263810     -8.214537
  H      -2.917250      2.227629     -7.980586
  H      -2.008615      3.189104     -9.176660
  C      -3.813577      4.175897     -8.397712
  H      -3.475703      5.204701     -8.680022
  H      -4.325129      4.287059     -7.410270
  C      -4.849082      3.670882     -9.440399
  H      -5.746584      4.334853     -9.402918
  H      -5.210993      2.656940     -9.136749
  C      -4.325489      3.615837    -10.898046
  H      -3.494325      2.884052    -11.019655
  H      -3.943246      4.611263    -11.228148
  H      -5.132603      3.316780    -11.606076
  C       0.829829      2.314209      3.596768
  H       1.283357      3.175421      4.142107
  H       0.161140      2.756644      2.822965
  C       1.946972      1.488752      2.896489
  H       2.527373      0.908119      3.656728
  H       2.674105      2.195299      2.433033
  C       1.404728      0.525397      1.803786
  H       0.876270      1.132039      1.028270
  H       0.623559     -0.138187      2.245768
  C       2.475514     -0.364124      1.118614
  H       2.966098     -1.008273      1.887381
  H       1.963129     -1.066494      0.415927
  C       3.560035      0.420618      0.331237
  H       3.061904      1.160668     -0.342691
  H       4.188304      1.013423      1.037067
  C       4.499948     -0.482477     -0.532993
  H       5.216576      0.167769     -1.083434
  H       3.877621     -0.987225     -1.313204
  C       5.235729     -1.543085      0.271862
  H       4.622109     -2.407191      0.597155
  C       6.536889     -1.526366      0.655884
  H       6.900844     -2.388487      1.250172
  C       7.577514     -0.463624      0.330011
  H       8.210357     -0.289924      1.235059
  H       7.090183      0.512003      0.103857
  C       8.517649     -0.839179     -0.862116
  H       9.201717      0.022451     -1.049059
  H       7.898862     -0.955498     -1.785543
  C       9.344069     -2.131563     -0.636123
  H       9.941433     -2.029459      0.304959
  H       8.645311     -2.984184     -0.465017
  C      10.297315     -2.502669     -1.806256
  H      10.704227     -3.527673     -1.623494
  H       9.702772     -2.573701     -2.748745
  C      11.491228     -1.528028     -2.003420
  H      12.008714     -1.398934     -1.021257
  H      11.115561     -0.514157     -2.284434
  C      12.532771     -1.988372     -3.060180
  H      13.415281     -1.303401     -3.019271
  H      12.922411     -2.999208     -2.779196
  C      12.008395     -2.032716     -4.520156
  H      11.149937     -2.742342     -4.594296
  H      11.596733     -1.028808     -4.791641
  C      13.094530     -2.443803     -5.544392
  H      13.508144     -3.453292     -5.311000
  H      12.689485     -2.478742     -6.582065
  H      13.950497     -1.727997     -5.542734
138
Coordinates from ORCA-job /wrk/rja7/qm_final_3_replicates/qm_final_1.1/qm/9/freq E -2722.577426847869
  N      -9.452876     -2.559722      6.735707
  C      -8.202553     -3.156393      5.995860
  H      -8.601564     -3.657383      5.084677
  H      -7.760620     -3.890550      6.698729
  C      -9.163870     -2.263163      8.224508
  H     -10.141129     -2.085167      8.721258
  H      -8.626351     -3.127072      8.659822
  H      -8.509855     -1.376230      8.303047
  C     -10.556247     -3.607764      6.672361
  H     -10.816681     -3.804435      5.612192
  H     -10.189703     -4.540242      7.147928
  H     -11.447356     -3.232203      7.216571
  C      -9.931287     -1.275639      6.065809
  H     -10.110717     -1.469412      4.988155
  H      -9.150433     -0.502293      6.197918
  H     -10.873842     -0.955188      6.556342
  C      -7.127503     -2.112968      5.599883
  H      -6.253620     -2.714688      5.234610
  H      -7.470382     -1.494080      4.736589
  P      -5.802332     -1.869750      7.994415
  O      -6.140436     -3.357343      8.105896
  O      -5.990160     -0.815414      9.072350
  O      -6.793795     -1.234547      6.660663
  O      -4.276899     -1.767911      7.265011
  C      -3.580490     -0.506929      7.303819
  H      -2.498268     -0.728211      7.155342
  H      -3.712936     -0.012825      8.296605
  C      -4.059431      0.483890      6.212111
  H      -5.156060      0.646080      6.296784
  O      -3.755913     -0.132639      4.909144
  C      -4.672787     -0.067524      3.887505
  O      -5.752464      0.507733      3.946305
  C      -4.120968     -0.793568      2.652399
  H      -4.962028     -1.345852      2.172339
  H      -3.360502     -1.538058      2.978530
  C      -3.359560      1.860052      6.292271
  H      -3.466149      2.274281      7.320090
  H      -3.794408      2.571981      5.558631
  O      -1.920157      1.707072      6.049028
  C      -1.453721      2.019983      4.792357
  O      -2.101994      2.621903      3.944833
  C      -0.039718      1.460700      4.575631
  H       0.468466      1.321788      5.556048
  H      -0.207664      0.429562      4.175952
  C      -3.482443      0.195874      1.628246
  H      -2.810947      0.906327      2.162147
  H      -4.284086      0.821315      1.167660
  C      -2.666072     -0.535240      0.530531
  H      -3.327962     -1.236748     -0.036254
  H      -1.901679     -1.181800      1.029113
  C      -1.945356      0.426712     -0.449017
  H      -1.430328      1.222441      0.142930
  H      -2.699670      0.960793     -1.078061
  C      -0.906781     -0.279853     -1.354721
  H      -1.415538     -1.045958     -1.991449
  H      -0.192861     -0.847878     -0.709781
  C      -0.098915      0.688372     -2.256751
  H       0.394206      1.461273     -1.617593
  H      -0.788781      1.247727     -2.933521
  C       0.984678     -0.036481     -3.114480
  H       0.484085     -0.769944     -3.788280
  H       1.629289     -0.635103     -2.425237
  C       1.858919      0.924153     -3.903444
  H       2.621016      1.467224     -3.306499
  C       1.775706      1.206258     -5.227735
  H       2.476199      1.962305     -5.635175
  C       0.789882      0.608560     -6.224351
  H       0.504349     -0.424633     -5.919909
  H       1.291648      0.513655     -7.218087
  C      -0.519259      1.444351     -6.410905
  H      -1.064280      1.486294     -5.436198
  H      -1.185149      0.892883     -7.116632
  C      -0.283180      2.887702     -6.924516
  H       0.263965      2.847899     -7.900091
  H       0.395846      3.416829     -6.214850
  C      -1.574751      3.735164     -7.093161
  H      -1.281585      4.791795     -7.308597
  H      -2.122766      3.766712     -6.118467
  C      -2.539950      3.254478     -8.208828
  H      -2.904917      2.222300     -7.985547
  H      -1.972360      3.179166     -9.167894
  C      -3.766690      4.187751     -8.391943
  H      -3.409293      5.215243     -8.654176
  H      -4.287567      4.291174     -7.408567
  C      -4.796746      3.716802     -9.455670
  H      -5.683625      4.394920     -9.417924
  H      -5.179641      2.704052     -9.174378
  C      -4.255962      3.679353    -10.907552
  H      -3.437877      2.933706    -11.033495
  H      -3.850200      4.673208    -11.212900
  H      -5.059709      3.410253    -11.631299
  C       0.822226      2.295016      3.587845
  H       1.271597      3.151664      4.143680
  H       0.154261      2.743888      2.816979
  C       1.943839      1.480980      2.881317
  H       2.526119      0.895796      3.636469
  H       2.667723      2.196020      2.425780
  C       1.407904      0.526416      1.777628
  H       0.877972      1.137919      1.007268
  H       0.629198     -0.145211      2.211988
  C       2.483411     -0.352885      1.086125
  H       2.972984     -1.003496      1.850121
  H       1.974225     -1.049227      0.375326
  C       3.568553      0.442115      0.310379
  H       3.070623      1.182560     -0.363482
  H       4.187047      1.035815      1.024005
  C       4.519988     -0.450630     -0.551880
  H       5.236849      0.206745     -1.093601
  H       3.906456     -0.954467     -1.339590
  C       5.255898     -1.511607      0.252450
  H       4.644283     -2.379915      0.570234
  C       6.554655     -1.490676      0.643723
  H       6.918715     -2.352308      1.238623
  C       7.593495     -0.424679      0.321930
  H       8.224272     -0.250844      1.228369
  H       7.104215      0.550107      0.096291
  C       8.536181     -0.796980     -0.869444
  H       9.217732      0.066781     -1.055990
  H       7.918362     -0.914782     -1.793401
  C       9.367155     -2.086454     -0.643551
  H       9.967320     -1.981031      0.295442
  H       8.671395     -2.940628     -0.468525
  C      10.317219     -2.457237     -1.816256
  H      10.727331     -3.480957     -1.633525
  H       9.719117     -2.531325     -2.756332
  C      11.507822     -1.479871     -2.020037
  H      12.029553     -1.348517     -1.040381
  H      11.128382     -0.467256     -2.300561
  C      12.545622     -1.939179     -3.080877
  H      13.426885     -1.252313     -3.044706
  H      12.938507     -2.948904     -2.800455
  C      12.014836     -1.985990     -4.538435
  H      11.156427     -2.696136     -4.608034
  H      11.601635     -0.982601     -4.809479
  C      13.096668     -2.398092     -5.566803
  H      13.511536     -3.407197     -5.333931
  H      12.687325     -2.434486     -6.602742
  H      13.952585     -1.682189     -5.569665
138
Coordinates from ORCA-job /wrk/rja7/qm_final_3_replicates/qm_final_1.1/qm/9/freq E -2722.577501473098
  N      -9.486677     -2.594388      6.826454
  C      -8.229932     -3.161770      6.071826
  H      -8.625957     -3.684059      5.171222
  H      -7.756395     -3.875658      6.775105
  C      -9.179781     -2.275814      8.306615
  H     -10.153009     -2.126685      8.819715
  H      -8.605739     -3.117720      8.738706
  H      -8.554372     -1.366866      8.365912
  C     -10.557171     -3.676679      6.790488
  H     -10.827824     -3.893510      5.736709
  H     -10.153304     -4.591668      7.269790
  H     -11.452097     -3.325307      7.345188
  C     -10.014592     -1.330632      6.153753
  H     -10.206596     -1.540095      5.081341
  H      -9.253872     -0.534316      6.265445
  H     -10.957640     -1.034784      6.658656
  C      -7.186754     -2.096589      5.651183
  H      -6.310084     -2.682795      5.267734
  H      -7.559135     -1.485652      4.794106
  P      -5.822854     -1.824965      8.024170
  O      -6.150248     -3.312550      8.159383
  O      -5.998169     -0.758118      9.092380
  O      -6.841917     -1.209980      6.701891
  O      -4.310451     -1.725172      7.267493
  C      -3.611948     -0.465023      7.280968
  H      -2.531429     -0.690910      7.127640
  H      -3.735686      0.046459      8.265984
  C      -4.098269      0.503882      6.173068
  H      -5.196024      0.659702      6.256211
  O      -3.790550     -0.132057      4.880544
  C      -4.715858     -0.108276      3.865231
  O      -5.809143      0.440946      3.922450
  C      -4.153180     -0.837263      2.636134
  H      -4.986932     -1.402116      2.157462
  H      -3.385935     -1.571620      2.969157
  C      -3.406848      1.885560      6.228073
  H      -3.519238      2.319023      7.247241
  H      -3.843537      2.580856      5.479548
  O      -1.965259      1.736110      5.993470
  C      -1.492323      2.035347      4.735686
  O      -2.138744      2.621657      3.876015
  C      -0.073852      1.480201      4.535548
  H       0.425119      1.350058      5.521842
  H      -0.234659      0.445525      4.141758
  C      -3.521802      0.154871      1.609048
  H      -2.859863      0.874723      2.142311
  H      -4.329779      0.768890      1.144211
  C      -2.692469     -0.569007      0.516472
  H      -3.345416     -1.273061     -0.057557
  H      -1.927329     -1.211307      1.019481
  C      -1.967830      0.397362     -0.456611
  H      -1.455711      1.190962      0.140511
  H      -2.718573      0.933557     -1.088150
  C      -0.924813     -0.307955     -1.359349
  H      -1.431574     -1.072146     -1.999931
  H      -0.216156     -0.879033     -0.711103
  C      -0.108970      0.658989     -2.255376
  H       0.383644      1.429926     -1.613340
  H      -0.793266      1.222022     -2.934953
  C       0.975773     -0.068917     -3.109445
  H       0.474089     -0.795089     -3.790246
  H       1.610967     -0.675926     -2.419060
  C       1.864736      0.887864     -3.887074
  H       2.624437      1.423450     -3.280352
  C       1.799488      1.173322     -5.212083
  H       2.511660      1.923856     -5.609399
  C       0.817997      0.589459     -6.221637
  H       0.526432     -0.445636     -5.929513
  H       1.324906      0.503189     -7.213383
  C      -0.485924      1.433671     -6.408967
  H      -1.037006      1.471344     -5.437563
  H      -1.150758      0.892675     -7.123847
  C      -0.237129      2.879882     -6.909784
  H       0.314246      2.843950     -7.883077
  H       0.442557      3.398029     -6.192718
  C      -1.522290      3.737237     -7.076003
  H      -1.222994      4.794954     -7.277229
  H      -2.074953      3.760028     -6.103675
  C      -2.484109      3.275560     -8.202599
  H      -2.855039      2.242304     -7.994013
  H      -1.912037      3.209495     -9.159653
  C      -3.705209      4.217255     -8.378292
  H      -3.341039      5.247947     -8.617720
  H      -4.233566      4.303703     -7.397305
  C      -4.728121      3.773521     -9.460555
  H      -5.613098      4.453511     -9.413154
  H      -5.115934      2.755372     -9.207085
  C      -4.176883      3.770673    -10.909157
  H      -3.363922      3.021987    -11.049203
  H      -3.761612      4.769183    -11.184527
  H      -4.977417      3.527363    -11.645487
  C       0.795614      2.309979      3.549870
  H       1.238392      3.170293      4.105250
  H       0.133897      2.752797      2.770064
  C       1.927546      1.495762      2.859223
  H       2.503739      0.915970      3.623036
  H       2.653435      2.212365      2.408992
  C       1.408003      0.535340      1.752926
  H       0.883578      1.142000      0.975081
  H       0.627889     -0.138535      2.181613
  C       2.493352     -0.341909      1.073629
  H       2.984532     -0.983062      1.844683
  H       1.990209     -1.047408      0.367704
  C       3.575055      0.453460      0.293347
  H       3.072303      1.183102     -0.388894
  H       4.187011      1.058775      1.002825
  C       4.533731     -0.439369     -0.561030
  H       5.245671      0.218666     -1.108469
  H       3.924180     -0.953947     -1.344690
  C       5.279026     -1.489328      0.249569
  H       4.673010     -2.357448      0.578549
  C       6.580750     -1.460701      0.631116
  H       6.951192     -2.315143      1.232419
  C       7.615396     -0.396675      0.288735
  H       8.249829     -0.207745      1.189696
  H       7.122385      0.573409      0.051447
  C       8.554731     -0.783051     -0.901387
  H       9.232710      0.080289     -1.102423
  H       7.933837     -0.915236     -1.821401
  C       9.391813     -2.066627     -0.662415
  H       9.994747     -1.946875      0.273110
  H       8.699789     -2.920976     -0.474048
  C      10.339800     -2.449020     -1.833605
  H      10.754108     -3.468887     -1.639188
  H       9.738765     -2.537543     -2.770617
  C      11.526310     -1.470387     -2.053722
  H      12.050406     -1.324655     -1.077350
  H      11.142569     -0.462764     -2.346195
  C      12.562578     -1.939854     -3.111666
  H      13.441843     -1.249905     -3.086232
  H      12.959532     -2.944711     -2.819688
  C      12.028524     -2.005970     -4.567217
  H      11.171385     -2.718646     -4.626379
  H      11.612482     -1.006905     -4.849675
  C      13.109101     -2.428155     -5.592828
  H      13.526372     -3.433703     -5.349007
  H      12.697801     -2.477667     -6.627446
  H      13.963598     -1.710695     -5.605466
138
Coordinates from ORCA-job /wrk/rja7/qm_final_3_replicates/qm_final_1.1/qm/9/freq E -2722.577553770579
  N      -9.550610     -2.548304      6.859860
  C      -8.309265     -3.132437      6.094680
  H      -8.719540     -3.652110      5.199292
  H      -7.835620     -3.849541      6.794280
  C      -9.224289     -2.233871      8.337427
  H     -10.190228     -2.070658      8.860673
  H      -8.658173     -3.083404      8.765045
  H      -8.585256     -1.334057      8.390112
  C     -10.636564     -3.615505      6.832444
  H     -10.921075     -3.825237      5.780941
  H     -10.239031     -4.537287      7.303711
  H     -11.520605     -3.254530      7.398280
  C     -10.065348     -1.276767      6.191284
  H     -10.269219     -1.483919      5.120432
  H      -9.292330     -0.491251      6.296006
  H     -11.000257     -0.967101      6.703248
  C      -7.258872     -2.079395      5.660282
  H      -6.392348     -2.677214      5.271552
  H      -7.632597     -1.468768      4.804110
  P      -5.872859     -1.806952      8.021348
  O      -6.207866     -3.291741      8.167755
  O      -6.032554     -0.733961      9.086180
  O      -6.896073     -1.190448      6.702933
  O      -4.364584     -1.722012      7.254732
  C      -3.655626     -0.468531      7.260419
  H      -2.576391     -0.704549      7.112392
  H      -3.777939      0.051108      8.241364
  C      -4.129687      0.496579      6.144273
  H      -5.226722      0.661596      6.221326
  O      -3.820205     -0.147307      4.855872
  C      -4.748948     -0.140434      3.842675
  O      -5.846782      0.399860      3.898062
  C      -4.182715     -0.872543      2.617174
  H      -5.016268     -1.431591      2.132338
  H      -3.421485     -1.611118      2.954966
  C      -3.428351      1.873577      6.194529
  H      -3.537167      2.311399      7.212283
  H      -3.860003      2.569098      5.443284
  O      -1.987896      1.714664      5.960067
  C      -1.514180      2.011845      4.702396
  O      -2.158827      2.600337      3.842925
  C      -0.098009      1.451985      4.500629
  H       0.400553      1.315648      5.486313
  H      -0.260788      0.419635      4.101342
  C      -3.537757      0.115809      1.594530
  H      -2.876980      0.833310      2.132124
  H      -4.338893      0.733280      1.122348
  C      -2.702656     -0.613240      0.509364
  H      -3.353125     -1.315767     -0.069290
  H      -1.944745     -1.257862      1.020905
  C      -1.967501      0.351557     -0.457607
  H      -1.462359      1.146021      0.144488
  H      -2.711778      0.886719     -1.097535
  C      -0.914305     -0.353327     -1.348806
  H      -1.413885     -1.117125     -1.995487
  H      -0.212086     -0.923830     -0.693350
  C      -0.087775      0.614105     -2.235556
  H       0.398845      1.383106     -1.587021
  H      -0.763554      1.178780     -2.921893
  C       1.006755     -0.115818     -3.076349
  H       0.512252     -0.839135     -3.765410
  H       1.629449     -0.725721     -2.377396
  C       1.913536      0.837738     -3.837610
  H       2.672169      1.360405     -3.218543
  C       1.864563      1.135916     -5.160628
  H       2.586577      1.884429     -5.543617
  C       0.888047      0.569669     -6.184361
  H       0.588214     -0.466714     -5.905070
  H       1.402485      0.490310     -7.172824
  C      -0.409409      1.422593     -6.372146
  H      -0.964732      1.456286     -5.402994
  H      -1.073906      0.888779     -7.092763
  C      -0.150838      2.869840     -6.865060
  H       0.398689      2.834891     -7.839530
  H       0.533859      3.380226     -6.147016
  C      -1.429445      3.737907     -7.026119
  H      -1.120961      4.790520     -7.240218
  H      -1.972938      3.775214     -6.049142
  C      -2.407552      3.273157     -8.137167
  H      -2.784746      2.245924     -7.911707
  H      -1.846376      3.189333     -9.099365
  C      -3.621895      4.223711     -8.312159
  H      -3.253510      5.243000     -8.590716
  H      -4.126547      4.344872     -7.322399
  C      -4.675150      3.756363     -9.354280
  H      -5.552698      4.446113     -9.308036
  H      -5.065561      2.751234     -9.057075
  C      -4.158996      3.698707    -10.814454
  H      -3.351302      2.942718    -10.946599
  H      -3.747934      4.685121    -11.136714
  H      -4.977714      3.431691    -11.521933
  C       0.771771      2.286211      3.519456
  H       1.204915      3.150333      4.076634
  H       0.111472      2.723822      2.735421
  C       1.913335      1.478791      2.837383
  H       2.488841      0.904714      3.606154
  H       2.637858      2.198428      2.389800
  C       1.406226      0.510909      1.732159
  H       0.887644      1.112287      0.946094
  H       0.623720     -0.162113      2.157706
  C       2.500931     -0.364150      1.066464
  H       2.992672     -0.996432      1.844459
  H       2.007770     -1.078563      0.362443
  C       3.579255      0.436267      0.286100
  H       3.072789      1.161785     -0.397550
  H       4.186972      1.046435      0.995265
  C       4.544233     -0.450683     -0.566926
  H       5.248498      0.212292     -1.118228
  H       3.937723     -0.973808     -1.347239
  C       5.303176     -1.489007      0.245124
  H       4.706058     -2.358268      0.587229
  C       6.608556     -1.449119      0.612645
  H       6.991548     -2.297795      1.214316
  C       7.630771     -0.377812      0.256270
  H       8.275210     -0.183122      1.148861
  H       7.127590      0.588358      0.024336
  C       8.557231     -0.756956     -0.945889
  H       9.225809      0.111755     -1.155153
  H       7.925588     -0.893985     -1.857747
  C       9.406836     -2.033735     -0.717635
  H      10.017061     -1.910934      0.212714
  H       8.723941     -2.894664     -0.525432
  C      10.348051     -2.404308     -1.897938
  H      10.772062     -3.421324     -1.709553
  H       9.740677     -2.494836     -2.830567
  C      11.525156     -1.415649     -2.123589
  H      12.055472     -1.268972     -1.150758
  H      11.131249     -0.410040     -2.409539
  C      12.556850     -1.873510     -3.191162
  H      13.431287     -1.177318     -3.170014
  H      12.963466     -2.876410     -2.905711
  C      12.012359     -1.939201     -4.642869
  H      11.160340     -2.658353     -4.697415
  H      11.586268     -0.942674     -4.919287
  C      13.088265     -2.350143     -5.677950
  H      13.514955     -3.353186     -5.440172
  H      12.669205     -2.399824     -6.709437
  H      13.937107     -1.626096     -5.695319
138
Coordinates from ORCA-job /wrk/rja7/qm_final_3_replicates/qm_final_1.1/qm/9/freq E -2722.577401550078
  N      -9.534349     -2.561385      6.771831
  C      -8.290365     -3.147126      6.017960
  H      -8.688454     -3.674312      5.121282
  H      -7.819557     -3.860753      6.722800
  C      -9.212275     -2.241193      8.248205
  H     -10.179515     -2.079272      8.770044
  H      -8.646184     -3.088849      8.680414
  H      -8.574744     -1.340092      8.301487
  C     -10.621252     -3.627359      6.744862
  H     -10.902386     -3.841402      5.693419
  H     -10.228473     -4.547693      7.223280
  H     -11.506900     -3.261558      7.305410
  C     -10.049561     -1.291777      6.098361
  H     -10.254304     -1.503413      5.028523
  H      -9.275948     -0.506245      6.199861
  H     -10.984159     -0.983065      6.610987
  C      -7.239726     -2.090009      5.596968
  H      -6.371707     -2.682841      5.205351
  H      -7.608089     -1.469575      4.745676
  P      -5.887408     -1.843927      7.982459
  O      -6.223297     -3.330148      8.107798
  O      -6.062504     -0.785274      9.060586
  O      -6.886284     -1.213149      6.654449
  O      -4.368865     -1.742512      7.241518
  C      -3.665414     -0.487216      7.291192
  H      -2.582946     -0.717203      7.156770
  H      -3.806392      0.007982      8.282046
  C      -4.123032      0.500944      6.189001
  H      -5.220430      0.668951      6.255392
  O      -3.799118     -0.119930      4.892551
  C      -4.722481     -0.111783      3.874158
  O      -5.823565      0.421890      3.928545
  C      -4.150477     -0.839352      2.647681
  H      -4.985244     -1.385048      2.151682
  H      -3.401729     -1.589847      2.988145
  C      -3.416295      1.873243      6.275531
  H      -3.532407      2.290056      7.301406
  H      -3.837437      2.586234      5.534995
  O      -1.976510      1.709809      6.048767
  C      -1.499512      2.031894      4.799424
  O      -2.136102      2.649634      3.954645
  C      -0.083648      1.477553      4.590929
  H       0.418003      1.331701      5.573894
  H      -0.243482      0.449899      4.178631
  C      -3.483201      0.143048      1.636217
  H      -2.810849      0.845152      2.179843
  H      -4.269761      0.777826      1.162519
  C      -2.664445     -0.598984      0.548050
  H      -3.330726     -1.283176     -0.034461
  H      -1.920500     -1.264307      1.054625
  C      -1.910725      0.355337     -0.414407
  H      -1.377997      1.128079      0.192187
  H      -2.646003      0.917490     -1.041483
  C      -0.889166     -0.368353     -1.327114
  H      -1.417680     -1.111896     -1.974374
  H      -0.192804     -0.964091     -0.687941
  C      -0.053628      0.587549     -2.216581
  H       0.460228      1.337581     -1.567212
  H      -0.726218      1.175122     -2.886638
  C       1.010300     -0.155677     -3.083506
  H       0.489694     -0.852268     -3.780911
  H       1.624965     -0.796298     -2.405003
  C       1.930581      0.791143     -3.835610
  H       2.688957      1.306532     -3.210369
  C       1.893098      1.087713     -5.158738
  H       2.622528      1.830682     -5.538586
  C       0.922070      0.520239     -6.186960
  H       0.613595     -0.512503     -5.903521
  H       1.444026      0.432108     -7.170802
  C      -0.370788      1.377861     -6.388991
  H      -0.939326      1.407502     -5.427520
  H      -1.025518      0.849186     -7.121946
  C      -0.103232      2.827745     -6.868950
  H       0.456619      2.797918     -7.837663
  H       0.574346      3.332106     -6.140037
  C      -1.378921      3.699613     -7.037581
  H      -1.066482      4.752233     -7.245565
  H      -1.929489      3.733998     -6.064380
  C      -2.348543      3.238898     -8.157940
  H      -2.727931      2.211425     -7.937460
  H      -1.780712      3.157803     -9.116615
  C      -3.562511      4.188756     -8.338245
  H      -3.193528      5.208750     -8.613155
  H      -4.073860      4.306725     -7.351483
  C      -4.606482      3.722006     -9.389532
  H      -5.486185      4.409472     -9.348550
  H      -4.996545      2.715165     -9.097851
  C      -4.076805      3.670498    -10.844946
  H      -3.262484      2.920212    -10.970614
  H      -3.669122      4.660328    -11.160614
  H      -4.886927      3.399830    -11.560926
  C       0.777153      2.327967      3.618316
  H       1.196736      3.196752      4.178516
  H       0.112511      2.759337      2.834187
  C       1.924019      1.533928      2.932894
  H       2.506440      0.961658      3.697679
  H       2.641941      2.259639      2.484321
  C       1.412758      0.563460      1.833124
  H       0.894612      1.162048      1.044753
  H       0.628534     -0.104736      2.263578
  C       2.503282     -0.319242      1.170198
  H       3.006428     -0.936046      1.953425
  H       2.003169     -1.047957      0.486448
  C       3.568632      0.471235      0.362876
  H       3.050238      1.180835     -0.328786
  H       4.179784      1.099359      1.053273
  C       4.527602     -0.426320     -0.484310
  H       5.223030      0.228551     -1.056252
  H       3.914433     -0.965437     -1.248229
  C       5.298976     -1.447974      0.337034
  H       4.708586     -2.312534      0.702104
  C       6.609670     -1.399765      0.682670
  H       7.004947     -2.237823      1.291254
  C       7.622614     -0.331806      0.291115
  H       8.292993     -0.131760      1.163147
  H       7.114093      0.633336      0.066827
  C       8.511264     -0.720872     -0.935800
  H       9.178092      0.143230     -1.168850
  H       7.851492     -0.857450     -1.827642
  C       9.359702     -2.001339     -0.728584
  H      10.001446     -1.878096      0.180369
  H       8.678689     -2.857412     -0.509910
  C      10.258748     -2.382452     -1.937627
  H      10.680928     -3.402153     -1.759772
  H       9.619973     -2.471593     -2.849292
  C      11.434761     -1.403246     -2.205860
  H      11.999057     -1.259197     -1.251827
  H      11.039533     -0.394794     -2.479966
  C      12.426970     -1.871517     -3.305892
  H      13.308348     -1.183865     -3.313076
  H      12.832661     -2.878287     -3.033008
  C      11.836048     -1.931528     -4.739516
  H      10.975171     -2.641522     -4.767550
  H      11.412401     -0.930310     -5.002424
  C      12.874601     -2.353541     -5.807805
  H      13.297021     -3.361624     -5.583933
  H      12.423703     -2.397415     -6.826032
  H      13.730824     -1.639280     -5.850733
138
Coordinates from ORCA-job /wrk/rja7/qm_final_3_replicates/qm_final_1.1/qm/9/freq E -2722.577606973593
  N      -9.548085     -2.571667      6.835859
  C      -8.303443     -3.151410      6.074191
  H      -8.708027     -3.676006      5.179060
  H      -7.827673     -3.865339      6.775892
  C      -9.227897     -2.258067      8.314714
  H     -10.196352     -2.101112      8.835586
  H      -8.658294     -3.105106      8.743118
  H      -8.593934     -1.355020      8.371725
  C     -10.630339     -3.641471      6.805002
  H     -10.912239     -3.851972      5.753010
  H     -10.232427     -4.562195      7.278262
  H     -11.517286     -3.283455      7.368382
  C     -10.066155     -1.301303      6.167344
  H     -10.268859     -1.509195      5.096353
  H      -9.295551     -0.513453      6.272359
  H     -11.002490     -0.996004      6.679057
  C      -7.256589     -2.093212      5.643772
  H      -6.386296     -2.685909      5.255700
  H      -7.628485     -1.482320      4.787209
  P      -5.887851     -1.819134      8.014597
  O      -6.216923     -3.305696      8.155662
  O      -6.058781     -0.750259      9.082406
  O      -6.902911     -1.204439      6.690287
  O      -4.376148     -1.724052      7.258234
  C      -3.671152     -0.468634      7.280136
  H      -2.589948     -0.700067      7.138708
  H      -3.802538      0.041780      8.264685
  C      -4.139325      0.505988      6.169461
  H      -5.236143      0.673603      6.244805
  O      -3.828111     -0.128481      4.876718
  C      -4.755554     -0.118057      3.862784
  O      -5.852077      0.425106      3.917009
  C      -4.190144     -0.852677      2.638460
  H      -5.026935     -1.399831      2.146891
  H      -3.440839     -1.602178      2.979741
  C      -3.433028      1.879930      6.231723
  H      -3.543822      2.311612      7.252042
  H      -3.859130      2.582149      5.483800
  O      -1.993390      1.714988      5.998643
  C      -1.515760      2.026309      4.745823
  O      -2.153609      2.633242      3.894008
  C      -0.100562      1.466248      4.540843
  H       0.394983      1.312598      5.525566
  H      -0.264654      0.441498      4.122956
  C      -3.526106      0.128215      1.622822
  H      -2.854615      0.832983      2.164151
  H      -4.314830      0.760376      1.149264
  C      -2.702848     -0.612420      0.537159
  H      -3.363239     -1.306957     -0.039745
  H      -1.951592     -1.266392      1.046255
  C      -1.958716      0.342402     -0.431819
  H      -1.439368      1.128098      0.169354
  H      -2.697826      0.888853     -1.068180
  C      -0.920597     -0.376883     -1.328690
  H      -1.433565     -1.133485     -1.973361
  H      -0.223084     -0.957863     -0.677295
  C      -0.086787      0.581037     -2.217188
  H       0.407776      1.345445     -1.569390
  H      -0.758157      1.152184     -2.902620
  C       0.998498     -0.157728     -3.060924
  H       0.496182     -0.867741     -3.758026
  H       1.610720     -0.783678     -2.366341
  C       1.918047      0.792167     -3.809914
  H       2.672100      1.310891     -3.182181
  C       1.885206      1.087378     -5.133382
  H       2.615601      1.830507     -5.511014
  C       0.917091      0.519998     -6.164537
  H       0.610268     -0.514186     -5.884717
  H       1.440289      0.435347     -7.147938
  C      -0.376211      1.376779     -6.365659
  H      -0.942842      1.409027     -5.403069
  H      -1.033092      0.847840     -7.096508
  C      -0.108072      2.825676     -6.848042
  H       0.452280      2.793709     -7.816441
  H       0.570098      3.329776     -6.119599
  C      -1.382276      3.698772     -7.018307
  H      -1.068278      4.751631     -7.222679
  H      -1.935854      3.732427     -6.046765
  C      -2.349774      3.244017     -8.142955
  H      -2.733949      2.217209     -7.927567
  H      -1.778901      3.164349     -9.099871
  C      -3.558613      4.200116     -8.325204
  H      -3.182795      5.221621     -8.584974
  H      -4.079265      4.309799     -7.342373
  C      -4.594158      3.750439     -9.392624
  H      -5.470214      4.442465     -9.353276
  H      -4.992842      2.742321     -9.117164
  C      -4.049634      3.711790    -10.843191
  H      -3.244625      2.952099    -10.970726
  H      -3.625062      4.700166    -11.140479
  H      -4.855676      3.461672    -11.571143
  C       0.773811      2.314990      3.577030
  H       1.202519      3.172964      4.147016
  H       0.116774      2.761426      2.795290
  C       1.916626      1.515959      2.888031
  H       2.488634      0.929310      3.649816
  H       2.643340      2.240177      2.451616
  C       1.406409      0.565365      1.769941
  H       0.888880      1.179218      0.993014
  H       0.622575     -0.111368      2.186903
  C       2.497548     -0.304876      1.090521
  H       2.990307     -0.946085      1.860586
  H       1.999276     -1.010760      0.381686
  C       3.576035      0.500246      0.315648
  H       3.070054      1.231219     -0.362547
  H       4.183879      1.105201      1.029132
  C       4.539548     -0.381369     -0.543769
  H       5.246122      0.284153     -1.088905
  H       3.932391     -0.896202     -1.329312
  C       5.293977     -1.429161      0.260399
  H       4.690508     -2.293414      0.604012
  C       6.602264     -1.403021      0.618678
  H       6.981491     -2.256859      1.215420
  C       7.632358     -0.341043      0.256771
  H       8.290633     -0.159899      1.141982
  H       7.137565      0.632358      0.037376
  C       8.537979     -0.723635     -0.959853
  H       9.217723      0.136193     -1.169953
  H       7.893181     -0.842479     -1.865055
  C       9.369234     -2.015927     -0.753035
  H       9.993717     -1.910751      0.170048
  H       8.674863     -2.867071     -0.558417
  C      10.288385     -2.392486     -1.948668
  H      10.696546     -3.418532     -1.774784
  H       9.667092     -2.464355     -2.873906
  C      11.479635     -1.422814     -2.181986
  H      12.024656     -1.293491     -1.214763
  H      11.100700     -0.407955     -2.455020
  C      12.490269     -1.890833     -3.265231
  H      13.378179     -1.211830     -3.247716
  H      12.880384     -2.903934     -2.993197
  C      11.928565     -1.932441     -4.711203
  H      11.061188     -2.633192     -4.762894
  H      11.520631     -0.924708     -4.974046
  C      12.984598     -2.356029     -5.761603
  H      13.392558     -3.369998     -5.537659
  H      12.554193     -2.387034     -6.789133
  H      13.848279     -1.649806     -5.780978
138
Coordinates from ORCA-job /wrk/rja7/qm_final_3_replicates/qm_final_1.1/qm/9/freq E -2722.577614769773
  N      -9.566101     -2.526927      6.893979
  C      -8.331883     -3.121072      6.126037
  H      -8.747964     -3.647761      5.237299
  H      -7.854927     -3.834075      6.827998
  C      -9.232618     -2.208175      8.369041
  H     -10.196081     -2.040525      8.895339
  H      -8.666670     -3.057405      8.797423
  H      -8.591074     -1.309809      8.415767
  C     -10.657557     -3.588066      6.876573
  H     -10.948190     -3.801741      5.827620
  H     -10.263520     -4.509553      7.351573
  H     -11.537358     -3.219732      7.444360
  C     -10.078028     -1.255642      6.222496
  H     -10.290042     -1.467345      5.154195
  H      -9.299612     -0.474493      6.318242
  H     -11.007856     -0.939686      6.739517
  C      -7.280822     -2.074184      5.679096
  H      -6.418874     -2.676198      5.286624
  H      -7.655953     -1.465018      4.822629
  P      -5.886339     -1.797157      8.034226
  O      -6.225051     -3.280643      8.187846
  O      -6.037563     -0.720795      9.097198
  O      -6.909361     -1.182274      6.716352
  O      -4.381498     -1.719081      7.261434
  C      -3.669107     -0.467513      7.264171
  H      -2.590146     -0.705842      7.117326
  H      -3.791164      0.055385      8.243310
  C      -4.140925      0.495377      6.144822
  H      -5.237534      0.663190      6.222578
  O      -3.834514     -0.152639      4.857722
  C      -4.767733     -0.155481      3.848978
  O      -5.866237      0.383260      3.905070
  C      -4.207115     -0.900004      2.628048
  H      -5.045764     -1.452747      2.144868
  H      -3.455786     -1.645863      2.972819
  C      -3.435605      1.870338      6.190218
  H      -3.541899      2.312268      7.206551
  H      -3.865985      2.565062      5.437635
  O      -1.996777      1.704363      5.952690
  C      -1.523036      2.006730      4.696132
  O      -2.166159      2.600988      3.839511
  C      -0.108540      1.444459      4.490848
  H       0.390377      1.299208      5.475033
  H      -0.274856      0.416242      4.082497
  C      -3.548330      0.073933      1.601591
  H      -2.875021      0.782512      2.135459
  H      -4.340170      0.702902      1.128837
  C      -2.728630     -0.669841      0.514758
  H      -3.390759     -1.365628     -0.058642
  H      -1.975199     -1.322331      1.022750
  C      -1.987172      0.284275     -0.457954
  H      -1.467748      1.071107      0.141717
  H      -2.728026      0.829519     -1.093296
  C      -0.949305     -0.433252     -1.357269
  H      -1.463186     -1.186859     -2.004716
  H      -0.252691     -1.017920     -0.707959
  C      -0.113477      0.527336     -2.241785
  H       0.382852      1.287934     -1.590863
  H      -0.784268      1.103501     -2.923675
  C       0.969782     -0.209042     -3.090676
  H       0.464644     -0.910744     -3.794076
  H       1.577667     -0.844002     -2.400354
  C       1.897286      0.741530     -3.829810
  H       2.653983      1.247554     -3.195021
  C       1.869382      1.053228     -5.150237
  H       2.607595      1.794366     -5.516415
  C       0.896928      0.510253     -6.190850
  H       0.581074     -0.525159     -5.926378
  H       1.419880      0.435101     -7.175129
  C      -0.388091      1.382111     -6.381667
  H      -0.952382      1.412085     -5.417691
  H      -1.052016      0.865917     -7.115330
  C      -0.106412      2.832230     -6.853690
  H       0.446943      2.801749     -7.826126
  H       0.582316      3.322977     -6.126042
  C      -1.372354      3.720120     -7.007884
  H      -1.049306      4.771064     -7.207969
  H      -1.917423      3.752907     -6.031522
  C      -2.354418      3.282359     -8.126672
  H      -2.744616      2.257068     -7.914611
  H      -1.793438      3.204223     -9.089379
  C      -3.557514      4.249088     -8.289865
  H      -3.177168      5.269664     -8.546681
  H      -4.066263      4.356030     -7.300579
  C      -4.608958      3.814055     -9.348051
  H      -5.479992      4.511232     -9.292190
  H      -5.010860      2.806337     -9.075851
  C      -4.083925      3.784187    -10.806123
  H      -3.286525      3.019739    -10.950955
  H      -3.656593      4.772107    -11.100975
  H      -4.901423      3.546125    -11.525286
  C       0.762599      2.283588      3.515309
  H       1.190491      3.148450      4.075361
  H       0.103404      2.720043      2.729795
  C       1.907354      1.479622      2.834448
  H       2.479731      0.901012      3.602073
  H       2.633185      2.201701      2.392981
  C       1.401673      0.518347      1.723165
  H       0.882302      1.124477      0.941669
  H       0.620082     -0.157781      2.145064
  C       2.496950     -0.351072      1.050808
  H       2.993509     -0.983116      1.825972
  H       2.002752     -1.065787      0.347898
  C       3.569678      0.455353      0.269694
  H       3.059130      1.177451     -0.414456
  H       4.172595      1.069757      0.979312
  C       4.541386     -0.425691     -0.580785
  H       5.241527      0.241397     -1.132308
  H       3.940208     -0.954909     -1.361302
  C       5.306593     -1.456534      0.234767
  H       4.713123     -2.324173      0.586998
  C       6.613190     -1.409320      0.596254
  H       7.001645     -2.250949      1.204295
  C       7.629219     -0.336927      0.226340
  H       8.278143     -0.134075      1.113768
  H       7.121047      0.625840     -0.009066
  C       8.550198     -0.721000     -0.977967
  H       9.215856      0.147875     -1.195599
  H       7.915351     -0.865163     -1.886519
  C       9.402807     -1.994854     -0.745161
  H      10.012098     -1.867061      0.185098
  H       8.721933     -2.856693     -0.550099
  C      10.345303     -2.366454     -1.923796
  H      10.771318     -3.382170     -1.732925
  H       9.738763     -2.460958     -2.856707
  C      11.520422     -1.375804     -2.150720
  H      12.047269     -1.223170     -1.176947
  H      11.125078     -0.372626     -2.442955
  C      12.556918     -1.836145     -3.212775
  H      13.430189     -1.138551     -3.190753
  H      12.963818     -2.837300     -2.921794
  C      12.018010     -1.907707     -4.666240
  H      11.165604     -2.626373     -4.721265
  H      11.593615     -0.911969     -4.948073
  C      13.098198     -2.321978     -5.695591
  H      13.524641     -3.323927     -5.452892
  H      12.683338     -2.375372     -6.728580
  H      13.946529     -1.597372     -5.711347
138
Coordinates from ORCA-job /wrk/rja7/qm_final_3_replicates/qm_final_1.1/qm/9/freq E -2722.577641394557
  N      -9.598632     -2.528023      6.890094
  C      -8.363694     -3.113870      6.116953
  H      -8.779119     -3.634216      5.224255
  H      -7.885630     -3.831405      6.813442
  C      -9.263227     -2.214898      8.365786
  H     -10.226136     -2.053679      8.895230
  H      -8.692568     -3.063703      8.788997
  H      -8.625342     -1.314052      8.415563
  C     -10.686175     -3.592973      6.869811
  H     -10.978414     -3.802632      5.820492
  H     -10.287998     -4.515344      7.339633
  H     -11.566245     -3.230771      7.441150
  C     -10.116414     -1.255819      6.225212
  H     -10.331004     -1.464024      5.156674
  H      -9.340370     -0.472300      6.321264
  H     -11.045752     -0.944345      6.745891
  C      -7.313577     -2.062570      5.677316
  H      -6.452711     -2.661807      5.278160
  H      -7.689716     -1.446282      4.826445
  P      -5.916323     -1.806594      8.032643
  O      -6.260914     -3.289655      8.177612
  O      -6.060612     -0.736927      9.103235
  O      -6.939226     -1.179436      6.720995
  O      -4.412643     -1.730476      7.257153
  C      -3.692621     -0.483270      7.266887
  H      -2.614565     -0.727164      7.122210
  H      -3.814278      0.036577      8.247722
  C      -4.155856      0.486883      6.150446
  H      -5.251985      0.659221      6.225121
  O      -3.847526     -0.156143      4.861385
  C      -4.779088     -0.157357      3.851287
  O      -5.878451      0.379847      3.906400
  C      -4.214329     -0.897587      2.629929
  H      -5.052317     -1.444302      2.139185
  H      -3.467913     -1.648059      2.975459
  C      -3.444292      1.858551      6.203381
  H      -3.550665      2.296669      7.221369
  H      -3.870149      2.558293      5.452859
  O      -2.005588      1.688219      5.967287
  C      -1.528773      1.997086      4.713393
  O      -2.169159      2.598021      3.859333
  C      -0.112827      1.437930      4.508121
  H       0.382644      1.283753      5.492713
  H      -0.276095      0.413537      4.089014
  C      -3.546170      0.078684      1.612026
  H      -2.874308      0.783675      2.152543
  H      -4.333149      0.711688      1.136506
  C      -2.721584     -0.663540      0.528137
  H      -3.381235     -1.358421     -0.049197
  H      -1.970631     -1.316771      1.038724
  C      -1.976357      0.291709     -0.440232
  H      -1.458554      1.077452      0.162369
  H      -2.714997      0.837993     -1.077203
  C      -0.935899     -0.425185     -1.336814
  H      -1.447544     -1.179128     -1.985638
  H      -0.240290     -1.009055     -0.685906
  C      -0.098853      0.535951     -2.219467
  H       0.393693      1.297929     -1.567398
  H      -0.768067      1.110012     -2.904589
  C       0.989161     -0.199645     -3.063023
  H       0.488286     -0.900677     -3.770113
  H       1.592969     -0.835313     -2.369683
  C       1.920136      0.752216     -3.795587
  H       2.669275      1.262219     -3.155079
  C       1.902275      1.060751     -5.116676
  H       2.640378      1.804126     -5.478524
  C       0.940945      0.510025     -6.163369
  H       0.629705     -0.527003     -5.899537
  H       1.471497      0.436915     -7.143680
  C      -0.348680      1.372568     -6.363809
  H      -0.920552      1.397386     -5.404155
  H      -1.002933      0.852115     -7.103086
  C      -0.073726      2.824747     -6.832496
  H       0.486269      2.798874     -7.801272
  H       0.606802      3.319485     -6.099815
  C      -1.344154      3.704785     -6.994747
  H      -1.025601      4.756603     -7.197502
  H      -1.893377      3.738305     -6.020731
  C      -2.319176      3.257084     -8.115677
  H      -2.705755      2.231211     -7.900118
  H      -1.753431      3.176512     -9.075469
  C      -3.525532      4.217717     -8.289983
  H      -3.148433      5.237613     -8.554171
  H      -4.038041      4.330695     -7.303289
  C      -4.571381      3.769461     -9.348106
  H      -5.445315      4.463740     -9.302226
  H      -4.970311      2.762798     -9.067772
  C      -4.039865      3.727313    -10.803455
  H      -3.237925      2.965461    -10.936821
  H      -3.615800      4.714197    -11.106477
  H      -4.852913      3.477903    -11.523808
  C       0.761192      2.288438      3.544753
  H       1.184016      3.149224      4.114828
  H       0.104428      2.730337      2.760229
  C       1.910647      1.493497      2.860893
  H       2.480270      0.907839      3.625231
  H       2.637496      2.220534      2.429487
  C       1.409695      0.543043      1.738365
  H       0.894673      1.157346      0.959976
  H       0.625389     -0.135936      2.150522
  C       2.506211     -0.322292      1.061879
  H       3.000657     -0.960551      1.833292
  H       2.012522     -1.031190      0.352835
  C       3.581328      0.488489      0.288156
  H       3.072201      1.216875     -0.390306
  H       4.184896      1.096572      1.002722
  C       4.551210     -0.386934     -0.570548
  H       5.252202      0.283471     -1.116889
  H       3.948124     -0.907697     -1.355307
  C       5.315447     -1.427110      0.234181
  H       4.718946     -2.293732      0.583806
  C       6.625087     -1.391277      0.586805
  H       7.011969     -2.240055      1.185832
  C       7.646768     -0.324053      0.216735
  H       8.304448     -0.132965      1.100334
  H       7.144285      0.644338     -0.007412
  C       8.555238     -0.706227     -0.998028
  H       9.227697      0.158095     -1.212919
  H       7.912070     -0.836051     -1.902881
  C       9.397407     -1.990407     -0.783280
  H      10.015837     -1.876570      0.142808
  H       8.709712     -2.847145     -0.589721
  C      10.326486     -2.361871     -1.972888
  H      10.743214     -3.383596     -1.793876
  H       9.711457     -2.442183     -2.901553
  C      11.510146     -1.381876     -2.201554
  H      12.046838     -1.243086     -1.231064
  H      11.123291     -0.372026     -2.482001
  C      12.532708     -1.844545     -3.275949
  H      13.413624     -1.156575     -3.255725
  H      12.931147     -2.852387     -2.996520
  C      11.980807     -1.898751     -4.725277
  H      11.120544     -2.608103     -4.778663
  H      11.564571     -0.896418     -4.995674
  C      13.047740     -2.316474     -5.766963
  H      13.465081     -3.324927     -5.535614
  H      12.623849     -2.357084     -6.796863
  H      13.903853     -1.601081     -5.784304
138
Coordinates from ORCA-job /wrk/rja7/qm_final_3_replicates/qm_final_1.1/qm/9/freq E -2722.577648138169
  N      -9.589092     -2.545796      6.877999
  C      -8.350593     -3.129856      6.109494
  H      -8.762340     -3.652634      5.216439
  H      -7.873118     -3.845199      6.808630
  C      -9.258524     -2.227588      8.353727
  H     -10.223293     -2.067769      8.880182
  H      -8.685992     -3.073437      8.780514
  H      -8.623586     -1.324669      8.402504
  C     -10.673278     -3.614143      6.858167
  H     -10.962294     -3.827841      5.808744
  H     -10.273732     -4.533859      7.332013
  H     -11.555932     -3.252737      7.426047
  C     -10.109323     -1.277270      6.208346
  H     -10.321342     -1.489116      5.139964
  H      -9.336030     -0.490912      6.303454
  H     -11.040529     -0.966708      6.726251
  C      -7.302612     -2.075883      5.671508
  H      -6.436698     -2.672448      5.279393
  H      -7.676724     -1.465087      4.815832
  P      -5.915022     -1.801004      8.029839
  O      -6.249965     -3.285959      8.179776
  O      -6.068277     -0.728784      9.096398
  O      -6.939401     -1.186352      6.713810
  O      -4.410672     -1.717550      7.256351
  C      -3.698764     -0.465707      7.265584
  H      -2.618583     -0.702993      7.125938
  H      -3.827682      0.055813      8.244626
  C      -4.163480      0.499157      6.145151
  H      -5.260778      0.665756      6.215425
  O      -3.847166     -0.145349      4.858506
  C      -4.775204     -0.154673      3.845193
  O      -5.877237      0.377659      3.894756
  C      -4.203363     -0.897337      2.628360
  H      -5.038402     -1.445792      2.134795
  H      -3.458030     -1.646086      2.979849
  C      -3.459334      1.874570      6.197699
  H      -3.573156      2.315419      7.213722
  H      -3.884739      2.569835      5.442771
  O      -2.018748      1.709972      5.970192
  C      -1.536725      2.016395      4.717946
  O      -2.174185      2.613362      3.858888
  C      -0.118566      1.460234      4.521596
  H       0.371638      1.306560      5.508865
  H      -0.278163      0.435879      4.100973
  C      -3.531693      0.076543      1.610741
  H      -2.862786      0.783894      2.151815
  H      -4.317134      0.707509      1.129981
  C      -2.702696     -0.667868      0.531827
  H      -3.359611     -1.366055     -0.044663
  H      -1.951563     -1.317859      1.046390
  C      -1.958158      0.286311     -0.438235
  H      -1.442672      1.074764      0.162855
  H      -2.697611      0.829294     -1.077092
  C      -0.915356     -0.429877     -1.332602
  H      -1.424427     -1.187325     -1.979373
  H      -0.217644     -1.009581     -0.680274
  C      -0.082113      0.532035     -2.218233
  H       0.407590      1.297739     -1.568409
  H      -0.753917      1.101444     -2.904727
  C       1.008256     -0.201292     -3.060761
  H       0.509463     -0.903534     -3.768106
  H       1.612844     -0.835580     -2.366821
  C       1.937003      0.752945     -3.793009
  H       2.683164      1.266497     -3.151824
  C       1.919992      1.060266     -5.114390
  H       2.656418      1.805580     -5.475687
  C       0.960916      0.506753     -6.161699
  H       0.652749     -0.531376     -5.898566
  H       1.492006      0.436049     -7.141886
  C      -0.331220      1.365633     -6.361768
  H      -0.904454      1.385898     -5.402808
  H      -0.982615      0.845427     -7.103702
  C      -0.059797      2.820110     -6.825499
  H       0.501662      2.798967     -7.793526
  H       0.618267      3.314190     -6.090084
  C      -1.332165      3.697554     -6.986358
  H      -1.015573      4.750436     -7.186683
  H      -1.881780      3.727886     -6.012460
  C      -2.305761      3.250804     -8.108892
  H      -2.691919      2.224324     -7.895588
  H      -1.739091      3.172677     -9.068353
  C      -3.512526      4.211048     -8.282626
  H      -3.135490      5.231839     -8.543442
  H      -4.026805      4.321117     -7.296517
  C      -4.556189      3.765415     -9.344068
  H      -5.430449      4.459242     -9.297834
  H      -4.955248      2.757735     -9.067546
  C      -4.021728      3.727899    -10.798469
  H      -3.220327      2.965652    -10.932809
  H      -3.595678      4.715345    -11.096754
  H      -4.833479      3.482111    -11.521506
  C       0.759488      2.311628      3.562871
  H       1.181545      3.171228      4.135291
  H       0.105764      2.755003      2.776650
  C       1.908566      1.514915      2.880897
  H       2.476430      0.928558      3.645985
  H       2.636931      2.240450      2.449479
  C       1.405080      0.565126      1.759052
  H       0.891132      1.180603      0.980832
  H       0.619435     -0.111936      2.171887
  C       2.498260     -0.303838      1.082021
  H       2.992596     -0.941991      1.853619
  H       2.001245     -1.012631      0.375189
  C       3.573686      0.502838      0.304846
  H       3.064845      1.231261     -0.373786
  H       4.180233      1.111073      1.016783
  C       4.539264     -0.376255     -0.554769
  H       5.239860      0.291757     -1.104494
  H       3.932979     -0.897504     -1.336797
  C       5.303847     -1.415982      0.249979
  H       4.706372     -2.279928      0.604576
  C       6.615146     -1.382987      0.596330
  H       7.002702     -2.231568      1.195209
  C       7.637652     -0.318826      0.219840
  H       8.300583     -0.128712      1.099742
  H       7.136583      0.650692     -0.002526
  C       8.538294     -0.704668     -0.999414
  H       9.212259      0.157389     -1.218603
  H       7.889935     -0.833179     -1.900746
  C       9.377392     -1.991342     -0.788268
  H      10.001113     -1.879148      0.134489
  H       8.687962     -2.845769     -0.590663
  C      10.298529     -2.366403     -1.982723
  H      10.713007     -3.389361     -1.805543
  H       9.678022     -2.445203     -2.907867
  C      11.484010     -1.390281     -2.218728
  H      12.026711     -1.252792     -1.251378
  H      11.098881     -0.379296     -2.497470
  C      12.499031     -1.856793     -3.298643
  H      13.382340     -1.171769     -3.283600
  H      12.895570     -2.865907     -3.021095
  C      11.938824     -1.909531     -4.744856
  H      11.076022     -2.616132     -4.793226
  H      11.524375     -0.905888     -5.013154
  C      12.998490     -2.330997     -5.792428
  H      13.413701     -3.340841     -5.563299
  H      12.568762     -2.370214     -6.819962
  H      13.856928     -1.618507     -5.814703
138
Coordinates from ORCA-job /wrk/rja7/qm_final_3_replicates/qm_final_1.1/qm/9/freq E -2722.577656817013
  N      -9.601859     -2.533084      6.890667
  C      -8.364257     -3.116079      6.120396
  H      -8.777293     -3.635676      5.226064
  H      -7.887768     -3.834168      6.817402
  C      -9.269017     -2.210844      8.365043
  H     -10.233151     -2.051688      8.892831
  H      -8.693468     -3.054599      8.792143
  H      -8.635855     -1.306544      8.410026
  C     -10.683932     -3.603752      6.875803
  H     -10.974168     -3.821131      5.827481
  H     -10.281973     -4.521234      7.351922
  H     -11.566339     -3.242132      7.443931
  C     -10.126364     -1.267629      6.219076
  H     -10.341737     -1.482883      5.152032
  H      -9.354271     -0.479474      6.309029
  H     -11.056215     -0.956676      6.739173
  C      -7.315281     -2.062061      5.685145
  H      -6.451009     -2.658576      5.289484
  H      -7.689040     -1.447400      4.832092
  P      -5.923149     -1.800632      8.040780
  O      -6.269653     -3.283200      8.191264
  O      -6.060514     -0.729048      9.109716
  O      -6.948781     -1.177313      6.730561
  O      -4.422699     -1.729077      7.257860
  C      -3.700015     -0.483401      7.266556
  H      -2.622218     -0.729502      7.123680
  H      -3.822113      0.037930      8.246553
  C      -4.159834      0.487058      6.148928
  H      -5.256259      0.659133      6.220217
  O      -3.847518     -0.155255      4.860093
  C      -4.776218     -0.157396      3.847460
  O      -5.876063      0.379206      3.899631
  C      -4.207963     -0.898741      2.628060
  H      -5.045476     -1.442177      2.133314
  H      -3.466189     -1.651981      2.977597
  C      -3.448834      1.858784      6.205149
  H      -3.559705      2.297267      7.222527
  H      -3.871637      2.558338      5.452747
  O      -2.009223      1.688641      5.975483
  C      -1.527669      1.998317      4.723826
  O      -2.164520      2.599806      3.867461
  C      -0.110868      1.440126      4.523870
  H       0.379382      1.279293      5.509957
  H      -0.273218      0.418790      4.096941
  C      -3.532282      0.074366      1.613077
  H      -2.858209      0.775682      2.155613
  H      -4.314379      0.712098      1.135784
  C      -2.709869     -0.671189      0.530182
  H      -3.371586     -1.364695     -0.046482
  H      -1.960253     -1.325950      1.040647
  C      -1.963278      0.282755     -0.438253
  H      -1.441425      1.065502      0.164726
  H      -2.701845      0.832822     -1.072093
  C      -0.927061     -0.434548     -1.339218
  H      -1.441906     -1.186426     -1.987928
  H      -0.229938     -1.021075     -0.692234
  C      -0.092673      0.528277     -2.222552
  H       0.401318      1.289428     -1.570653
  H      -0.764760      1.103204     -2.904245
  C       0.992479     -0.204052     -3.072421
  H       0.488950     -0.898971     -3.783658
  H       1.595775     -0.846298     -2.384447
  C       1.922924      0.751911     -3.799783
  H       2.666377      1.264897     -3.154994
  C       1.910431      1.061437     -5.120474
  H       2.648266      1.807434     -5.477513
  C       0.955280      0.509087     -6.171847
  H       0.647213     -0.529890     -5.911915
  H       1.489263      0.440819     -7.150625
  C      -0.336898      1.367455     -6.373534
  H      -0.912971      1.385229     -5.416216
  H      -0.985589      0.848498     -7.118662
  C      -0.065066      2.823199     -6.832867
  H       0.499052      2.804538     -7.799396
  H       0.610685      3.315908     -6.094436
  C      -1.337542      3.700243     -6.995029
  H      -1.020966      4.753259     -7.194698
  H      -1.888270      3.730188     -6.021738
  C      -2.309677      3.253434     -8.118815
  H      -2.695996      2.226900     -7.906067
  H      -1.741908      3.175472     -9.077651
  C      -3.516520      4.213282     -8.294120
  H      -3.139673      5.234106     -8.555110
  H      -4.031870      4.323628     -7.308615
  C      -4.558747      3.766627     -9.356590
  H      -5.432897      4.460739     -9.312656
  H      -4.958507      2.759390     -9.079433
  C      -4.021882      3.726872    -10.810061
  H      -3.220614      2.964012    -10.941706
  H      -3.594879      4.713701    -11.109030
  H      -4.832443      3.480272    -11.534145
  C       0.769025      2.295031      3.569801
  H       1.192894      3.150501      4.147033
  H       0.116331      2.743968      2.785919
  C       1.916214      1.499154      2.883596
  H       2.481339      0.905943      3.645396
  H       2.647288      2.225228      2.457608
  C       1.410339      0.558917      1.754874
  H       0.898660      1.181686      0.980839
  H       0.622555     -0.118854      2.162459
  C       2.501183     -0.308314      1.072042
  H       2.993887     -0.952630      1.839598
  H       2.002235     -1.011288      0.360739
  C       3.578704      0.500871      0.300720
  H       3.071868      1.233908     -0.374437
  H       4.185287      1.104284      1.016753
  C       4.544294     -0.374793     -0.562192
  H       5.245612      0.295492     -1.108217
  H       3.938539     -0.892290     -1.347148
  C       5.307884     -1.418039      0.238941
  H       4.709670     -2.282769      0.590382
  C       6.618884     -1.386600      0.586508
  H       7.005646     -2.237095      1.183192
  C       7.641834     -0.321148      0.214795
  H       8.302574     -0.132903      1.096743
  H       7.140798      0.648661     -0.006361
  C       8.546001     -0.703697     -1.002779
  H       9.219561      0.159511     -1.218579
  H       7.900473     -0.831487     -1.906242
  C       9.385973     -1.989771     -0.791263
  H      10.005848     -1.878891      0.134233
  H       8.696686     -2.845385     -0.598272
  C      10.312138     -2.361132     -1.982913
  H      10.727191     -3.383972     -1.806408
  H       9.695250     -2.438807     -2.910591
  C      11.497349     -1.383086     -2.212381
  H      12.035779     -1.246386     -1.242538
  H      11.112117     -0.372178     -2.491219
  C      12.517475     -1.846539     -3.288834
  H      13.399901     -1.160507     -3.268936
  H      12.914041     -2.855657     -3.011348
  C      11.963260     -1.897464     -4.737428
  H      11.101164     -2.604607     -4.790297
  H      11.549154     -0.893735     -5.005937
  C      13.027493     -2.316613     -5.781296
  H      13.442518     -3.326508     -5.552085
  H      12.601961     -2.354518     -6.810626
  H      13.885447     -1.603411     -5.798925
138
Coordinates from ORCA-job /wrk/rja7/qm_final_3_replicates/qm_final_1.1/qm/9/freq E -2722.577661619530
  N      -9.620967     -2.513434      6.904508
  C      -8.385730     -3.098504      6.132015
  H      -8.801653     -3.614659      5.237003
  H      -7.910991     -3.819448      6.827192
  C      -9.285391     -2.191774      8.378464
  H     -10.248533     -2.031299      8.907527
  H      -8.710219     -3.036272      8.804432
  H      -8.651035     -1.288330      8.422144
  C     -10.704856     -3.582459      6.891292
  H     -10.996581     -3.799791      5.843378
  H     -10.303850     -4.500503      7.367109
  H     -11.585941     -3.219075      7.460299
  C     -10.144417     -1.247256      6.233745
  H     -10.362095     -1.462168      5.167138
  H      -9.370942     -0.460289      6.322283
  H     -11.072717     -0.934301      6.755438
  C      -7.334179     -2.047017      5.697187
  H      -6.472266     -2.645582      5.299713
  H      -7.707052     -1.429767      4.845567
  P      -5.935753     -1.796783      8.048740
  O      -6.288853     -3.278186      8.196256
  O      -6.064293     -0.727782      9.120978
  O      -6.962905     -1.165687      6.743832
  O      -4.437940     -1.730352      7.259620
  C      -3.711144     -0.486944      7.264659
  H      -2.634188     -0.736561      7.121580
  H      -3.831092      0.037782      8.243094
  C      -4.169561      0.480976      6.144299
  H      -5.266026      0.653241      6.214399
  O      -3.856676     -0.164933      4.857399
  C      -4.785963     -0.171424      3.845411
  O      -5.886839      0.363145      3.897079
  C      -4.217058     -0.915451      2.627888
  H      -5.054751     -1.458373      2.132604
  H      -3.477485     -1.669536      2.980315
  C      -3.458766      1.852743      6.196851
  H      -3.570156      2.294323      7.212798
  H      -3.881516      2.549922      5.442190
  O      -2.018891      1.682370      5.968433
  C      -1.536499      1.989198      4.716439
  O      -2.174210      2.585318      3.856962
  C      -0.118635      1.432586      4.519008
  H       0.370888      1.274030      5.505797
  H      -0.279060      0.410300      4.093569
  C      -3.537833      0.054597      1.612362
  H      -2.863773      0.756199      2.154647
  H      -4.318015      0.692771      1.132478
  C      -2.714314     -0.693860      0.532067
  H      -3.375825     -1.387923     -0.044136
  H      -1.965941     -1.348220      1.044976
  C      -1.965742      0.257934     -0.437088
  H      -1.444269      1.041292      0.165377
  H      -2.703203      0.807598     -1.072563
  C      -0.928372     -0.460708     -1.335610
  H      -1.442394     -1.212539     -1.985036
  H      -0.232951     -1.047410     -0.686987
  C      -0.091345      0.501259     -2.217579
  H       0.402086      1.262134     -1.564931
  H      -0.761873      1.076855     -2.900277
  C       0.994717     -0.231995     -3.065660
  H       0.491504     -0.923381     -3.780550
  H       1.593513     -0.877849     -2.377248
  C       1.930740      0.723179     -3.786863
  H       2.672292      1.232823     -3.137190
  C       1.924876      1.037154     -5.106654
  H       2.665957      1.782913     -5.457342
  C       0.972637      0.491913     -6.164326
  H       0.661828     -0.547838     -5.910767
  H       1.510077      0.427505     -7.141476
  C      -0.317232      1.353684     -6.366477
  H      -0.897321      1.366932     -5.411483
  H      -0.963802      0.839969     -7.117103
  C      -0.041223      2.811445     -6.816839
  H       0.525763      2.797110     -7.781799
  H       0.633352      3.298799     -6.073825
  C      -1.311448      3.691917     -6.977762
  H      -0.992211      4.744980     -7.172943
  H      -1.863654      3.719467     -6.005239
  C      -2.282992      3.251532     -8.104491
  H      -2.671797      2.225043     -7.896068
  H      -1.714245      3.175721     -9.062909
  C      -3.487557      4.214642     -8.277567
  H      -3.108365      5.235583     -8.534661
  H      -4.003366      4.322732     -7.292052
  C      -4.530136      3.773878     -9.342123
  H      -5.403217      4.469176     -9.295632
  H      -4.931618      2.766209     -9.069127
  C      -3.993123      3.739176    -10.795685
  H      -3.193450      2.975228    -10.930559
  H      -3.564205      4.726406    -11.090561
  H      -4.804140      3.497195    -11.520818
  C       0.760839      2.287104      3.564051
  H       1.182629      3.144317      4.140168
  H       0.107861      2.733313      2.778837
  C       1.910560      1.492356      2.880383
  H       2.474908      0.900206      3.643590
  H       2.641551      2.219341      2.455816
  C       1.408320      0.550926      1.751084
  H       0.896748      1.172819      0.976325
  H       0.621023     -0.127929      2.157701
  C       2.501523     -0.314419      1.069615
  H       2.996395     -0.956033      1.838048
  H       2.004319     -1.020131      0.359795
  C       3.575833      0.496719      0.295912
  H       3.065763      1.227014     -0.379768
  H       4.181410      1.103138      1.010229
  C       4.543042     -0.376850     -0.567469
  H       5.240183      0.295322     -1.116522
  H       3.937526     -0.898348     -1.349909
  C       5.313484     -1.415280      0.233370
  H       4.720050     -2.281687      0.588753
  C       6.625683     -1.377824      0.576091
  H       7.017975     -2.225382      1.173342
  C       7.643048     -0.309172      0.198098
  H       8.305955     -0.116204      1.077411
  H       7.137234      0.658048     -0.023514
  C       8.545080     -0.690526     -1.021523
  H       9.214319      0.175088     -1.241114
  H       7.897468     -0.823009     -1.922812
  C       9.391319     -1.972643     -0.810097
  H      10.012715     -1.857671      0.113846
  H       8.706104     -2.830893     -0.614347
  C      10.316509     -2.341559     -2.003339
  H      10.736512     -3.362316     -1.826435
  H       9.698017     -2.423243     -2.929598
  C      11.496874     -1.358561     -2.236516
  H      12.036092     -1.217392     -1.267770
  H      11.106469     -0.350014     -2.516743
  C      12.517426     -1.819160     -3.313758
  H      13.396593     -1.128884     -3.296535
  H      12.919331     -2.825831     -3.035063
  C      11.961117     -1.875497     -4.761346
  H      11.102474     -2.587040     -4.811417
  H      11.541466     -0.874385     -5.031011
  C      13.025735     -2.291083     -5.806229
  H      13.446331     -3.298404     -5.575884
  H      12.598644     -2.333084     -6.834752
  H      13.879937     -1.573483     -5.826525
138
Coordinates from ORCA-job /wrk/rja7/qm_final_3_replicates/qm_final_1.1/qm/9/freq E -2722.577663345239
  N      -9.618406     -2.517842      6.912388
  C      -8.384138     -3.103219      6.138512
  H      -8.801287     -3.619614      5.244151
  H      -7.908617     -3.823958      6.833330
  C      -9.280543     -2.194116      8.385392
  H     -10.242910     -2.033525      8.915838
  H      -8.704217     -3.037825      8.811394
  H      -8.646557     -1.290316      8.426749
  C     -10.701782     -3.587493      6.902325
  H     -10.994779     -3.806556      5.855134
  H     -10.299634     -4.504585      7.379003
  H     -11.582237     -3.223589      7.471972
  C     -10.143616     -1.252883      6.240820
  H     -10.362691     -1.469236      5.174791
  H      -9.370559     -0.465256      6.327214
  H     -11.071314     -0.939724      6.763464
  C      -7.333298     -2.051852      5.701714
  H      -6.471413     -2.650412      5.304231
  H      -7.707324     -1.435866      4.849708
  P      -5.930931     -1.797174      8.050693
  O      -6.283224     -3.278436      8.201722
  O      -6.057537     -0.726331      9.121239
  O      -6.961404     -1.168915      6.746986
  O      -4.434446     -1.731586      7.258537
  C      -3.708263     -0.487762      7.260942
  H      -2.631283     -0.736929      7.117156
  H      -3.827489      0.038231      8.238787
  C      -4.168411      0.478030      6.139541
  H      -5.265229      0.648145      6.209295
  O      -3.853821     -0.168855      4.853449
  C      -4.782735     -0.178749      3.841125
  O      -5.885164      0.352688      3.892139
  C      -4.211434     -0.922139      2.624305
  H      -5.047615     -1.467714      2.129244
  H      -3.469912     -1.673923      2.977564
  C      -3.460792      1.851508      6.191009
  H      -3.573924      2.293649      7.206505
  H      -3.884720      2.547005      5.435452
  O      -2.020289      1.684553      5.963943
  C      -1.537654      1.991149      4.712002
  O      -2.175855      2.585433      3.851600
  C      -0.118297      1.437785      4.516214
  H       0.370896      1.281304      5.503500
  H      -0.276039      0.414751      4.091601
  C      -3.534626      0.048955      1.608109
  H      -2.862464      0.752762      2.149836
  H      -4.316525      0.684728      1.127820
  C      -2.709217     -0.697936      0.528036
  H      -3.369201     -1.393521     -0.048087
  H      -1.959390     -1.350615      1.041135
  C      -1.963142      0.255448     -0.441475
  H      -1.442827      1.039837      0.160702
  H      -2.702229      0.803729     -1.076245
  C      -0.925090     -0.460796     -1.341138
  H      -1.438133     -1.213205     -1.990654
  H      -0.227991     -1.046402     -0.693312
  C      -0.090714      0.503346     -2.223370
  H       0.402762      1.264009     -1.570526
  H      -0.763211      1.078912     -2.904132
  C       0.994879     -0.227336     -3.074352
  H       0.491314     -0.918107     -3.789603
  H       1.595549     -0.873582     -2.387966
  C       1.928711      0.730047     -3.795557
  H       2.670901      1.239334     -3.146333
  C       1.920830      1.045980     -5.114933
  H       2.660916      1.792861     -5.465387
  C       0.968043      0.501394     -6.172465
  H       0.658014     -0.538806     -5.919745
  H       1.504816      0.438277     -7.150053
  C      -0.322482      1.362664     -6.373019
  H      -0.901912      1.374958     -5.417642
  H      -0.969282      0.849099     -7.123570
  C      -0.047745      2.820893     -6.822857
  H       0.519196      2.807441     -7.787837
  H       0.626404      3.308562     -6.079632
  C      -1.318760      3.700281     -6.983358
  H      -1.000416      4.753579     -7.178722
  H      -1.870708      3.727401     -6.010683
  C      -2.290282      3.259054     -8.109763
  H      -2.678493      2.232416     -7.901014
  H      -1.721698      3.183398     -9.068288
  C      -3.495433      4.221521     -8.282772
  H      -3.116867      5.242316     -8.541334
  H      -4.010434      4.330458     -7.296927
  C      -4.538806      3.779102     -9.345833
  H      -5.412023      4.474250     -9.299486
  H      -4.939808      2.771724     -9.071061
  C      -4.003098      3.742515    -10.799817
  H      -3.203014      2.978908    -10.934248
  H      -3.575068      4.729552    -11.096647
  H      -4.814621      3.498896    -11.523835
  C       0.759940      2.293399      3.561011
  H       1.181093      3.151018      4.136991
  H       0.106170      2.738872      2.776058
  C       1.910070      1.499676      2.876841
  H       2.475217      0.908055      3.639872
  H       2.640308      2.227116      2.451798
  C       1.407909      0.557736      1.747986
  H       0.896065      1.179267      0.973056
  H       0.620815     -0.121135      2.154918
  C       2.501143     -0.308102      1.067058
  H       2.995279     -0.949847      1.835856
  H       2.004045     -1.013705      0.357072
  C       3.576526      0.502075      0.293771
  H       3.067562      1.232460     -0.382687
  H       4.182115      1.108315      1.008228
  C       4.543676     -0.372894     -0.568387
  H       5.242302      0.298207     -1.116874
  H       3.938204     -0.893667     -1.351293
  C       5.311627     -1.412392      0.233516
  H       4.716529     -2.278168      0.587660
  C       6.623319     -1.376776      0.578467
  H       7.013377     -2.224967      1.176281
  C       7.643003     -0.309666      0.202274
  H       8.304530     -0.117606      1.082825
  H       7.139045      0.658253     -0.020482
  C       8.546796     -0.692677     -1.015572
  H       9.217980      0.171733     -1.233997
  H       7.900641     -0.824155     -1.918057
  C       9.390366     -1.976274     -0.802323
  H      10.010537     -1.862037      0.122543
  H       8.703269     -2.833160     -0.607196
  C      10.316815     -2.347643     -1.993864
  H      10.734539     -3.369100     -1.815654
  H       9.699660     -2.428650     -2.921085
  C      11.499493     -1.367121     -2.225685
  H      12.037372     -1.226423     -1.256116
  H      11.111624     -0.357949     -2.507198
  C      12.520976     -1.830573     -3.300809
  H      13.401625     -1.142217     -3.282378
  H      12.920125     -2.837970     -3.020801
  C      11.967229     -1.886509     -4.749395
  H      11.107072     -2.596148     -4.800675
  H      11.550408     -0.884602     -5.020462
  C      13.032847     -2.305234     -5.792010
  H      13.450519     -3.313460     -5.560299
  H      12.607643     -2.346737     -6.821337
  H      13.888865     -1.589765     -5.811085
138
Coordinates from ORCA-job /wrk/rja7/qm_final_3_replicates/qm_final_1.1/qm/9/freq E -2722.577664411986
  N      -9.616263     -2.518475      6.910538
  C      -8.381406     -3.103216      6.137226
  H      -8.798099     -3.619644      5.242691
  H      -7.906032     -3.823947      6.832143
  C      -9.279035     -2.193724      8.383504
  H     -10.241700     -2.033458      8.913562
  H      -8.702333     -3.036859      8.810178
  H      -8.645592     -1.289551      8.424446
  C     -10.698744     -3.589032      6.900718
  H     -10.991023     -3.809137      5.853548
  H     -10.295995     -4.505397      7.378273
  H     -11.579811     -3.225476      7.469657
  C     -10.142243     -1.254316      6.238145
  H     -10.360483     -1.471349      5.172069
  H      -9.370031     -0.465849      6.324569
  H     -11.070551     -0.941753      6.760075
  C      -7.331014     -2.051090      5.701260
  H      -6.468197     -2.648836      5.304681
  H      -7.704818     -1.435493      4.848909
  P      -5.929930     -1.796007      8.050725
  O      -6.282043     -3.277272      8.201780
  O      -6.056441     -0.725098      9.121174
  O      -6.960870     -1.167905      6.747110
  O      -4.433570     -1.730230      7.258138
  C      -3.707788     -0.486181      7.260240
  H      -2.630739     -0.735246      7.116753
  H      -3.827211      0.039979      8.237970
  C      -4.167781      0.479263      6.138465
  H      -5.264610      0.649453      6.207909
  O      -3.852904     -0.168029      4.852560
  C      -4.781256     -0.176511      3.839634
  O      -5.883181      0.356037      3.890411
  C      -4.210277     -0.919796      2.622606
  H      -5.046670     -1.464621      2.127201
  H      -3.469196     -1.672118      2.975624
  C      -3.460384      1.852794      6.189829
  H      -3.574363      2.295151      7.205143
  H      -3.883859      2.547954      5.433718
  O      -2.019706      1.685958      5.963949
  C      -1.536271      1.991793      4.712192
  O      -2.173803      2.585811      3.851081
  C      -0.116829      1.438304      4.517697
  H       0.371590      1.282070      5.505409
  H      -0.274278      0.415142      4.093280
  C      -3.532736      0.051075      1.606779
  H      -2.860162      0.754347      2.148669
  H      -4.314083      0.687431      1.126368
  C      -2.707952     -0.696565      0.526763
  H      -3.368487     -1.391831     -0.049121
  H      -1.958625     -1.349714      1.039955
  C      -1.961423      0.256057     -0.443064
  H      -1.441063      1.040729      0.158720
  H      -2.700225      0.804182     -1.078314
  C      -0.923189     -0.460990     -1.341810
  H      -1.435951     -1.213978     -1.990872
  H      -0.226288     -1.045871     -0.693143
  C      -0.088535      0.502420     -2.224552
  H       0.405124      1.263249     -1.572050
  H      -0.760896      1.077832     -2.905570
  C       0.996931     -0.228975     -3.075041
  H       0.493253     -0.920265     -3.789713
  H       1.597869     -0.874586     -2.388309
  C       1.930323      0.728026     -3.797308
  H       2.673634      1.237081     -3.149183
  C       1.920719      1.043947     -5.116640
  H       2.660491      1.790638     -5.468194
  C       0.966441      0.499571     -6.172885
  H       0.656151     -0.540412     -5.919577
  H       1.502016      0.435940     -7.151105
  C      -0.323875      1.361451     -6.371941
  H      -0.902349      1.373877     -5.415995
  H      -0.971718      0.848319     -7.121894
  C      -0.049067      2.819685     -6.821732
  H       0.517914      2.806318     -7.786685
  H       0.625061      3.307266     -6.078419
  C      -1.320121      3.699038     -6.982112
  H      -1.001904      4.752492     -7.176809
  H      -1.872349      3.725539     -6.009583
  C      -2.291334      3.258442     -8.109059
  H      -2.679638      2.231697     -7.901068
  H      -1.722537      3.183491     -9.067516
  C      -3.496437      4.221098     -8.281614
  H      -3.117697      5.242016     -8.539415
  H      -4.011593      4.329380     -7.295775
  C      -4.539710      3.779552     -9.345117
  H      -5.412831      4.474796     -9.298355
  H      -4.940882      2.772026     -9.071144
  C      -4.003806      3.743994    -10.799046
  H      -3.203924      2.980271    -10.934039
  H      -3.575412      4.731148    -11.094946
  H      -4.815314      3.501246    -11.523377
  C       0.762111      2.293600      3.562891
  H       1.184479      3.150353      4.139276
  H       0.108616      2.740292      2.778410
  C       1.911153      1.499079      2.877950
  H       2.476144      0.906717      3.640533
  H       2.641828      2.225980      2.452750
  C       1.407626      0.557731      1.749256
  H       0.895708      1.179643      0.974724
  H       0.620389     -0.120845      2.156454
  C       2.500057     -0.308581      1.067721
  H       2.994070     -0.950889      1.836116
  H       2.002363     -1.013648      0.357625
  C       3.575609      0.501174      0.294252
  H       3.066842      1.231971     -0.381898
  H       4.181923      1.106856      1.008561
  C       4.541776     -0.374319     -0.568465
  H       5.240757      0.296389     -1.116977
  H       3.935514     -0.894360     -1.351254
  C       5.308976     -1.414657      0.232992
  H       4.713485     -2.280567      0.586148
  C       6.620396     -1.379446      0.578836
  H       7.010032     -2.228143      1.176208
  C       7.640263     -0.311932      0.204363
  H       8.301253     -0.120665      1.085483
  H       7.136430      0.656170     -0.017870
  C       8.544574     -0.693797     -1.013392
  H       9.215707      0.170899     -1.230866
  H       7.898717     -0.824602     -1.916191
  C       9.388271     -1.977341     -0.800927
  H      10.008500     -1.863567      0.123963
  H       8.701398     -2.834517     -0.606257
  C      10.314714     -2.347699     -1.992730
  H      10.732723     -3.369148     -1.815172
  H       9.697476     -2.428247     -2.919938
  C      11.497083     -1.366693     -2.224060
  H      12.035051     -1.226489     -1.254460
  H      11.108926     -0.357430     -2.504842
  C      12.518581     -1.829248     -3.299543
  H      13.399080     -1.140707     -3.280760
  H      12.917959     -2.836738     -3.020209
  C      11.964756     -1.884390     -4.748129
  H      11.104739     -2.594169     -4.799855
  H      11.547773     -0.882381     -5.018560
  C      13.030392     -2.302370     -5.791038
  H      13.448132     -3.310710     -5.559938
  H      12.605181     -2.343272     -6.820387
  H      13.886386     -1.586858     -5.809744
138
Coordinates from ORCA-job /wrk/rja7/qm_final_3_replicates/qm_final_1.1/qm/9/freq E -2722.577665013166
  N      -9.618534     -2.515765      6.913655
  C      -8.383981     -3.100581      6.139936
  H      -8.801032     -3.616679      5.245373
  H      -7.908751     -3.821724      6.834514
  C      -9.280737     -2.190788      8.386455
  H     -10.243226     -2.030416      8.916822
  H      -8.704038     -3.033941      8.813121
  H      -8.647169     -1.286714      8.426897
  C     -10.700919     -3.586383      6.904441
  H     -10.993286     -3.807035      5.857411
  H     -10.298017     -4.502475      7.382395
  H     -11.581986     -3.222674      7.473297
  C     -10.144831     -1.251782      6.241211
  H     -10.363125     -1.469015      5.175185
  H      -9.372771     -0.463139      6.327370
  H     -11.073138     -0.939350      6.763211
  C      -7.333306     -2.048613      5.704169
  H      -6.470624     -2.646389      5.307446
  H      -7.706999     -1.432651      4.852062
  P      -5.931045     -1.795382      8.053081
  O      -6.284671     -3.276207      8.204249
  O      -6.055244     -0.724344      9.123661
  O      -6.962736     -1.165906      6.750431
  O      -4.435250     -1.731218      7.258974
  C      -3.708532     -0.487704      7.259999
  H      -2.631709     -0.737733      7.116403
  H      -3.827199      0.039163      8.237430
  C      -4.168060      0.477176      6.137584
  H      -5.264832      0.647836      6.206830
  O      -3.853286     -0.171138      4.852111
  C      -4.781433     -0.179088      3.838935
  O      -5.883163      0.353906      3.889651
  C      -4.210616     -0.922167      2.621740
  H      -5.047149     -1.466396      2.125974
  H      -3.469874     -1.674936      2.974536
  C      -3.460457      1.850602      6.188196
  H      -3.574897      2.293480      7.203240
  H      -3.883527      2.545335      5.431479
  O      -2.019674      1.683642      5.963106
  C      -1.535655      1.989098      4.711524
  O      -2.172898      2.582667      3.849870
  C      -0.115949      1.435960      4.517917
  H       0.371914      1.280076      5.505962
  H      -0.272738      0.412655      4.093612
  C      -3.532452      0.048729      1.606390
  H      -2.859654      0.751548      2.148563
  H      -4.313405      0.685569      1.125974
  C      -2.708017     -0.699087      0.526255
  H      -3.368955     -1.393709     -0.049948
  H      -1.959224     -1.352962      1.039301
  C      -1.960916      0.253398     -0.443230
  H      -1.440469      1.037895      0.158718
  H      -2.699406      0.801817     -1.078593
  C      -0.922602     -0.463899     -1.341671
  H      -1.435160     -1.217040     -1.990703
  H      -0.225847     -1.048467     -0.692582
  C      -0.087761      0.499366     -2.224385
  H       0.406075      1.259947     -1.571731
  H      -0.759993      1.075061     -2.905278
  C       0.997679     -0.232086     -3.074817
  H       0.494034     -0.923293     -3.789592
  H       1.598674     -0.877670     -2.388137
  C       1.930928      0.725079     -3.797086
  H       2.675014      1.233482     -3.149359
  C       1.920219      1.041884     -5.116181
  H       2.659736      1.788718     -5.467984
  C       0.965205      0.498170     -6.172064
  H       0.653985     -0.541465     -5.918471
  H       1.500530      0.433846     -7.150384
  C      -0.324384      1.361104     -6.370996
  H      -0.902957      1.373764     -5.415114
  H      -0.972595      0.848633     -7.121074
  C      -0.048618      2.819272     -6.820392
  H       0.519392      2.805886     -7.784738
  H       0.624827      3.306608     -6.076294
  C      -1.319364      3.698898     -6.981951
  H      -1.000865      4.752440     -7.175679
  H      -1.872816      3.724882     -6.010105
  C      -2.289248      3.259010     -8.110357
  H      -2.677885      2.232191     -7.903385
  H      -1.719333      3.184609     -9.068191
  C      -3.494089      4.221873     -8.283682
  H      -3.114918      5.242868     -8.540523
  H      -4.010317      4.329624     -7.298347
  C      -4.536202      3.781025     -9.348591
  H      -5.409303      4.476335     -9.302427
  H      -4.937770      2.773387     -9.075617
  C      -3.998610      3.746238    -10.801905
  H      -3.198552      2.982606    -10.936412
  H      -3.569868      4.733555    -11.096747
  H      -4.809279      3.503903    -11.527314
  C       0.763190      2.291549      3.563502
  H       1.186065      3.147721      4.140372
  H       0.109684      2.738990      2.779460
  C       1.911899      1.497226      2.877820
  H       2.476894      0.904200      3.639891
  H       2.642677      2.224239      2.452990
  C       1.408038      0.556619      1.748695
  H       0.896240      1.178970      0.974433
  H       0.620647     -0.121971      2.155586
  C       2.500328     -0.309625      1.066852
  H       2.994347     -0.952219      1.834993
  H       2.002554     -1.014442      0.356568
  C       3.575842      0.500230      0.293394
  H       3.067010      1.231137     -0.382570
  H       4.182377      1.105695      1.007697
  C       4.541675     -0.375291     -0.569718
  H       5.240627      0.295367     -1.118323
  H       3.935004     -0.895058     -1.352362
  C       5.308825     -1.415954      0.231351
  H       4.713524     -2.282427      0.583441
  C       6.620022     -1.380418      0.577964
  H       7.009751     -2.229422      1.174842
  C       7.639567     -0.312132      0.204825
  H       8.300110     -0.121236      1.086355
  H       7.135397      0.655903     -0.016929
  C       8.544381     -0.692652     -1.012976
  H       9.215125      0.172539     -1.229692
  H       7.898706     -0.823080     -1.915962
  C       9.388727     -1.975863     -0.801348
  H      10.009270     -1.862168      0.123349
  H       8.702417     -2.833505     -0.606758
  C      10.314956     -2.345202     -1.993636
  H      10.733545     -3.366510     -1.816650
  H       9.697413     -2.425630     -2.920651
  C      11.496724     -1.363484     -2.224977
  H      12.034942     -1.223364     -1.255501
  H      11.107964     -0.354317     -2.505261
  C      12.518119     -1.825213     -3.300898
  H      13.398303     -1.136267     -3.282177
  H      12.918036     -2.832605     -3.021985
  C      11.963920     -1.880168     -4.749345
  H      11.104146     -2.590237     -4.801096
  H      11.546547     -0.878219     -5.019395
  C      13.029425     -2.297549     -5.792633
  H      13.447492     -3.305835     -5.561883
  H      12.603988     -2.338304     -6.821893
  H      13.885244     -1.581825     -5.811390
138
Coordinates from ORCA-job /wrk/rja7/qm_final_3_replicates/qm_final_1.1/qm/9/freq E -2722.577665213499
  N      -9.620036     -2.514152      6.914808
  C      -8.385571     -3.098759      6.140823
  H      -8.802737     -3.614583      5.246161
  H      -7.910281     -3.820156      6.835101
  C      -9.282086     -2.189331      8.387603
  H     -10.244523     -2.029088      8.918101
  H      -8.705324     -3.032509      8.814127
  H      -8.648555     -1.285236      8.428009
  C     -10.702355     -3.584814      6.905601
  H     -10.994718     -3.805485      5.858577
  H     -10.299403     -4.500884      7.383552
  H     -11.583446     -3.221184      7.474459
  C     -10.146435     -1.250125      6.242546
  H     -10.364661     -1.467250      5.176485
  H      -9.374426     -0.461445      6.328782
  H     -11.074780     -0.937853      6.764560
  C      -7.334902     -2.046677      5.705290
  H      -6.472297     -2.644319      5.308206
  H      -7.708658     -1.430301      4.853508
  P      -5.931921     -1.795091      8.053907
  O      -6.286244     -3.275753      8.204657
  O      -6.054834     -0.724329      9.124902
  O      -6.964043     -1.164481      6.751898
  O      -4.436534     -1.731555      7.258801
  C      -3.709407     -0.488246      7.259142
  H      -2.632638     -0.738677      7.115780
  H      -3.827956      0.039257      8.236232
  C      -4.168560      0.476005      6.136062
  H      -5.265352      0.646717      6.204858
  O      -3.853398     -0.173031      4.851049
  C      -4.781173     -0.180846      3.837523
  O      -5.882918      0.352168      3.887912
  C      -4.210113     -0.923886      2.620469
  H      -5.046553     -1.468068      2.124501
  H      -3.469414     -1.676667      2.973346
  C      -3.461067      1.849500      6.186097
  H      -3.576016      2.292932      7.200848
  H      -3.883876      2.543746      5.428795
  O      -2.020163      1.682581      5.961735
  C      -1.535449      1.987725      4.710359
  O      -2.172422      2.580566      3.847998
  C      -0.115329      1.435137      4.517917
  H       0.371897      1.279899      5.506376
  H      -0.271310      0.411580      4.093939
  C      -3.531743      0.047030      1.605271
  H      -2.859004      0.749801      2.147584
  H      -4.312599      0.683937      1.124781
  C      -2.707263     -0.700784      0.525188
  H      -3.368225     -1.395255     -0.051168
  H      -1.958609     -1.354820      1.038196
  C      -1.960016      0.251739     -0.444166
  H      -1.439667      1.036248      0.157839
  H      -2.698443      0.800124     -1.079628
  C      -0.921561     -0.465550     -1.342471
  H      -1.433962     -1.218862     -1.991423
  H      -0.224786     -1.049891     -0.693198
  C      -0.086841      0.497737     -2.225259
  H       0.406906      1.258401     -1.572628
  H      -0.759106      1.073322     -2.906205
  C       0.998778     -0.233572     -3.075550
  H       0.495351     -0.925100     -3.790167
  H       1.600001     -0.878802     -2.388751
  C       1.931627      0.723784     -3.798115
  H       2.676228      1.231969     -3.150826
  C       1.919774      1.041077     -5.117080
  H       2.658905      1.788074     -5.469340
  C       0.963839      0.497712     -6.172301
  H       0.652150     -0.541677     -5.918321
  H       1.498582      0.432931     -7.150917
  C      -0.325380      1.361302     -6.370644
  H      -0.903459      1.374323     -5.414461
  H      -0.974257      0.849112     -7.120331
  C      -0.049166      2.819312     -6.820210
  H       0.518658      2.805689     -7.784663
  H       0.624557      3.306502     -6.076272
  C      -1.319713      3.699297     -6.981565
  H      -1.001041      4.752807     -7.175150
  H      -1.873066      3.725214     -6.009662
  C      -2.289831      3.259739     -8.109925
  H      -2.678484      2.232912     -7.903035
  H      -1.720087      3.185449     -9.067864
  C      -3.494644      4.222697     -8.282845
  H      -3.115483      5.243651     -8.539859
  H      -4.010501      4.330486     -7.297324
  C      -4.537176      3.781878     -9.347377
  H      -5.410220      4.477239     -9.300937
  H      -4.938697      2.774277     -9.074208
  C      -4.000110      3.747013    -10.800886
  H      -3.200104      2.983380    -10.935643
  H      -3.571493      4.734322    -11.095940
  H      -4.811039      3.504648    -11.525996
  C       0.764022      2.290870      3.563760
  H       1.186915      3.146856      4.140886
  H       0.110593      2.738541      2.779786
  C       1.912776      1.496759      2.877899
  H       2.477721      0.903461      3.639801
  H       2.643605      2.223918      2.453400
  C       1.409037      0.556517      1.748420
  H       0.897528      1.179137      0.974166
  H       0.621381     -0.121944      2.155008
  C       2.501315     -0.309817      1.066661
  H       2.995284     -0.952394      1.834844
  H       2.003546     -1.014664      0.356398
  C       3.576902      0.499917      0.293143
  H       3.068106      1.230802     -0.382857
  H       4.183512      1.105339      1.007414
  C       4.542621     -0.375792     -0.569958
  H       5.241608      0.294726     -1.118688
  H       3.935823     -0.895560     -1.352491
  C       5.309731     -1.416496      0.231129
  H       4.714545     -2.283258      0.582695
  C       6.620801     -1.380705      0.578260
  H       7.010535     -2.229780      1.175032
  C       7.640223     -0.312119      0.205638
  H       8.300548     -0.121316      1.087348
  H       7.135906      0.655873     -0.015968
  C       8.545313     -0.692137     -1.012148
  H       9.215924      0.173235     -1.228553
  H       7.899744     -0.822411     -1.915231
  C       9.389913     -1.975241     -0.800799
  H      10.010636     -1.861503      0.123772
  H       8.703815     -2.833030     -0.606130
  C      10.315989     -2.344331     -1.993311
  H      10.734788     -3.365579     -1.816467
  H       9.698278     -2.424809     -2.920207
  C      11.497542     -1.362395     -2.224814
  H      12.035865     -1.222164     -1.255414
  H      11.108552     -0.353312     -2.505075
  C      12.518878     -1.823978     -3.300849
  H      13.398949     -1.134884     -3.282278
  H      12.918998     -2.831289     -3.021930
  C      11.964519     -1.879077     -4.749227
  H      11.104844     -2.589267     -4.800886
  H      11.546968     -0.877193     -5.019248
  C      13.029973     -2.296291     -5.792630
  H      13.448221     -3.304512     -5.561924
  H      12.604430     -2.337117     -6.821844
  H      13.885684     -1.580443     -5.811481
138
Coordinates from ORCA-job /wrk/rja7/qm_final_3_replicates/qm_final_1.1/qm/9/freq E -2722.577665308467
  N      -9.620446     -2.513843      6.916631
  C      -8.386114     -3.098532      6.142534
  H      -8.803334     -3.614618      5.248045
  H      -7.910624     -3.819764      6.836854
  C      -9.282293     -2.188951      8.389343
  H     -10.244638     -2.028657      8.919979
  H      -8.705509     -3.032125      8.815842
  H      -8.648727     -1.284872      8.429608
  C     -10.702824     -3.584419      6.907645
  H     -10.995371     -3.805144      5.860684
  H     -10.299921     -4.500491      7.385640
  H     -11.583824     -3.220701      7.476588
  C     -10.146917     -1.249815      6.244389
  H     -10.365280     -1.466977      5.178366
  H      -9.374846     -0.461188      6.330481
  H     -11.075185     -0.937531      6.766523
  C      -7.335510     -2.046520      5.706659
  H      -6.473016     -2.644220      5.309414
  H      -7.709359     -1.430201      4.854867
  P      -5.932049     -1.794752      8.055076
  O      -6.286484     -3.275329      8.206174
  O      -6.054497     -0.723754      9.125898
  O      -6.964441     -1.164192      6.753064
  O      -4.436905     -1.731616      7.259466
  C      -3.709725     -0.488336      7.259142
  H      -2.632942     -0.738819      7.115976
  H      -3.828317      0.039726      8.235925
  C      -4.168841      0.475295      6.135530
  H      -5.265632      0.646034      6.204212
  O      -3.853656     -0.174395      4.850844
  C      -4.781359     -0.182479      3.837262
  O      -5.883156      0.350457      3.887461
  C      -4.210160     -0.925586      2.620321
  H      -5.046527     -1.469929      2.124391
  H      -3.469344     -1.678227      2.973261
  C      -3.461373      1.848844      6.184904
  H      -3.576453      2.292832      7.199400
  H      -3.884132      2.542672      5.427190
  O      -2.020457      1.681869      5.960755
  C      -1.535496      1.987088      4.709509
  O      -2.172399      2.579723      3.846959
  C      -0.115199      1.434774      4.517447
  H       0.371811      1.279822      5.506056
  H      -0.270829      0.411122      4.093578
  C      -3.531910      0.045340      1.605044
  H      -2.859200      0.748155      2.147332
  H      -4.312825      0.682206      1.124597
  C      -2.707414     -0.702351      0.524885
  H      -3.368391     -1.396623     -0.051691
  H      -1.958823     -1.356577      1.037758
  C      -1.960002      0.250394     -0.444161
  H      -1.439589      1.034628      0.158125
  H      -2.698352      0.799033     -1.079493
  C      -0.921627     -0.466710     -1.342738
  H      -1.434115     -1.219848     -1.991821
  H      -0.224838     -1.051259     -0.693665
  C      -0.086954      0.496820     -2.225291
  H       0.406657      1.257417     -1.572471
  H      -0.759188      1.072454     -2.906223
  C       0.998874     -0.234127     -3.075605
  H       0.495718     -0.925766     -3.790301
  H       1.600209     -0.879265     -2.388826
  C       1.931528      0.723583     -3.797992
  H       2.676178      1.231624     -3.150651
  C       1.919339      1.041374     -5.116847
  H       2.658240      1.788618     -5.469047
  C       0.963370      0.498122     -6.172105
  H       0.651304     -0.541103     -5.917967
  H       1.498252      0.433016     -7.150630
  C      -0.325608      1.362027     -6.370823
  H      -0.903777      1.375381     -5.414691
  H      -0.974515      0.849841     -7.120476
  C      -0.049023      2.819906     -6.820599
  H       0.518938      2.806028     -7.784969
  H       0.624658      3.307095     -6.076634
  C      -1.319376      3.700128     -6.982281
  H      -1.000475      4.753597     -7.175720
  H      -1.872977      3.726091     -6.010520
  C      -2.289265      3.260751     -8.110917
  H      -2.677999      2.233919     -7.904186
  H      -1.719301      3.186521     -9.068726
  C      -3.494002      4.223752     -8.284040
  H      -3.114781      5.244716     -8.540935
  H      -4.010064      4.331486     -7.298624
  C      -4.536283      3.782986     -9.348856
  H      -5.409340      4.478343     -9.302626
  H      -4.937858      2.775373     -9.075811
  C      -3.998829      3.748169    -10.802224
  H      -3.198729      2.984593    -10.936744
  H      -3.570195      4.735512    -11.097145
  H      -4.809531      3.505757    -11.527569
  C       0.764148      2.290660      3.563392
  H       1.187024      3.146562      4.140649
  H       0.110702      2.738430      2.779490
  C       1.912888      1.496701      2.877345
  H       2.477791      0.903142      3.639071
  H       2.643755      2.223975      2.453089
  C       1.409114      0.556856      1.747553
  H       0.897934      1.179790      0.973320
  H       0.621165     -0.121431      2.153865
  C       2.501262     -0.309636      1.065798
  H       2.995189     -0.952217      1.834008
  H       2.003391     -1.014473      0.355598
  C       3.576949      0.499946      0.292261
  H       3.068227      1.230828     -0.383802
  H       4.183559      1.105371      1.006529
  C       4.542646     -0.375921     -0.570696
  H       5.241703      0.294469     -1.119494
  H       3.935869     -0.895775     -1.353183
  C       5.309673     -1.416550      0.230602
  H       4.714496     -2.283383      0.582008
  C       6.620639     -1.380550      0.578135
  H       7.010321     -2.229525      1.175078
  C       7.640006     -0.311845      0.205679
  H       8.300203     -0.120969      1.087465
  H       7.135609      0.656096     -0.015966
  C       8.545273     -0.691765     -1.012025
  H       9.215849      0.173654     -1.228351
  H       7.899808     -0.822061     -1.915178
  C       9.389959     -1.974806     -0.800588
  H      10.010645     -1.860958      0.123994
  H       8.703935     -2.832644     -0.605890
  C      10.316111     -2.343909     -1.993047
  H      10.734957     -3.365126     -1.816130
  H       9.698445     -2.424486     -2.919966
  C      11.497616     -1.361920     -2.224576
  H      12.035849     -1.221537     -1.255150
  H      11.108585     -0.352905     -2.505019
  C      12.519082     -1.823598     -3.300454
  H      13.399113     -1.134454     -3.281912
  H      12.919224     -2.830843     -3.021330
  C      11.964853     -1.878933     -4.748872
  H      11.105177     -2.589121     -4.800501
  H      11.547338     -0.877084     -5.019082
  C      13.030401     -2.296289     -5.792119
  H      13.448658     -3.304464     -5.561224
  H      12.604952     -2.337284     -6.821365
  H      13.886094     -1.580420     -5.810998
138
Coordinates from ORCA-job /wrk/rja7/qm_final_3_replicates/qm_final_1.1/qm/9/freq E -2722.577665353440
  N      -9.620325     -2.513671      6.916307
  C      -8.385897     -3.098441      6.142431
  H      -8.802985     -3.614587      5.247916
  H      -7.910501     -3.819627      6.836866
  C      -9.282447     -2.188901      8.389094
  H     -10.244871     -2.028559      8.919563
  H      -8.705790     -3.032136      8.815642
  H      -8.648843     -1.284853      8.429565
  C     -10.702830     -3.584114      6.907035
  H     -10.995248     -3.804681      5.860005
  H     -10.300154     -4.500295      7.385011
  H     -11.583876     -3.220341      7.475869
  C     -10.146544     -1.249533      6.244038
  H     -10.364781     -1.466601      5.177973
  H      -9.374363     -0.461035      6.330296
  H     -11.074845     -0.937157      6.766057
  C      -7.335199     -2.046504      5.706615
  H      -6.472706     -2.644297      5.309477
  H      -7.708887     -1.430237      4.854703
  P      -5.932043     -1.794630      8.055285
  O      -6.286451     -3.275218      8.206318
  O      -6.054751     -0.723621      9.126056
  O      -6.964226     -1.164103      6.752939
  O      -4.436823     -1.731494      7.259861
  C      -3.709745     -0.488152      7.259344
  H      -2.632888     -0.738535      7.116567
  H      -3.828693      0.040253      8.235901
  C      -4.168692      0.475082      6.135328
  H      -5.265515      0.645713      6.203706
  O      -3.853154     -0.174946      4.850901
  C      -4.780505     -0.183098      3.837017
  O      -5.882345      0.349786      3.886810
  C      -4.208869     -0.926200      2.620273
  H      -5.044989     -1.470949      2.124343
  H      -3.467797     -1.678492      2.973399
  C      -3.461357      1.848722      6.184451
  H      -3.576666      2.293076      7.198759
  H      -3.884047      2.542257      5.426425
  O      -2.020390      1.681805      5.960617
  C      -1.535131      1.986989      4.709486
  O      -2.171910      2.579398      3.846693
  C      -0.114700      1.434825      4.517857
  H       0.372091      1.280147      5.506614
  H      -0.270116      0.411072      4.094158
  C      -3.530932      0.044837      1.604882
  H      -2.858447      0.747908      2.147122
  H      -4.312054      0.681423      1.124404
  C      -2.706177     -0.702649      0.524779
  H      -3.366947     -1.397081     -0.051840
  H      -1.957409     -1.356674      1.037661
  C      -1.958981      0.250317     -0.444236
  H      -1.438592      1.034515      0.158107
  H      -2.697472      0.798930     -1.079426
  C      -0.920662     -0.466546     -1.343084
  H      -1.433217     -1.219728     -1.992068
  H      -0.223625     -1.051068     -0.694248
  C      -0.086401      0.497175     -2.225803
  H       0.407149      1.257937     -1.573132
  H      -0.758902      1.072587     -2.906662
  C       0.999424     -0.233510     -3.076353
  H       0.496314     -0.925491     -3.790754
  H       1.601192     -0.878328     -2.389654
  C       1.931503      0.724421     -3.799201
  H       2.676283      1.232673     -3.152177
  C       1.918590      1.042220     -5.118054
  H       2.657091      1.789679     -5.470631
  C       0.962256      0.498726     -6.172857
  H       0.650198     -0.540398     -5.918328
  H       1.496841      0.433350     -7.151529
  C      -0.326761      1.362634     -6.371431
  H      -0.904587      1.376274     -5.415094
  H      -0.975913      0.850248     -7.120734
  C      -0.050257      2.820378     -6.821687
  H       0.517363      2.806224     -7.786254
  H       0.623694      3.307728     -6.078075
  C      -1.320591      3.700658     -6.983190
  H      -1.001635      4.754069     -7.176861
  H      -1.873957      3.726821     -6.011300
  C      -2.290753      3.261181     -8.111541
  H      -2.679478      2.234386     -7.904602
  H      -1.720973      3.186803     -9.069448
  C      -3.495468      4.224218     -8.284591
  H      -3.116256      5.245127     -8.541721
  H      -4.011344      4.332142     -7.299099
  C      -4.537963      3.783340     -9.349161
  H      -5.410953      4.478778     -9.302933
  H      -4.939576      2.775811     -9.075857
  C      -4.000742      3.748190    -10.802610
  H      -3.200733      2.984513    -10.937081
  H      -3.572061      4.735435    -11.097795
  H      -4.811571      3.505708    -11.527788
  C       0.764753      2.290653      3.563829
  H       1.187640      3.146523      4.141123
  H       0.111382      2.738462      2.779889
  C       1.913446      1.496616      2.877790
  H       2.478319      0.903013      3.639502
  H       2.644353      2.223857      2.453539
  C       1.409547      0.556879      1.747958
  H       0.898606      1.179973      0.973687
  H       0.621366     -0.121174      2.154206
  C       2.501483     -0.309885      1.066220
  H       2.995346     -0.952473      1.834470
  H       2.003449     -1.014699      0.356115
  C       3.577299      0.499452      0.292616
  H       3.068684      1.230315     -0.383550
  H       4.183927      1.104906      1.006847
  C       4.542958     -0.376626     -0.570158
  H       5.242138      0.293618     -1.118981
  H       3.936224     -0.896528     -1.352641
  C       5.309851     -1.417211      0.231344
  H       4.714616     -2.284025      0.582698
  C       6.620754     -1.381153      0.579122
  H       7.010356     -2.230077      1.176188
  C       7.640144     -0.312430      0.206747
  H       8.300378     -0.121655      1.088526
  H       7.135752      0.655548     -0.014751
  C       8.545373     -0.692227     -1.011032
  H       9.215982      0.173190     -1.227262
  H       7.899897     -0.822387     -1.914195
  C       9.390024     -1.975326     -0.799754
  H      10.010693     -1.861610      0.124853
  H       8.703968     -2.833169     -0.605190
  C      10.316178     -2.344309     -1.992251
  H      10.735030     -3.365542     -1.815440
  H       9.698519     -2.424806     -2.919181
  C      11.497676     -1.362287     -2.223677
  H      12.035896     -1.221990     -1.254233
  H      11.108630     -0.353255     -2.504038
  C      12.519160     -1.823839     -3.299597
  H      13.399171     -1.134674     -3.280993
  H      12.919326     -2.831098     -3.020557
  C      11.964926     -1.879050     -4.748019
  H      11.105281     -2.589272     -4.799704
  H      11.547354     -0.877194     -5.018116
  C      13.030483     -2.296226     -5.791326
  H      13.448807     -3.304402     -5.560562
  H      12.605023     -2.337119     -6.820571
  H      13.886124     -1.580294     -5.810124
138
Coordinates from ORCA-job /wrk/rja7/qm_final_3_replicates/qm_final_1.1/qm/9/freq E -2722.577665371901
  N      -9.619709     -2.514280      6.916741
  C      -8.385286     -3.099058      6.142898
  H      -8.802352     -3.615456      5.248521
  H      -7.909737     -3.820017      6.837461
  C      -9.281769     -2.189321      8.389463
  H     -10.244168     -2.029000      8.919987
  H      -8.704978     -3.032437      8.816064
  H      -8.648261     -1.285196      8.429824
  C     -10.702170     -3.584773      6.907624
  H     -10.994687     -3.805394      5.860633
  H     -10.299416     -4.500921      7.385599
  H     -11.583174     -3.221011      7.476534
  C     -10.146037     -1.250227      6.244376
  H     -10.364377     -1.467415      5.178356
  H      -9.373868     -0.461700      6.330493
  H     -11.074298     -0.937828      6.766455
  C      -7.334788     -2.047046      5.706807
  H      -6.472231     -2.644796      5.309729
  H      -7.708604     -1.431052      4.854746
  P      -5.931645     -1.794440      8.055437
  O      -6.285713     -3.275091      8.206672
  O      -6.054692     -0.723338      9.126064
  O      -6.963943     -1.164349      6.752906
  O      -4.436489     -1.731050      7.260008
  C      -3.709678     -0.487561      7.259243
  H      -2.632762     -0.737741      7.116587
  H      -3.828811      0.041061      8.235664
  C      -4.168783      0.475358      6.135014
  H      -5.265624      0.645870      6.203400
  O      -3.853241     -0.174878      4.850692
  C      -4.780613     -0.183222      3.836846
  O      -5.882512      0.349547      3.886619
  C      -4.208940     -0.926379      2.620144
  H      -5.044982     -1.471380      2.124366
  H      -3.467674     -1.678463      2.973303
  C      -3.461556      1.849065      6.183765
  H      -3.576835      2.293735      7.197940
  H      -3.884354      2.542346      5.425568
  O      -2.020597      1.682162      5.959903
  C      -1.535333      1.987326      4.708775
  O      -2.172113      2.579673      3.845939
  C      -0.114847      1.435266      4.517238
  H       0.371901      1.280659      5.506027
  H      -0.270180      0.411490      4.093560
  C      -3.531322      0.044677      1.604573
  H      -2.858861      0.747888      2.146665
  H      -4.312601      0.681108      1.124149
  C      -2.706574     -0.702783      0.524452
  H      -3.367310     -1.397277     -0.052130
  H      -1.957736     -1.356728      1.037325
  C      -1.959431      0.250217     -0.444563
  H      -1.439003      1.034355      0.157822
  H      -2.697926      0.798879     -1.079705
  C      -0.921147     -0.466611     -1.343470
  H      -1.433767     -1.219686     -1.992532
  H      -0.224156     -1.051285     -0.694721
  C      -0.086798      0.497134     -2.226060
  H       0.406675      1.257902     -1.573341
  H      -0.759225      1.072548     -2.906995
  C       0.999105     -0.233538     -3.076526
  H       0.496063     -0.925540     -3.790957
  H       1.600832     -0.878355     -2.389785
  C       1.931249      0.724395     -3.799271
  H       2.675997      1.232561     -3.152135
  C       1.918473      1.042251     -5.118105
  H       2.657048      1.789683     -5.470586
  C       0.962209      0.498844     -6.173009
  H       0.650068     -0.540271     -5.918544
  H       1.496864      0.433492     -7.151643
  C      -0.326760      1.362823     -6.371628
  H      -0.904585      1.376502     -5.415293
  H      -0.975916      0.850461     -7.120946
  C      -0.050138      2.820535     -6.821901
  H       0.517356      2.806313     -7.786540
  H       0.623963      3.307796     -6.078364
  C      -1.320377      3.700974     -6.983264
  H      -1.001290      4.754337     -7.176981
  H      -1.873631      3.727229     -6.011312
  C      -2.290693      3.261600     -8.111508
  H      -2.679460      2.234818     -7.904575
  H      -1.721022      3.187228     -9.069482
  C      -3.495369      4.224713     -8.284386
  H      -3.116142      5.245615     -8.541525
  H      -4.011120      4.332639     -7.298827
  C      -4.538032      3.783935     -9.348830
  H      -5.410981      4.479417     -9.302443
  H      -4.939660      2.776414     -9.075523
  C      -4.001022      3.748839    -10.802360
  H      -3.201092      2.985106    -10.936986
  H      -3.572309      4.736070    -11.097545
  H      -4.811976      3.506459    -11.527433
  C       0.764598      2.291112      3.563225
  H       1.187482      3.146972      4.140536
  H       0.111226      2.738932      2.779292
  C       1.913283      1.497066      2.877180
  H       2.478128      0.903431      3.638888
  H       2.644210      2.224310      2.452968
  C       1.409363      0.557380      1.747317
  H       0.898587      1.180551      0.973000
  H       0.621044     -0.120563      2.153475
  C       2.501257     -0.309519      1.065674
  H       2.995043     -0.952092      1.833988
  H       2.003202     -1.014342      0.355596
  C       3.577188      0.499699      0.292110
  H       3.068670      1.230489     -0.384217
  H       4.183710      1.105244      1.006356
  C       4.542981     -0.376474     -0.570400
  H       5.242296      0.293696     -1.119144
  H       3.936394     -0.896428     -1.352965
  C       5.309682     -1.417013      0.231353
  H       4.714325     -2.283733      0.582732
  C       6.620531     -1.380992      0.579343
  H       7.009980     -2.229860      1.176588
  C       7.640054     -0.312385      0.206971
  H       8.300309     -0.121687      1.088749
  H       7.135773      0.655653     -0.014523
  C       8.545285     -0.692291     -1.010770
  H       9.216024      0.173037     -1.226958
  H       7.899852     -0.822380     -1.913973
  C       9.389760     -1.975495     -0.799407
  H      10.010330     -1.861859      0.125276
  H       8.703557     -2.833242     -0.604933
  C      10.316014     -2.344605     -1.991786
  H      10.734717     -3.365888     -1.814907
  H       9.698460     -2.425052     -2.918792
  C      11.497664     -1.362739     -2.223088
  H      12.035773     -1.222476     -1.253577
  H      11.108782     -0.353666     -2.503538
  C      12.519231     -1.824452     -3.298858
  H      13.399327     -1.135395     -3.280160
  H      12.919238     -2.831750     -3.019731
  C      11.965173     -1.879651     -4.747346
  H      11.105431     -2.589754     -4.799092
  H      11.547776     -0.877750     -5.017548
  C      13.030797     -2.297040     -5.790498
  H      13.448937     -3.305269     -5.559635
  H      12.605465     -2.337915     -6.819797
  H      13.886547     -1.581234     -5.809217
138
Coordinates from ORCA-job /wrk/rja7/qm_final_3_replicates/qm_final_1.1/qm/9/freq E -2722.577665380265
  N      -9.619622     -2.514177      6.916592
  C      -8.385181     -3.098945      6.142765
  H      -8.802236     -3.615227      5.248314
  H      -7.909729     -3.819996      6.837299
  C      -9.281721     -2.189247      8.389329
  H     -10.244130     -2.028898      8.919829
  H      -8.704947     -3.032375      8.815931
  H      -8.648196     -1.285136      8.429727
  C     -10.702084     -3.584679      6.907430
  H     -10.994571     -3.805272      5.860425
  H     -10.299331     -4.500834      7.385390
  H     -11.583097     -3.220923      7.476331
  C     -10.145947     -1.250123      6.244234
  H     -10.364325     -1.467312      5.178222
  H      -9.373772     -0.461597      6.330327
  H     -11.074186     -0.937695      6.766334
  C      -7.334600     -2.046955      5.706817
  H      -6.472064     -2.644729      5.309729
  H      -7.708356     -1.430896      4.854777
  P      -5.931539     -1.794591      8.055560
  O      -6.285781     -3.275217      8.206738
  O      -6.054566     -0.723536      9.126220
  O      -6.963742     -1.164359      6.752992
  O      -4.436358     -1.731296      7.260216
  C      -3.709459     -0.487862      7.259505
  H      -2.632558     -0.738110      7.116861
  H      -3.828580      0.040743      8.235938
  C      -4.168507      0.475120      6.135306
  H      -5.265346      0.645646      6.203685
  O      -3.852956     -0.175091      4.850965
  C      -4.780205     -0.183203      3.837012
  O      -5.882041      0.349705      3.886716
  C      -4.208467     -0.926276      2.620279
  H      -5.044442     -1.471429      2.124548
  H      -3.467058     -1.678229      2.973406
  C      -3.461268      1.848810      6.184115
  H      -3.576572      2.293488      7.198285
  H      -3.884049      2.542098      5.425913
  O      -2.020306      1.681900      5.960291
  C      -1.535017      1.987145      4.709195
  O      -2.171772      2.579578      3.846399
  C      -0.114550      1.435062      4.517623
  H       0.372233      1.280477      5.506398
  H      -0.269924      0.411275      4.093987
  C      -3.531079      0.044899      1.604670
  H      -2.858685      0.748207      2.146723
  H      -4.312492      0.681206      1.124303
  C      -2.706261     -0.702435      0.524505
  H      -3.366920     -1.397010     -0.052069
  H      -1.957330     -1.356291      1.037368
  C      -1.959256      0.250656     -0.444520
  H      -1.438862      1.034819      0.157868
  H      -2.697824      0.799291     -1.079599
  C      -0.920959     -0.466051     -1.343499
  H      -1.433559     -1.219105     -1.992601
  H      -0.223914     -1.050735     -0.694821
  C      -0.086682      0.497786     -2.226059
  H       0.406750      1.258572     -1.573333
  H      -0.759169      1.073172     -2.906960
  C       0.999242     -0.232792     -3.076591
  H       0.496209     -0.924847     -3.790977
  H       1.601099     -0.877538     -2.389895
  C       1.931235      0.725227     -3.799412
  H       2.675878      1.233564     -3.152286
  C       1.918470      1.042978     -5.118271
  H       2.656959      1.790495     -5.470758
  C       0.962353      0.499357     -6.173193
  H       0.650376     -0.539801     -5.918694
  H       1.497067      0.434044     -7.151798
  C      -0.326757      1.363112     -6.371920
  H      -0.904609      1.376764     -5.415603
  H      -0.975795      0.850584     -7.121227
  C      -0.050358      2.820835     -6.822314
  H       0.517132      2.806614     -7.786955
  H       0.623672      3.308253     -6.078816
  C      -1.320729      3.701074     -6.983761
  H      -1.001782      4.754461     -7.177578
  H      -1.873997      3.727347     -6.011818
  C      -2.290954      3.261470     -8.111986
  H      -2.679597      2.234653     -7.905000
  H      -1.721244      3.187115     -9.069940
  C      -3.495755      4.224414     -8.284973
  H      -3.116649      5.245357     -8.542122
  H      -4.011585      4.332312     -7.299451
  C      -4.538303      3.783463     -9.349453
  H      -5.411328      4.478854     -9.303149
  H      -4.939842      2.775914     -9.076117
  C      -4.001205      3.748347    -10.802949
  H      -3.201193      2.984684    -10.937492
  H      -3.572562      4.735600    -11.098158
  H      -4.812095      3.505851    -11.528054
  C       0.764873      2.290851      3.563542
  H       1.187920      3.146643      4.140833
  H       0.111463      2.738761      2.779693
  C       1.913414      1.496704      2.877363
  H       2.478264      0.902994      3.639008
  H       2.644368      2.223889      2.453102
  C       1.409294      0.557104      1.747522
  H       0.898531      1.180355      0.973265
  H       0.620936     -0.120781      2.153700
  C       2.501051     -0.309876      1.065762
  H       2.994859     -0.952507      1.834013
  H       2.002882     -1.014642      0.355707
  C       3.576964      0.499278      0.292113
  H       3.068431      1.230041     -0.384230
  H       4.183525      1.104856      1.006297
  C       4.542705     -0.376955     -0.570390
  H       5.242017      0.293175     -1.119186
  H       3.936078     -0.896930     -1.352912
  C       5.309398     -1.417478      0.231389
  H       4.714045     -2.284207      0.582753
  C       6.620222     -1.381403      0.579450
  H       7.009678     -2.230248      1.176722
  C       7.639705     -0.312732      0.207151
  H       8.299959     -0.122084      1.088940
  H       7.135389      0.655306     -0.014268
  C       8.544953     -0.692519     -1.010604
  H       9.215656      0.172851     -1.226734
  H       7.899541     -0.822598     -1.913823
  C       9.389475     -1.975695     -0.799287
  H      10.009993     -1.862096      0.125435
  H       8.703294     -2.833481     -0.604900
  C      10.315800     -2.344690     -1.991640
  H      10.734551     -3.365958     -1.814798
  H       9.698294     -2.425115     -2.918679
  C      11.497408     -1.362747     -2.222834
  H      12.035465     -1.222512     -1.253290
  H      11.108488     -0.353677     -2.503240
  C      12.519052     -1.824345     -3.298581
  H      13.399103     -1.135234     -3.279804
  H      12.919106     -2.831634     -3.019493
  C      11.965061     -1.879504     -4.747098
  H      11.105359     -2.589650     -4.798908
  H      11.547630     -0.877613     -5.017278
  C      13.030750     -2.296810     -5.790218
  H      13.448925     -3.305027     -5.559368
  H      12.605467     -2.337670     -6.819538
  H      13.886470     -1.580966     -5.808881
138
Coordinates from ORCA-job /wrk/rja7/qm_final_3_replicates/qm_final_1.1/qm/9/freq E -2722.577665384435
  N      -9.619831     -2.513976      6.916663
  C      -8.385423     -3.098855      6.142853
  H      -8.802516     -3.615138      5.248420
  H      -7.910025     -3.819911      6.837416
  C      -9.281907     -2.189050      8.389399
  H     -10.244310     -2.028643      8.919895
  H      -8.705177     -3.032200      8.816016
  H      -8.648335     -1.284973      8.429785
  C     -10.702362     -3.584411      6.907511
  H     -10.994861     -3.804994      5.860508
  H     -10.299648     -4.500584      7.385470
  H     -11.583350     -3.220600      7.476418
  C     -10.146060     -1.249897      6.244283
  H     -10.364471     -1.467098      5.178279
  H      -9.373826     -0.461426      6.330353
  H     -11.074269     -0.937387      6.766390
  C      -7.334774     -2.046944      5.706856
  H      -6.472250     -2.644792      5.309855
  H      -7.708490     -1.430950      4.854753
  P      -5.931728     -1.794497      8.055613
  O      -6.286008     -3.275113      8.206820
  O      -6.054838     -0.723415      9.126233
  O      -6.963901     -1.164290      6.752979
  O      -4.436511     -1.731210      7.260375
  C      -3.709624     -0.487769      7.259606
  H      -2.632718     -0.738036      7.117030
  H      -3.828788      0.040910      8.235994
  C      -4.168626      0.475114      6.135305
  H      -5.265468      0.645644      6.203635
  O      -3.853026     -0.175223      4.851035
  C      -4.780212     -0.183386      3.837021
  O      -5.882048      0.349533      3.886631
  C      -4.208386     -0.926481      2.620341
  H      -5.044304     -1.471712      2.124601
  H      -3.466942     -1.678368      2.973530
  C      -3.461393      1.848805      6.183985
  H      -3.576733      2.293605      7.198098
  H      -3.884150      2.542002      5.425688
  O      -2.020421      1.681862      5.960232
  C      -1.535090      1.987016      4.709131
  O      -2.171807      2.579419      3.846284
  C      -0.114630      1.434905      4.517617
  H       0.372093      1.280232      5.506407
  H      -0.270010      0.411152      4.093899
  C      -3.531034      0.044706      1.604723
  H      -2.858664      0.748049      2.146755
  H      -4.312478      0.680962      1.124338
  C      -2.706191     -0.702636      0.524576
  H      -3.366837     -1.397228     -0.051994
  H      -1.957273     -1.356477      1.037477
  C      -1.959195      0.250423     -0.444479
  H      -1.438777      1.034597      0.157878
  H      -2.697769      0.799066     -1.079544
  C      -0.920932     -0.466326     -1.343458
  H      -1.433555     -1.219363     -1.992560
  H      -0.223900     -1.051020     -0.694775
  C      -0.086626      0.497458     -2.226054
  H       0.406867      1.258227     -1.573355
  H      -0.759108      1.072877     -2.906933
  C       0.999223     -0.233206     -3.076611
  H       0.496102     -0.925193     -3.791003
  H       1.601048     -0.878009     -2.389943
  C       1.931292      0.724732     -3.799438
  H       2.675988      1.232993     -3.152314
  C       1.918561      1.042483     -5.118295
  H       2.657124      1.789931     -5.470772
  C       0.962382      0.498973     -6.173214
  H       0.650322     -0.540168     -5.918738
  H       1.497069      0.433637     -7.151831
  C      -0.326653      1.362847     -6.371893
  H      -0.904524      1.376480     -5.415588
  H      -0.975718      0.850424     -7.121249
  C      -0.050127      2.820573     -6.822204
  H       0.517393      2.806351     -7.786826
  H       0.623921      3.307901     -6.078661
  C      -1.320426      3.700917     -6.983653
  H      -1.001388      4.754277     -7.177465
  H      -1.873704      3.727232     -6.011718
  C      -2.290669      3.261413     -8.111901
  H      -2.679425      2.234634     -7.904943
  H      -1.720944      3.187017     -9.069843
  C      -3.495368      4.224485     -8.284904
  H      -3.116140      5.245396     -8.541998
  H      -4.011234      4.332404     -7.299403
  C      -4.537914      3.783684     -9.349442
  H      -5.410868      4.479166     -9.303143
  H      -4.939575      2.776167     -9.076164
  C      -4.000761      3.748565    -10.802916
  H      -3.200822      2.984824    -10.937463
  H      -3.572003      4.735784    -11.098073
  H      -4.811650      3.506180    -11.528060
  C       0.764869      2.290729      3.563640
  H       1.187939      3.146454      4.141016
  H       0.111510      2.738724      2.779798
  C       1.913419      1.496592      2.877462
  H       2.478238      0.902850      3.639105
  H       2.644390      2.223785      2.453247
  C       1.409321      0.557030      1.747581
  H       0.898595      1.180314      0.973327
  H       0.620939     -0.120863      2.153698
  C       2.501105     -0.309932      1.065837
  H       2.994870     -0.952605      1.834080
  H       2.002975     -1.014660      0.355717
  C       3.577051      0.499255      0.292264
  H       3.068536      1.229975     -0.384137
  H       4.183523      1.104880      1.006484
  C       4.542895     -0.376939     -0.570167
  H       5.242205      0.293223     -1.118924
  H       3.936335     -0.896946     -1.352721
  C       5.309600     -1.417420      0.231649
  H       4.714264     -2.284154      0.583031
  C       6.620426     -1.381317      0.579689
  H       7.009911     -2.230147      1.176966
  C       7.639881     -0.312630      0.207352
  H       8.300236     -0.122061      1.089082
  H       7.135549      0.655428     -0.013943
  C       8.544995     -0.692332     -1.010527
  H       9.215669      0.173059     -1.226669
  H       7.899489     -0.822362     -1.913686
  C       9.389549     -1.975515     -0.799385
  H      10.010178     -1.861969      0.125270
  H       8.703390     -2.833311     -0.604963
  C      10.315733     -2.344435     -1.991868
  H      10.734529     -3.365702     -1.815119
  H       9.698114     -2.424832     -2.918834
  C      11.497291     -1.362457     -2.223164
  H      12.035465     -1.222255     -1.253679
  H      11.108318     -0.353381     -2.503471
  C      12.518813     -1.823988     -3.299055
  H      13.398854     -1.134862     -3.280350
  H      12.918920     -2.831284     -3.020067
  C      11.964653     -1.879091     -4.747511
  H      11.104965     -2.589259     -4.799254
  H      11.547164     -0.877197     -5.017594
  C      13.030231     -2.296323     -5.790774
  H      13.448442     -3.304549     -5.560026
  H      12.604831     -2.337132     -6.820048
  H      13.885941     -1.580471     -5.809499
138
Coordinates from ORCA-job /wrk/rja7/qm_final_3_replicates/qm_final_1.1/qm/9/freq E -2722.577665386000
  N      -9.619806     -2.513982      6.916775
  C      -8.385411     -3.098845      6.142935
  H      -8.802522     -3.615110      5.248501
  H      -7.910001     -3.819916      6.837474
  C      -9.281850     -2.189036      8.389500
  H     -10.244243     -2.028638      8.920016
  H      -8.705100     -3.032174      8.816113
  H      -8.648287     -1.284953      8.429854
  C     -10.702315     -3.584440      6.907664
  H     -10.994829     -3.805045      5.860669
  H     -10.299565     -4.500596      7.385625
  H     -11.583296     -3.220640      7.476585
  C     -10.146071     -1.249923      6.244395
  H     -10.364511     -1.467146      5.178402
  H      -9.373849     -0.461437      6.330427
  H     -11.074269     -0.937418      6.766525
  C      -7.334767     -2.046921      5.706938
  H      -6.472247     -2.644757      5.309911
  H      -7.708506     -1.430909      4.854859
  P      -5.931668     -1.794558      8.055672
  O      -6.285988     -3.275166      8.206863
  O      -6.054714     -0.723494      9.126317
  O      -6.963877     -1.164293      6.753079
  O      -4.436480     -1.731287      7.260394
  C      -3.709588     -0.487846      7.259590
  H      -2.632688     -0.738125      7.116992
  H      -3.828724      0.040841      8.235976
  C      -4.168611      0.475019      6.135285
  H      -5.265455      0.645534      6.203623
  O      -3.853015     -0.175329      4.851019
  C      -4.780196     -0.183447      3.836998
  O      -5.882027      0.349482      3.886623
  C      -4.208388     -0.926516      2.620299
  H      -5.044302     -1.471767      2.124577
  H      -3.466903     -1.678381      2.973450
  C      -3.461401      1.848721      6.183935
  H      -3.576758      2.293542      7.198038
  H      -3.884167      2.541894      5.425622
  O      -2.020426      1.681795      5.960192
  C      -1.535085      1.986951      4.709095
  O      -2.171809      2.579320      3.846229
  C      -0.114606      1.434879      4.517606
  H       0.372107      1.280228      5.506405
  H      -0.269948      0.411114      4.093901
  C      -3.531101      0.044712      1.604675
  H      -2.858730      0.748061      2.146699
  H      -4.312583      0.680953      1.124331
  C      -2.706281     -0.702593      0.524487
  H      -3.366936     -1.397172     -0.052088
  H      -1.957358     -1.356449      1.037357
  C      -1.959303      0.250491     -0.444555
  H      -1.438894      1.034669      0.157807
  H      -2.697889      0.799135     -1.079606
  C      -0.921030     -0.466234     -1.343539
  H      -1.433637     -1.219246     -1.992681
  H      -0.224015     -1.050945     -0.694855
  C      -0.086694      0.497573     -2.226086
  H       0.406783      1.258319     -1.573347
  H      -0.759151      1.073016     -2.906968
  C       0.999186     -0.233075     -3.076614
  H       0.496088     -0.925043     -3.791039
  H       1.600989     -0.877886     -2.389933
  C       1.931285      0.724876     -3.799389
  H       2.675939      1.233150     -3.152227
  C       1.918628      1.042616     -5.118248
  H       2.657206      1.790069     -5.470685
  C       0.962514      0.499083     -6.173214
  H       0.650478     -0.540070     -5.918759
  H       1.497244      0.433768     -7.151809
  C      -0.326536      1.362919     -6.371939
  H      -0.904450      1.376528     -5.415660
  H      -0.975557      0.850482     -7.121323
  C      -0.050033      2.820652     -6.822232
  H       0.517502      2.806450     -7.786846
  H       0.623992      3.307993     -6.078677
  C      -1.320355      3.700963     -6.983690
  H      -1.001350      4.754332     -7.177510
  H      -1.873632      3.727263     -6.011754
  C      -2.290588      3.261421     -8.111934
  H      -2.679302      2.234628     -7.904968
  H      -1.720870      3.187042     -9.069881
  C      -3.495331      4.224440     -8.284926
  H      -3.116147      5.245368     -8.542019
  H      -4.011192      4.332332     -7.299419
  C      -4.537867      3.783591     -9.349455
  H      -5.410860      4.479022     -9.303134
  H      -4.939465      2.776049     -9.076181
  C      -4.000737      3.748523    -10.802938
  H      -3.200746      2.984841    -10.937510
  H      -3.572056      4.735775    -11.098096
  H      -4.811623      3.506087    -11.528069
  C       0.764883      2.290713      3.563626
  H       1.187990      3.146416      4.141007
  H       0.111505      2.738737      2.779816
  C       1.913403      1.496578      2.877395
  H       2.478221      0.902797      3.639009
  H       2.644384      2.223771      2.453197
  C       1.409279      0.557059      1.747489
  H       0.898566      1.180371      0.973248
  H       0.620878     -0.120819      2.153590
  C       2.501046     -0.309921      1.065739
  H       2.994803     -0.952602      1.833978
  H       2.002902     -1.014641      0.355620
  C       3.576996      0.499245      0.292147
  H       3.068483      1.229939     -0.384282
  H       4.183465      1.104892      1.006351
  C       4.542844     -0.376981     -0.570251
  H       5.242152      0.293161     -1.119036
  H       3.936282     -0.897019     -1.352783
  C       5.309546     -1.417434      0.231605
  H       4.714220     -2.284175      0.582985
  C       6.620362     -1.381299      0.579681
  H       7.009848     -2.230108      1.176986
  C       7.639806     -0.312601      0.207344
  H       8.300148     -0.122019      1.089081
  H       7.135464      0.655447     -0.013967
  C       8.544943     -0.692307     -1.010519
  H       9.215605      0.173091     -1.226667
  H       7.899451     -0.822364     -1.913684
  C       9.389512     -1.975475     -0.799343
  H      10.010139     -1.861898      0.125310
  H       8.703361     -2.833272     -0.604895
  C      10.315702     -2.344422     -1.991813
  H      10.734507     -3.365679     -1.815030
  H       9.698087     -2.424851     -2.918779
  C      11.497255     -1.362441     -2.223133
  H      12.035415     -1.222195     -1.253647
  H      11.108277     -0.353380     -2.503486
  C      12.518794     -1.824010     -3.298990
  H      13.398830     -1.134877     -3.280300
  H      12.918903     -2.831292     -3.019954
  C      11.964658     -1.879178     -4.747452
  H      11.104973     -2.589350     -4.799182
  H      11.547173     -0.877297     -5.017585
  C      13.030257     -2.296451     -5.790678
  H      13.448469     -3.304664     -5.559876
  H      12.604877     -2.337308     -6.819957
  H      13.885966     -1.580597     -5.809418
138
Coordinates from ORCA-job /wrk/rja7/qm_final_3_replicates/qm_final_1.1/qm/9/freq E -2722.577665386629
  N      -9.619825     -2.513964      6.916849
  C      -8.385440     -3.098832      6.142997
  H      -8.802562     -3.615100      5.248569
  H      -7.910020     -3.819904      6.837529
  C      -9.281856     -2.189017      8.389571
  H     -10.244245     -2.028618      8.920093
  H      -8.705106     -3.032156      8.816182
  H      -8.648288     -1.284936      8.429916
  C     -10.702336     -3.584420      6.907752
  H     -10.994862     -3.805030      5.860761
  H     -10.299582     -4.500574      7.385713
  H     -11.583311     -3.220617      7.476680
  C     -10.146090     -1.249906      6.244471
  H     -10.364543     -1.467135      5.178482
  H      -9.373862     -0.461425      6.330488
  H     -11.074280     -0.937395      6.766610
  C      -7.334797     -2.046911      5.706987
  H      -6.472283     -2.644749      5.309948
  H      -7.708545     -1.430893      4.854915
  P      -5.931676     -1.794565      8.055715
  O      -6.286011     -3.275168      8.206910
  O      -6.054705     -0.723494      9.126361
  O      -6.963893     -1.164285      6.753123
  O      -4.436499     -1.731307      7.260438
  C      -3.709607     -0.487863      7.259607
  H      -2.632707     -0.738144      7.117013
  H      -3.828742      0.040841      8.235982
  C      -4.168630      0.474975      6.135280
  H      -5.265475      0.645488      6.203611
  O      -3.853028     -0.175402      4.851030
  C      -4.780194     -0.183500      3.836992
  O      -5.882015      0.349451      3.886598
  C      -4.208382     -0.926572      2.620298
  H      -5.044288     -1.471845      2.124588
  H      -3.466873     -1.678416      2.973443
  C      -3.461427      1.848682      6.183905
  H      -3.576798      2.293526      7.197996
  H      -3.884187      2.541836      5.425572
  O      -2.020450      1.681755      5.960174
  C      -1.535095      1.986907      4.709082
  O      -2.171815      2.579263      3.846203
  C      -0.114608      1.434847      4.517612
  H       0.372091      1.280193      5.506417
  H      -0.269934      0.411083      4.093900
  C      -3.531129      0.044666      1.604658
  H      -2.858760      0.748025      2.146672
  H      -4.312631      0.680894      1.124332
  C      -2.706316     -0.702625      0.524456
  H      -3.366973     -1.397201     -0.052120
  H      -1.957389     -1.356487      1.037311
  C      -1.959347      0.250471     -0.444584
  H      -1.438945      1.034653      0.157776
  H      -2.697944      0.799109     -1.079628
  C      -0.921075     -0.466244     -1.343579
  H      -1.433680     -1.219241     -1.992740
  H      -0.224068     -1.050968     -0.694898
  C      -0.086726      0.497574     -2.226106
  H       0.406747      1.258306     -1.573347
  H      -0.759172      1.073030     -2.906987
  C       0.999163     -0.233068     -3.076623
  H       0.496074     -0.925019     -3.791070
  H       1.600943     -0.877892     -2.389935
  C       1.931294      0.724883     -3.799362
  H       2.675919      1.233163     -3.152173
  C       1.918691      1.042616     -5.118225
  H       2.657288      1.790063     -5.470635
  C       0.962610      0.499082     -6.173223
  H       0.650581     -0.540077     -5.918784
  H       1.497366      0.433778     -7.151804
  C      -0.326442      1.362907     -6.371976
  H      -0.904382      1.376509     -5.415712
  H      -0.975442      0.850469     -7.121378
  C      -0.049937      2.820644     -6.822258
  H       0.517598      2.806448     -7.786873
  H       0.624090      3.307979     -6.078703
  C      -1.320256      3.700960     -6.983704
  H      -1.001251      4.754328     -7.177529
  H      -1.873521      3.727261     -6.011761
  C      -2.290510      3.261419     -8.111934
  H      -2.679229      2.234631     -7.904950
  H      -1.720808      3.187025     -9.069888
  C      -3.495248      4.224445     -8.284915
  H      -3.116062      5.245372     -8.542013
  H      -4.011100      4.332337     -7.299405
  C      -4.537793      3.783598     -9.349438
  H      -5.410789      4.479024     -9.303108
  H      -4.939383      2.776052     -9.076164
  C      -4.000677      3.748537    -10.802927
  H      -3.200679      2.984865    -10.937509
  H      -3.572011      4.735795    -11.098087
  H      -4.811567      3.506094    -11.528050
  C       0.764887      2.290692      3.563645
  H       1.188008      3.146380      4.141037
  H       0.111506      2.738735      2.779848
  C       1.913394      1.496560      2.877389
  H       2.478202      0.902748      3.638986
  H       2.644386      2.223755      2.453214
  C       1.409259      0.557080      1.747456
  H       0.898554      1.180418      0.973229
  H       0.620843     -0.120791      2.153542
  C       2.501012     -0.309904      1.065690
  H       2.994765     -0.952596      1.833922
  H       2.002859     -1.014614      0.355566
  C       3.576967      0.499256      0.292096
  H       3.068453      1.229937     -0.384345
  H       4.183426      1.104915      1.006298
  C       4.542823     -0.376979     -0.570284
  H       5.242127      0.293158     -1.119079
  H       3.936267     -0.897037     -1.352809
  C       5.309530     -1.417414      0.231592
  H       4.714212     -2.284156      0.582983
  C       6.620345     -1.381258      0.579678
  H       7.009837     -2.230050      1.177003
  C       7.639779     -0.312555      0.207324
  H       8.300126     -0.121963      1.089055
  H       7.135429      0.655487     -0.013992
  C       8.544913     -0.692266     -1.010543
  H       9.215567      0.173135     -1.226704
  H       7.899417     -0.822335     -1.913704
  C       9.389489     -1.975430     -0.799360
  H      10.010120     -1.861841      0.125288
  H       8.703342     -2.833227     -0.604899
  C      10.315676     -2.344384     -1.991831
  H      10.734486     -3.365638     -1.815041
  H       9.698058     -2.424825     -2.918795
  C      11.497224     -1.362401     -2.223165
  H      12.035380     -1.222134     -1.253679
  H      11.108241     -0.353347     -2.503539
  C      12.518770     -1.823985     -3.299009
  H      13.398804     -1.134849     -3.280327
  H      12.918880     -2.831261     -3.019952
  C      11.964642     -1.879178     -4.747473
  H      11.104957     -2.589351     -4.799198
  H      11.547156     -0.877302     -5.017624
  C      13.030248     -2.296462     -5.790686
  H      13.448466     -3.304669     -5.559866
  H      12.604873     -2.337340     -6.819967
  H      13.885953     -1.580603     -5.809433
