138
Coordinates from ORCA-job /wrk/rja7/qm_final_3_replicates/qm_final_1.1/qm/2/freq E -2722.315410397530
  N       1.973000     -0.550000     12.217000
  C       1.273000      0.717000     11.974000
  H       1.352000      1.442000     12.771000
  H       0.241000      0.462000     11.782000
  C       1.569000     -1.224000     13.570000
  H       0.510000     -1.102000     13.746000
  H       1.919000     -2.243000     13.644000
  H       1.884000     -0.628000     14.414000
  C       3.475000     -0.497000     12.063000
  H       3.842000     -1.370000     12.582000
  H       3.787000     -0.491000     11.029000
  H       3.870000      0.339000     12.620000
  C       1.498000     -1.613000     11.163000
  H       1.926000     -1.575000     10.172000
  H       0.463000     -1.408000     10.932000
  H       1.529000     -2.579000     11.644000
  C       1.638000      1.582000     10.731000
  H       1.268000      2.617000     10.893000
  H       2.745000      1.608000     10.636000
  P      -0.482000      1.186000      9.368000
  O      -0.801000      2.581000      9.498000
  O      -1.190000      0.221000     10.239000
  O       1.111000      0.948000      9.548000
  O      -0.726000      0.706000      7.828000
  C      -0.082000     -0.428000      7.297000
  H      -0.252000     -1.348000      7.895000
  H       1.022000     -0.334000      7.211000
  C      -0.627000     -0.757000      5.801000
  H      -0.387000      0.135000      5.185000
  O      -2.055000     -1.148000      5.910000
  C      -2.791000     -0.936000      4.796000
  O      -2.359000     -0.295000      3.830000
  C      -4.193000     -1.487000      4.940000
  H      -4.828000     -0.814000      5.555000
  H      -4.191000     -2.346000      5.644000
  C       0.212000     -2.032000      5.334000
  H      -0.163000     -2.773000      6.072000
  H       1.298000     -1.836000      5.461000
  O      -0.156000     -2.516000      4.033000
  C       0.234000     -1.730000      3.009000
  O       0.968000     -0.793000      3.139000
  C      -0.621000     -2.283000      1.806000
  H      -0.921000     -3.343000      1.949000
  H      -1.574000     -1.714000      1.828000
  C      -4.971000     -1.662000      3.622000
  H      -5.895000     -2.126000      4.030000
  H      -4.405000     -2.324000      2.933000
  C      -5.298000     -0.328000      2.840000
  H      -4.357000      0.179000      2.539000
  H      -5.769000      0.401000      3.534000
  C      -6.321000     -0.390000      1.657000
  H      -7.360000     -0.681000      1.923000
  H      -5.809000     -1.099000      0.972000
  C      -6.341000      0.933000      0.940000
  H      -5.395000      1.142000      0.397000
  H      -6.407000      1.786000      1.649000
  C      -7.593000      0.964000      0.000000
  H      -8.407000      1.594000      0.418000
  H      -8.051000     -0.038000     -0.139000
  C      -7.289000      1.525000     -1.360000
  H      -6.638000      2.421000     -1.273000
  H      -8.184000      1.926000     -1.881000
  C      -6.610000      0.524000     -2.186000
  H      -6.945000     -0.517000     -2.061000
  C      -5.383000      0.738000     -2.754000
  H      -5.039000     -0.086000     -3.396000
  C      -4.579000      2.008000     -2.895000
  H      -3.799000      2.076000     -2.106000
  H      -5.171000      2.939000     -2.765000
  C      -3.964000      2.153000     -4.293000
  H      -4.678000      2.200000     -5.143000
  H      -3.340000      1.260000     -4.511000
  C      -3.045000      3.394000     -4.378000
  H      -2.465000      3.285000     -5.320000
  H      -2.358000      3.403000     -3.505000
  C      -3.819000      4.758000     -4.559000
  H      -3.089000      5.591000     -4.644000
  H      -4.498000      4.934000     -3.698000
  C      -4.520000      4.702000     -5.901000
  H      -5.617000      4.670000     -5.729000
  H      -4.234000      3.792000     -6.472000
  C      -4.473000      5.925000     -6.774000
  H      -3.430000      6.115000     -7.108000
  H      -4.832000      6.858000     -6.288000
  C      -5.408000      5.754000     -7.929000
  H      -6.357000      6.092000     -7.460000
  H      -5.535000      4.682000     -8.191000
  C      -5.053000      6.491000     -9.170000
  H      -5.931000      6.546000     -9.849000
  H      -4.226000      5.918000     -9.641000
  H      -4.653000      7.499000     -8.930000
  C       0.016000     -2.070000      0.438000
  H       0.387000     -1.029000      0.325000
  H      -0.635000     -2.388000     -0.405000
  C       1.285000     -3.010000      0.236000
  H       1.261000     -4.036000      0.661000
  H       2.119000     -2.607000      0.849000
  C       1.693000     -3.025000     -1.303000
  H       1.840000     -1.941000     -1.498000
  H       0.765000     -3.432000     -1.757000
  C       3.037000     -3.675000     -1.616000
  H       3.849000     -3.021000     -1.231000
  H       3.153000     -4.697000     -1.197000
  C       3.476000     -3.875000     -3.083000
  H       4.379000     -4.503000     -3.239000
  H       2.575000     -4.413000     -3.448000
  C       3.642000     -2.545000     -3.878000
  H       4.336000     -1.773000     -3.481000
  H       2.700000     -1.982000     -4.050000
  C       3.969000     -3.040000     -5.269000
  H       4.244000     -4.104000     -5.299000
  C       3.760000     -2.337000     -6.469000
  H       4.386000     -2.800000     -7.246000
  C       3.301000     -0.974000     -6.675000
  H       3.353000     -0.366000     -5.746000
  H       2.246000     -1.047000     -7.015000
  C       4.021000     -0.182000     -7.930000
  H       3.703000      0.878000     -7.838000
  H       3.487000     -0.524000     -8.843000
  C       5.537000     -0.403000     -7.990000
  H       5.777000     -1.381000     -8.460000
  H       5.857000      0.305000     -8.784000
  C       6.385000     -0.105000     -6.795000
  H       6.262000      0.912000     -6.365000
  H       6.140000     -0.816000     -5.978000
  C       7.873000     -0.337000     -6.965000
  H       8.526000     -0.037000     -6.118000
  H       8.124000      0.218000     -7.895000
  C       8.299000     -1.813000     -7.289000
  H       7.787000     -2.381000     -6.482000
  H       7.927000     -2.147000     -8.281000
  C       9.808000     -2.046000     -7.127000
  H      10.032000     -1.630000     -6.121000
  H       9.895000     -3.147000     -7.009000
  C      10.773000     -1.402000     -8.135000
  H      11.822000     -1.569000     -7.810000
  H      10.626000     -1.670000     -9.203000
  H      10.533000     -0.318000     -8.089000
138
Coordinates from ORCA-job /wrk/rja7/qm_final_3_replicates/qm_final_1.1/qm/2/freq E -2722.388778627800
  N       1.983438     -0.533684     12.217131
  C       1.324922      0.768937     11.974708
  H       1.457320      1.498251     12.778037
  H       0.264090      0.555204     11.812761
  C       1.586647     -1.156536     13.583170
  H       0.523695     -0.984875     13.768518
  H       1.896804     -2.196902     13.667116
  H       1.965867     -0.546171     14.407739
  C       3.490130     -0.546075     12.034063
  H       3.845226     -1.437011     12.555258
  H       3.776957     -0.562247     10.983583
  H       3.933061      0.291878     12.575698
  C       1.434387     -1.581026     11.182782
  H       1.864879     -1.549977     10.181706
  H       0.391536     -1.323445     10.973389
  H       1.436948     -2.558674     11.663256
  C       1.717126      1.578634     10.698898
  H       1.394248      2.632974     10.841497
  H       2.824277      1.556266     10.577940
  P      -0.459198      1.214114      9.358411
  O      -0.747895      2.645484      9.458166
  O      -1.173047      0.255552     10.268894
  O       1.153833      0.940554      9.538850
  O      -0.693303      0.703023      7.811385
  C      -0.062734     -0.450168      7.302791
  H      -0.253548     -1.360915      7.918042
  H       1.046428     -0.369646      7.224419
  C      -0.599782     -0.778427      5.822264
  H      -0.348720      0.103840      5.198969
  O      -2.029163     -1.133235      5.933274
  C      -2.784784     -0.917678      4.822641
  O      -2.367204     -0.303034      3.837715
  C      -4.197743     -1.443071      5.000953
  H      -4.800662     -0.738627      5.620943
  H      -4.196150     -2.297315      5.713955
  C       0.199091     -2.069824      5.351355
  H      -0.177710     -2.819995      6.080299
  H       1.290990     -1.901257      5.467820
  O      -0.184870     -2.535606      4.042156
  C       0.215170     -1.754495      2.994505
  O       0.981193     -0.827267      3.108086
  C      -0.640691     -2.258301      1.780392
  H      -0.971474     -3.310776      1.910097
  H      -1.577077     -1.657168      1.810598
  C      -5.010318     -1.640089      3.698997
  H      -5.942022     -2.083794      4.116245
  H      -4.468806     -2.328125      3.012952
  C      -5.329691     -0.320685      2.908646
  H      -4.388269      0.170201      2.583345
  H      -5.782280      0.425338      3.603711
  C      -6.354185     -0.412834      1.729239
  H      -7.386667     -0.703101      2.019461
  H      -5.857317     -1.143944      1.051175
  C      -6.395310      0.906174      0.971058
  H      -5.451630      1.100244      0.415778
  H      -6.459001      1.772731      1.668119
  C      -7.639528      0.935603      0.017644
  H      -8.452394      1.576263      0.428273
  H      -8.100745     -0.068970     -0.106716
  C      -7.316380      1.481023     -1.366204
  H      -6.663022      2.377596     -1.280555
  H      -8.213727      1.878822     -1.894826
  C      -6.623696      0.463811     -2.199810
  H      -6.966798     -0.578046     -2.074690
  C      -5.399225      0.657836     -2.775474
  H      -5.056293     -0.177581     -3.411487
  C      -4.587896      1.925895     -2.926659
  H      -3.804818      1.994376     -2.136991
  H      -5.185272      2.855732     -2.794871
  C      -3.959320      2.063100     -4.326798
  H      -4.682140      2.102342     -5.170637
  H      -3.336053      1.164187     -4.537814
  C      -3.032269      3.305274     -4.429121
  H      -2.450720      3.189995     -5.371464
  H      -2.340132      3.318201     -3.558632
  C      -3.799650      4.674603     -4.597291
  H      -3.056189      5.498649     -4.677714
  H      -4.462527      4.847544     -3.722279
  C      -4.553569      4.664931     -5.931561
  H      -5.648722      4.644651     -5.723740
  H      -4.308298      3.764909     -6.536354
  C      -4.473535      5.918986     -6.788178
  H      -3.425137      6.078619     -7.134737
  H      -4.782957      6.847063     -6.256571
  C      -5.434418      5.826899     -7.964640
  H      -6.381849      6.182510     -7.497794
  H      -5.601068      4.767896     -8.265489
  C      -5.046804      6.616362     -9.189171
  H      -5.917185      6.730615     -9.871473
  H      -4.233188      6.051130     -9.696217
  H      -4.627456      7.608094     -8.909397
  C       0.014134     -2.041231      0.414079
  H       0.407994     -1.006321      0.322020
  H      -0.653484     -2.320573     -0.430905
  C       1.262340     -2.995498      0.192343
  H       1.201544     -4.029546      0.602098
  H       2.108021     -2.617455      0.812178
  C       1.673634     -3.006620     -1.341433
  H       1.851964     -1.926394     -1.540232
  H       0.744581     -3.385029     -1.821394
  C       2.992006     -3.715548     -1.646311
  H       3.830820     -3.100223     -1.246492
  H       3.057964     -4.743300     -1.222586
  C       3.391747     -3.924532     -3.134691
  H       4.263685     -4.593823     -3.295580
  H       2.466766     -4.421364     -3.507322
  C       3.606498     -2.604749     -3.938403
  H       4.337278     -1.870842     -3.528620
  H       2.677536     -2.008727     -4.083340
  C       3.934183     -3.055908     -5.358552
  H       4.185654     -4.125751     -5.440240
  C       3.755459     -2.310800     -6.518294
  H       4.357225     -2.757632     -7.329594
  C       3.328107     -0.909448     -6.658165
  H       3.398823     -0.346554     -5.701374
  H       2.265399     -0.932199     -6.993378
  C       4.069555     -0.081868     -7.860040
  H       3.783176      0.982616     -7.711618
  H       3.532840     -0.364116     -8.792943
  C       5.584696     -0.323005     -7.939394
  H       5.810507     -1.280817     -8.457853
  H       5.926716      0.422536     -8.696869
  C       6.426174     -0.108707     -6.706784
  H       6.303230      0.887073     -6.225020
  H       6.152523     -0.861294     -5.930853
  C       7.926506     -0.339988     -6.888187
  H       8.565852     -0.084838     -6.015830
  H       8.199142      0.270318     -7.781603
  C       8.337576     -1.807559     -7.279191
  H       7.813761     -2.421196     -6.510275
  H       7.968051     -2.083267     -8.291209
  C       9.850856     -2.072537     -7.129840
  H      10.093986     -1.716054     -6.102588
  H       9.939104     -3.181191     -7.076575
  C      10.809755     -1.384494     -8.118832
  H      11.863778     -1.577996     -7.825326
  H      10.638839     -1.606905     -9.195114
  H      10.597465     -0.295962     -8.022383
138
Coordinates from ORCA-job /wrk/rja7/qm_final_3_replicates/qm_final_1.1/qm/2/freq E -2722.440717989340
  N       1.976747     -0.524449     12.221761
  C       1.357218      0.812045     11.975764
  H       1.532836      1.535218     12.788899
  H       0.276330      0.636098     11.835289
  C       1.579080     -1.100314     13.595221
  H       0.514550     -0.887527     13.776906
  H       1.852947     -2.156611     13.691895
  H       2.011283     -0.481026     14.399053
  C       3.485667     -0.591813     12.026811
  H       3.826746     -1.497069     12.549918
  H       3.757081     -0.624665     10.965929
  H       3.962663      0.246072     12.556965
  C       1.372199     -1.555159     11.200133
  H       1.818194     -1.526223     10.198364
  H       0.328702     -1.252370     11.001210
  H       1.348586     -2.541905     11.678407
  C       1.778351      1.571776     10.675695
  H       1.495292      2.640980     10.801690
  H       2.883537      1.508334     10.537254
  P      -0.448695      1.242468      9.351203
  O      -0.708755      2.707903      9.426669
  O      -1.164039      0.282944     10.297318
  O       1.188687      0.935778      9.533848
  O      -0.669597      0.705868      7.794416
  C      -0.045543     -0.462744      7.307197
  H      -0.252796     -1.363314      7.939106
  H       1.067563     -0.387973      7.240381
  C      -0.571314     -0.792916      5.843179
  H      -0.316385      0.081181      5.210100
  O      -1.999314     -1.118315      5.953672
  C      -2.766906     -0.897362      4.843359
  O      -2.357030     -0.304080      3.847258
  C      -4.189654     -1.399789      5.045527
  H      -4.762463     -0.667312      5.667155
  H      -4.191487     -2.252393      5.762630
  C       0.198058     -2.091825      5.369755
  H      -0.171534     -2.855752      6.088996
  H       1.294566     -1.940853      5.473840
  O      -0.199488     -2.549378      4.057273
  C       0.197968     -1.774442      2.987258
  O       0.981713     -0.850541      3.079662
  C      -0.650432     -2.245918      1.770024
  H      -0.996257     -3.294692      1.893681
  H      -1.577495     -1.626840      1.807629
  C      -5.026563     -1.616115      3.755798
  H      -5.967081     -2.044093      4.172503
  H      -4.502607     -2.327154      3.077251
  C      -5.339978     -0.310267      2.957769
  H      -4.399386      0.170658      2.614665
  H      -5.782342      0.447653      3.651332
  C      -6.356077     -0.439051      1.777231
  H      -7.381629     -0.736376      2.086326
  H      -5.868081     -1.187451      1.108181
  C      -6.426046      0.872966      0.982250
  H      -5.483824      1.059691      0.419499
  H      -6.497465      1.749262      1.669181
  C      -7.658939      0.889796      0.013908
  H      -8.477193      1.531702      0.415517
  H      -8.112488     -0.121658     -0.098377
  C      -7.320248      1.424458     -1.387323
  H      -6.673784      2.327442     -1.299919
  H      -8.222584      1.808979     -1.922718
  C      -6.606590      0.400371     -2.225226
  H      -6.950344     -0.644275     -2.100796
  C      -5.387024      0.585249     -2.807042
  H      -5.035591     -0.256853     -3.435379
  C      -4.581970      1.859949     -2.965942
  H      -3.797935      1.936082     -2.174714
  H      -5.195892      2.780156     -2.831323
  C      -3.938494      1.996874     -4.365380
  H      -4.670082      2.021110     -5.203522
  H      -3.306724      1.099278     -4.567987
  C      -3.017216      3.247857     -4.480418
  H      -2.430423      3.133150     -5.421370
  H      -2.322231      3.270876     -3.611027
  C      -3.788492      4.612912     -4.632587
  H      -3.039700      5.434600     -4.704830
  H      -4.439927      4.776110     -3.746334
  C      -4.587118      4.641523     -5.956116
  H      -5.678823      4.620923     -5.719410
  H      -4.371241      3.754873     -6.592809
  C      -4.475761      5.923776     -6.790056
  H      -3.423957      6.061471     -7.143190
  H      -4.745872      6.838787     -6.213698
  C      -5.448534      5.904339     -7.984686
  H      -6.399339      6.270894     -7.528701
  H      -5.642575      4.860088     -8.324380
  C      -5.022375      6.747745     -9.180933
  H      -5.878185      6.915569     -9.871352
  H      -4.212489      6.201629     -9.716970
  H      -4.597440      7.724045     -8.854668
  C       0.015941     -2.023974      0.403654
  H       0.414579     -0.989688      0.325141
  H      -0.668463     -2.278015     -0.436869
  C       1.257261     -2.972405      0.166166
  H       1.174347     -4.010774      0.567940
  H       2.108620     -2.601368      0.787167
  C       1.669337     -2.986218     -1.361048
  H       1.862028     -1.910160     -1.575411
  H       0.747520     -3.354770     -1.865586
  C       2.969602     -3.739173     -1.655041
  H       3.826321     -3.150513     -1.247862
  H       2.999000     -4.764717     -1.217887
  C       3.325122     -3.961499     -3.159852
  H       4.173092     -4.661496     -3.322745
  H       2.384433     -4.431526     -3.534305
  C       3.566093     -2.658290     -3.979046
  H       4.324008     -1.951735     -3.565072
  H       2.642485     -2.045448     -4.096587
  C       3.899368     -3.079651     -5.415862
  H       4.140661     -4.151828     -5.531551
  C       3.742840     -2.314219     -6.546839
  H       4.320660     -2.743880     -7.388478
  C       3.333072     -0.885312     -6.639634
  H       3.417875     -0.354253     -5.665607
  H       2.263900     -0.875451     -6.962913
  C       4.083883     -0.038677     -7.800935
  H       3.820654      1.027256     -7.613878
  H       3.548088     -0.281633     -8.746542
  C       5.600809     -0.282000     -7.901627
  H       5.822506     -1.224508     -8.451156
  H       5.954335      0.489321     -8.632827
  C       6.435196     -0.124016     -6.641654
  H       6.301025      0.855353     -6.126983
  H       6.143895     -0.904550     -5.896841
  C       7.947492     -0.339308     -6.836274
  H       8.571939     -0.106765     -5.946002
  H       8.231408      0.312339     -7.699182
  C       8.354589     -1.796488     -7.271736
  H       7.829159     -2.447759     -6.532821
  H       7.985466     -2.031851     -8.295132
  C       9.873687     -2.074844     -7.142188
  H      10.140003     -1.760927     -6.104457
  H       9.976597     -3.185349     -7.138976
  C      10.810232     -1.349216     -8.129427
  H      11.873633     -1.550898     -7.876235
  H      10.607047     -1.547919     -9.205834
  H      10.617939     -0.258837     -8.000693
138
Coordinates from ORCA-job /wrk/rja7/qm_final_3_replicates/qm_final_1.1/qm/2/freq E -2722.489147681947
  N       1.939639     -0.521884     12.233807
  C       1.382679      0.860372     11.975166
  H       1.609378      1.560976     12.806929
  H       0.283270      0.736705     11.856290
  C       1.527271     -1.024563     13.617653
  H       0.462102     -0.765666     13.777109
  H       1.751532     -2.096418     13.740078
  H       2.023111     -0.399751     14.390962
  C       3.449579     -0.655769     12.048559
  H       3.765100     -1.576708     12.576063
  H       3.714806     -0.707753     10.980750
  H       3.957878      0.182327     12.565627
  C       1.275226     -1.529520     11.223801
  H       1.758953     -1.509326     10.232675
  H       0.239226     -1.172211     11.023687
  H       1.220122     -2.523255     11.701610
  C       1.849188      1.555346     10.651922
  H       1.611978      2.640310     10.756253
  H       2.951167      1.445449     10.505148
  P      -0.430408      1.268680      9.341022
  O      -0.657736      2.764999      9.398195
  O      -1.137408      0.298732     10.318530
  O       1.238797      0.928908      9.524043
  O      -0.630754      0.713121      7.770857
  C      -0.008379     -0.471853      7.309327
  H      -0.232717     -1.357128      7.963153
  H       1.107996     -0.394288      7.260673
  C      -0.519500     -0.805702      5.867520
  H      -0.272137      0.059589      5.218410
  O      -1.947082     -1.095491      5.977268
  C      -2.728958     -0.860477      4.871003
  O      -2.325956     -0.292904      3.861711
  C      -4.162972     -1.330811      5.104293
  H      -4.692052     -0.563161      5.726875
  H      -4.167484     -2.187060      5.818607
  C       0.217628     -2.106763      5.385192
  H      -0.129005     -2.896024      6.089684
  H       1.319600     -1.971201      5.464548
  O      -0.199973     -2.557248      4.072051
  C       0.187378     -1.790462      2.979518
  O       0.993241     -0.877481      3.045228
  C      -0.650131     -2.224515      1.761125
  H      -1.009559     -3.270481      1.877830
  H      -1.566554     -1.587200      1.811016
  C      -5.024821     -1.568973      3.829592
  H      -5.977336     -1.983908      4.234624
  H      -4.519475     -2.308063      3.164716
  C      -5.333859     -0.281305      3.017489
  H      -4.393601      0.188345      2.656156
  H      -5.772943      0.489269      3.702816
  C      -6.325357     -0.469485      1.829602
  H      -7.339989     -0.785736      2.160096
  H      -5.845931     -1.239981      1.176986
  C      -6.444659      0.825510      0.987302
  H      -5.502216      1.010819      0.421659
  H      -6.540676      1.712680      1.659287
  C      -7.656573      0.803929     -0.004951
  H      -8.493940      1.432611      0.380410
  H      -8.080902     -0.223987     -0.100226
  C      -7.300939      1.326359     -1.422894
  H      -6.682574      2.249847     -1.332740
  H      -8.214239      1.671300     -1.970582
  C      -6.541909      0.305528     -2.253313
  H      -6.875070     -0.745765     -2.130999
  C      -5.331706      0.496881     -2.844902
  H      -4.948665     -0.352293     -3.449722
  C      -4.557387      1.792588     -3.019893
  H      -3.775455      1.895023     -2.226135
  H      -5.209506      2.687348     -2.886043
  C      -3.894375      1.928443     -4.416216
  H      -4.639890      1.912535     -5.244164
  H      -3.238759      1.041498     -4.599241
  C      -3.004875      3.203450     -4.557825
  H      -2.408513      3.094701     -5.495167
  H      -2.305149      3.255676     -3.691721
  C      -3.800655      4.548858     -4.688451
  H      -3.058951      5.379110     -4.750617
  H      -4.434945      4.694037     -3.785680
  C      -4.661535      4.610391     -5.987763
  H      -5.744946      4.568624     -5.712877
  H      -4.470354      3.742700     -6.660174
  C      -4.526309      5.921787     -6.795062
  H      -3.473994      6.043462     -7.156891
  H      -4.754186      6.812105     -6.161940
  C      -5.510368      5.980837     -8.001956
  H      -6.471137      6.349340     -7.565471
  H      -5.721167      4.955021     -8.388760
  C      -5.046869      6.892068     -9.154742
  H      -5.883891      7.112185     -9.854793
  H      -4.229835      6.387898     -9.722307
  H      -4.637159      7.854859     -8.770454
  C       0.027532     -1.993270      0.394896
  H       0.419327     -0.954960      0.334488
  H      -0.685280     -2.210439     -0.433274
  C       1.260795     -2.929148      0.130764
  H       1.144418     -3.972531      0.518029
  H       2.122004     -2.567695      0.747359
  C       1.663907     -2.943361     -1.388538
  H       1.874044     -1.875140     -1.630031
  H       0.751995     -3.296731     -1.924875
  C       2.931731     -3.759231     -1.687547
  H       3.817644     -3.216029     -1.275931
  H       2.907860     -4.778337     -1.232959
  C       3.212554     -3.991297     -3.211635
  H       4.021527     -4.735791     -3.384294
  H       2.251191     -4.418865     -3.589872
  C       3.499555     -2.706495     -4.038135
  H       4.300219     -2.055098     -3.608428
  H       2.592640     -2.060197     -4.103062
  C       3.832940     -3.078337     -5.494928
  H       4.047991     -4.152320     -5.664731
  C       3.717265     -2.268378     -6.584014
  H       4.232685     -2.672099     -7.480341
  C       3.360269     -0.802251     -6.593388
  H       3.483851     -0.332700     -5.592306
  H       2.281408     -0.724746     -6.880527
  C       4.129722      0.064467     -7.693849
  H       3.924150      1.131480     -7.442345
  H       3.592223     -0.101927     -8.656459
  C       5.643722     -0.205587     -7.834151
  H       5.836234     -1.125618     -8.432975
  H       6.027612      0.597704     -8.517630
  C       6.472620     -0.164383     -6.545540
  H       6.340827      0.787580     -5.978353
  H       6.141610     -0.980496     -5.855756
  C       7.993401     -0.381464     -6.762003
  H       8.596916     -0.199280     -5.844493
  H       8.306534      0.330122     -7.566921
  C       8.370324     -1.821425     -7.269631
  H       7.833560     -2.523848     -6.585658
  H       7.998085     -1.983979     -8.307233
  C       9.890616     -2.138424     -7.180627
  H      10.201745     -1.900818     -6.132746
  H       9.997589     -3.246966     -7.263757
  C      10.799841     -1.365754     -8.161400
  H      11.872416     -1.596567     -7.977846
  H      10.541486     -1.522793     -9.233960
  H      10.656206     -0.274145     -7.980219
138
Coordinates from ORCA-job /wrk/rja7/qm_final_3_replicates/qm_final_1.1/qm/2/freq E -2722.523496199989
  N       1.852285     -0.536249     12.265314
  C       1.367120      0.894263     12.001246
  H       1.637532      1.545501     12.865592
  H       0.257792      0.824320     11.901060
  C       1.412818     -0.961886     13.659475
  H       0.342777     -0.688471     13.778075
  H       1.600588     -2.041411     13.810821
  H       1.955319     -0.339075     14.407381
  C       3.364407     -0.708792     12.128457
  H       3.653360     -1.646132     12.650556
  H       3.650144     -0.758891     11.062238
  H       3.875376      0.131256     12.648556
  C       1.158989     -1.520374     11.252863
  H       1.700620     -1.506551     10.288479
  H       0.132489     -1.130329     11.034837
  H       1.097862     -2.521178     11.725975
  C       1.881405      1.543589     10.673415
  H       1.667445      2.637383     10.763592
  H       2.984144      1.414359     10.544258
  P      -0.425977      1.264712      9.347859
  O      -0.655953      2.772799      9.411769
  O      -1.109975      0.256784     10.323182
  O       1.280262      0.935277      9.536606
  O      -0.582714      0.717579      7.758937
  C       0.051851     -0.476378      7.318694
  H      -0.181759     -1.346782      7.991608
  H       1.168230     -0.378619      7.291979
  C      -0.443814     -0.815153      5.893122
  H      -0.224866      0.046662      5.227499
  O      -1.874342     -1.082061      5.998346
  C      -2.670274     -0.815887      4.905034
  O      -2.272079     -0.265333      3.886394
  C      -4.111473     -1.262678      5.165553
  H      -4.602590     -0.471935      5.791422
  H      -4.106505     -2.136856      5.857721
  C       0.274067     -2.105251      5.389017
  H      -0.028708     -2.930341      6.073503
  H       1.379538     -1.969684      5.430970
  O      -0.167162     -2.541722      4.075280
  C       0.220899     -1.780079      2.974431
  O       1.072463     -0.905535      3.023533
  C      -0.619541     -2.154947      1.751828
  H      -1.004591     -3.195099      1.848889
  H      -1.515203     -1.490149      1.826829
  C      -4.980025     -1.520164      3.898339
  H      -5.938116     -1.953865      4.271392
  H      -4.473245     -2.272051      3.247592
  C      -5.307719     -0.251512      3.071132
  H      -4.371386      0.227192      2.709189
  H      -5.779277      0.515080      3.739272
  C      -6.241282     -0.523313      1.859641
  H      -7.238181     -0.895069      2.193975
  H      -5.743659     -1.303991      1.232787
  C      -6.437979      0.741480      0.971853
  H      -5.486205      0.963107      0.433256
  H      -6.615875      1.631081      1.624052
  C      -7.591981      0.616877     -0.076531
  H      -8.493615      1.177924      0.266429
  H      -7.920640     -0.447460     -0.165205
  C      -7.205307      1.146549     -1.493274
  H      -6.689723      2.129957     -1.386726
  H      -8.126380      1.376565     -2.087658
  C      -6.302803      0.185755     -2.265111
  H      -6.566316     -0.888821     -2.162274
  C      -5.103807      0.467701     -2.837377
  H      -4.594845     -0.364685     -3.370005
  C      -4.454793      1.832344     -3.023668
  H      -3.712870      2.026207     -2.206409
  H      -5.210571      2.646184     -2.923864
  C      -3.742380      1.991428     -4.396152
  H      -4.473560      1.857609     -5.228715
  H      -2.997125      1.166499     -4.520334
  C      -2.990893      3.347240     -4.574581
  H      -2.356758      3.276031     -5.491382
  H      -2.311423      3.501555     -3.702498
  C      -3.910958      4.598916     -4.724964
  H      -3.251213      5.496575     -4.781364
  H      -4.548576      4.700123     -3.817270
  C      -4.815671      4.575859     -6.005924
  H      -5.881492      4.416604     -5.708821
  H      -4.555398      3.725252     -6.679618
  C      -4.770429      5.893886     -6.826759
  H      -3.727169      6.084900     -7.184246
  H      -5.042570      6.755557     -6.170099
  C      -5.749977      5.894934     -8.050220
  H      -6.760692      6.173982     -7.661999
  H      -5.859249      4.860085     -8.456089
  C      -5.337384      6.877859     -9.176657
  H      -6.164671      7.031914     -9.906835
  H      -4.453478      6.492739     -9.737949
  H      -5.063246      7.877050     -8.763413
  C       0.064848     -1.905092      0.387137
  H       0.455201     -0.864041      0.360782
  H      -0.691780     -2.046116     -0.419273
  C       1.262422     -2.851813      0.061840
  H       1.075289     -3.903304      0.400022
  H       2.150390     -2.543094      0.669256
  C       1.631994     -2.830386     -1.454352
  H       1.886691     -1.772843     -1.703396
  H       0.713496     -3.117440     -2.021500
  C       2.823376     -3.740303     -1.827254
  H       3.764207     -3.301764     -1.411661
  H       2.711620     -4.759823     -1.386357
  C       2.995109     -3.924306     -3.373303
  H       3.725819     -4.736317     -3.595863
  H       1.999116     -4.254362     -3.761753
  C       3.391772     -2.639975     -4.148994
  H       4.271221     -2.128274     -3.680902
  H       2.551781     -1.907192     -4.105093
  C       3.682434     -2.910402     -5.636379
  H       3.799292     -3.978715     -5.915421
  C       3.671698     -1.991933     -6.634912
  H       4.028699     -2.345230     -7.624886
  C       3.506211     -0.486483     -6.465619
  H       3.731860     -0.170129     -5.423118
  H       2.432149     -0.232468     -6.657126
  C       4.347926      0.385150     -7.472727
  H       4.305554      1.436122     -7.097714
  H       3.800138      0.401482     -8.445258
  C       5.824450     -0.031304     -7.692790
  H       5.890311     -0.907543     -8.380947
  H       6.310799      0.787381     -8.285607
  C       6.643955     -0.259130     -6.404483
  H       6.601037      0.640755     -5.743694
  H       6.197277     -1.094754     -5.812273
  C       8.141979     -0.602609     -6.663283
  H       8.728427     -0.563892     -5.715827
  H       8.555525      0.166474     -7.361824
  C       8.366371     -2.015775     -7.300731
  H       7.759986     -2.746469     -6.710797
  H       7.982060     -2.029782     -8.348170
  C       9.851098     -2.487799     -7.291346
  H      10.231866     -2.408014     -6.241404
  H       9.870514     -3.581390     -7.520164
  C      10.785488     -1.698554     -8.237620
  H      11.838700     -2.051140     -8.159670
  H      10.452073     -1.747382     -9.300651
  H      10.786206     -0.617351     -7.961004
138
Coordinates from ORCA-job /wrk/rja7/qm_final_3_replicates/qm_final_1.1/qm/2/freq E -2722.538624817854
  N       1.884475     -0.559865     12.252661
  C       1.345571      0.874613     12.017529
  H       1.627252      1.485166     12.907906
  H       0.237207      0.772323     11.958922
  C       1.466183     -0.985278     13.654219
  H       0.373766     -0.811532     13.754702
  H       1.724734     -2.051482     13.810781
  H       1.985862     -0.335302     14.393426
  C       3.406143     -0.626840     12.148535
  H       3.753765     -1.564060     12.634795
  H       3.710265     -0.616594     11.084871
  H       3.845936      0.238479     12.692125
  C       1.257525     -1.566116     11.231939
  H       1.828778     -1.496514     10.287028
  H       0.205891     -1.245578     11.013830
  H       1.299807     -2.578783     11.685813
  C       1.820372      1.554820     10.695439
  H       1.554241      2.637566     10.802688
  H       2.929493      1.490105     10.571878
  P      -0.487907      1.249773      9.334278
  O      -0.742128      2.751921      9.402542
  O      -1.161200      0.215050     10.287829
  O       1.244896      0.961217      9.539143
  O      -0.593307      0.714325      7.735808
  C       0.037658     -0.499590      7.328800
  H      -0.215159     -1.345744      8.024172
  H       1.153435     -0.397794      7.321732
  C      -0.441049     -0.861642      5.909219
  H      -0.240013     -0.012545      5.220847
  O      -1.879560     -1.112024      5.995158
  C      -2.662941     -0.816605      4.901788
  O      -2.241066     -0.293687      3.877720
  C      -4.125709     -1.190010      5.173399
  H      -4.569233     -0.361210      5.783454
  H      -4.149005     -2.070734      5.855712
  C       0.275176     -2.147550      5.416294
  H       0.022029     -2.982390      6.109115
  H       1.379367     -1.991726      5.418120
  O      -0.184381     -2.614038      4.118164
  C       0.182830     -1.875946      2.996749
  O       1.027337     -0.992581      3.015764
  C      -0.626922     -2.313426      1.776716
  H      -0.951866     -3.372148      1.898615
  H      -1.558190     -1.696838      1.830341
  C      -4.988420     -1.441571      3.903259
  H      -5.968969     -1.851227      4.246199
  H      -4.503747     -2.230410      3.279165
  C      -5.262047     -0.184164      3.038793
  H      -4.300574      0.245135      2.677845
  H      -5.722692      0.609819      3.679921
  C      -6.174972     -0.470564      1.818005
  H      -7.178135     -0.823119      2.161611
  H      -5.718046     -1.293841      1.215385
  C      -6.353471      0.772099      0.893705
  H      -5.382881      0.969635      0.378483
  H      -6.543944      1.673014      1.526107
  C      -7.473505      0.627804     -0.186958
  H      -8.394205      1.168464      0.137253
  H      -7.774613     -0.444788     -0.278554
  C      -7.058279      1.166197     -1.594540
  H      -6.591758      2.172157     -1.474789
  H      -7.975029      1.340817     -2.213853
  C      -6.097498      0.233333     -2.329664
  H      -6.357580     -0.845277     -2.268754
  C      -4.909802      0.547901     -2.904968
  H      -4.341098     -0.277583     -3.384164
  C      -4.298515      1.932935     -3.079304
  H      -3.565762      2.133989     -2.254167
  H      -5.083495      2.716671     -2.972509
  C      -3.570063      2.107816     -4.442288
  H      -4.302519      1.946059     -5.270020
  H      -2.808377      1.297065     -4.554289
  C      -2.855042      3.479206     -4.624708
  H      -2.210946      3.426346     -5.536036
  H      -2.170738      3.645713     -3.756982
  C      -3.795996      4.713348     -4.752548
  H      -3.154111      5.625221     -4.781790
  H      -4.424413      4.798385     -3.835596
  C      -4.722747      4.706627     -6.020588
  H      -5.779097      4.500380     -5.721355
  H      -4.442322      3.878770     -6.715872
  C      -4.688670      6.045169     -6.811460
  H      -3.643451      6.251702     -7.152417
  H      -4.958431      6.880841     -6.119936
  C      -5.652949      6.077687     -8.044852
  H      -6.687695      6.303576     -7.687065
  H      -5.711945      5.060686     -8.503840
  C      -5.247482      7.130514     -9.112125
  H      -6.051032      7.278533     -9.870706
  H      -4.323678      6.827247     -9.658500
  H      -5.053814      8.125729     -8.646233
  C       0.061197     -2.062271      0.412804
  H       0.351539     -0.988521      0.357124
  H      -0.694746     -2.259332     -0.383476
  C       1.324923     -2.922871      0.130332
  H       1.181163     -3.966676      0.510066
  H       2.188556     -2.518636      0.714253
  C       1.685704     -2.973074     -1.380256
  H       1.833131     -1.926702     -1.740479
  H       0.810458     -3.385422     -1.940920
  C       2.949459     -3.812278     -1.703604
  H       3.855546     -3.265543     -1.342310
  H       2.918970     -4.777513     -1.142592
  C       3.101151     -4.151106     -3.220961
  H       3.917525     -4.900234     -3.358126
  H       2.157425     -4.647160     -3.559067
  C       3.347540     -2.937273     -4.156696
  H       4.173525     -2.295979     -3.751775
  H       2.435896     -2.294418     -4.157936
  C       3.675820     -3.342388     -5.599916
  H       3.942707     -4.409127     -5.753476
  C       3.584036     -2.553229     -6.697815
  H       3.895917     -2.986365     -7.670176
  C       3.213127     -1.070135     -6.710034
  H       3.391107     -0.609967     -5.711893
  H       2.111760     -0.981826     -6.895805
  C       3.938058     -0.230082     -7.811881
  H       3.714847      0.845953     -7.608908
  H       3.465306     -0.450813     -8.799573
  C       5.479956     -0.395785     -7.916604
  H       5.735990     -1.366659     -8.403975
  H       5.859717      0.376638     -8.633006
  C       6.235333     -0.234912     -6.571773
  H       5.965469      0.749091     -6.115295
  H       5.893675     -1.012577     -5.848546
  C       7.786850     -0.314066     -6.703325
  H       8.257562      0.021734     -5.748339
  H       8.117490      0.399768     -7.496691
  C       8.320271     -1.741465     -7.035060
  H       7.823417     -2.474763     -6.353916
  H       8.027353     -2.023727     -8.074958
  C       9.864649     -1.891396     -6.896898
  H      10.169750     -1.555935     -5.873984
  H      10.126879     -2.977048     -6.938480
  C      10.674330     -1.111345     -7.961124
  H      11.771976     -1.239965     -7.819599
  H      10.409350     -1.438712     -8.994212
  H      10.470529     -0.016124     -7.904986
138
Coordinates from ORCA-job /wrk/rja7/qm_final_3_replicates/qm_final_1.1/qm/2/freq E -2722.526653612594
  N       1.720283     -0.629104     12.268525
  C       1.565776      0.895720     11.982540
  H       1.988898      1.428404     12.863491
  H       0.467287      1.057627     11.930978
  C       1.176883     -0.879231     13.674893
  H       0.146256     -0.474643     13.728910
  H       1.171984     -1.970459     13.871462
  H       1.824244     -0.359513     14.410248
  C       3.182639     -1.057899     12.227919
  H       3.277933     -2.051785     12.712375
  H       3.521048     -1.120667     11.176903
  H       3.793840     -0.314668     12.780568
  C       0.888536     -1.458288     11.252225
  H       1.483295     -1.549311     10.324437
  H      -0.045798     -0.893348     11.014315
  H       0.700185     -2.451776     11.709574
  C       2.181056      1.388518     10.644791
  H       2.064632      2.503891     10.661821
  H       3.275292      1.168160     10.581321
  P      -0.175501      1.095055      9.372986
  O      -0.401573      2.588232      9.490772
  O      -0.822376      0.043661     10.311859
  O       1.567603      0.784555      9.519006
  O      -0.330575      0.613045      7.764645
  C       0.199653     -0.644904      7.334939
  H      -0.098211     -1.469565      8.035010
  H       1.318290     -0.611630      7.302988
  C      -0.334918     -0.964867      5.921966
  H      -0.119730     -0.121713      5.230495
  O      -1.790827     -1.125602      6.037748
  C      -2.577428     -0.757421      4.973262
  O      -2.139758     -0.306884      3.920150
  C      -4.061130     -0.980437      5.303356
  H      -4.398319     -0.096072      5.899425
  H      -4.134285     -1.850401      5.994463
  C       0.293747     -2.274693      5.385283
  H       0.019758     -3.123743      6.052435
  H       1.404169     -2.172479      5.360771
  O      -0.209922     -2.670955      4.077807
  C       0.223472     -1.951534      2.972675
  O       1.141771     -1.147236      3.008999
  C      -0.632306     -2.292629      1.746740
  H      -1.006213     -3.338889      1.835934
  H      -1.529114     -1.632295      1.836789
  C      -4.976625     -1.194017      4.066083
  H      -5.974733     -1.532069      4.436760
  H      -4.576354     -2.040276      3.456854
  C      -5.185941      0.046564      3.154816
  H      -4.204952      0.379616      2.748133
  H      -5.571736      0.895480      3.771819
  C      -6.159844     -0.227449      1.979884
  H      -7.168918     -0.495069      2.383760
  H      -5.811956     -1.122420      1.407815
  C      -6.291150      0.967671      0.993229
  H      -5.320237      1.074904      0.452089
  H      -6.416882      1.911087      1.576945
  C      -7.444168      0.817612     -0.050395
  H      -8.337245      1.398541      0.280446
  H      -7.777604     -0.248451     -0.085613
  C      -7.056846      1.277182     -1.490742
  H      -6.581901      2.284273     -1.437624
  H      -7.991502      1.413966     -2.091465
  C      -6.133876      0.286710     -2.187258
  H      -6.443166     -0.775632     -2.094354
  C      -4.969578      0.537945     -2.835477
  H      -4.421820     -0.331223     -3.255406
  C      -4.320351      1.891748     -3.097099
  H      -3.539619      2.090905     -2.316615
  H      -5.071122      2.705991     -2.983920
  C      -3.649031      1.966766     -4.498080
  H      -4.430869      1.791174     -5.276839
  H      -2.930935      1.117021     -4.598049
  C      -2.893166      3.292490     -4.787445
  H      -2.296801      3.170046     -5.724192
  H      -2.148946      3.465051     -3.970820
  C      -3.782338      4.561425     -4.922637
  H      -3.107603      5.444898     -5.016831
  H      -4.349347      4.724192     -3.975732
  C      -4.776158      4.543389     -6.135532
  H      -5.819469      4.368874     -5.779642
  H      -4.547461      3.681546     -6.809362
  C      -4.739198      5.847872     -6.976668
  H      -3.702963      6.003128     -7.366512
  H      -4.940075      6.715976     -6.301185
  C      -5.748489      5.870769     -8.162587
  H      -6.772451      6.103652     -7.780921
  H      -5.821442      4.848539     -8.608224
  C      -5.376677      6.902710     -9.257492
  H      -6.194420      7.024633    -10.006006
  H      -4.458210      6.602493     -9.813470
  H      -5.191599      7.910509     -8.815815
  C       0.052157     -2.027871      0.382037
  H       0.372223     -0.960285      0.357123
  H      -0.730919     -2.143346     -0.404907
  C       1.269536     -2.935286      0.057063
  H       1.052632     -3.984290      0.381519
  H       2.151315     -2.600088      0.653231
  C       1.628786     -2.942239     -1.451369
  H       1.813233     -1.895165     -1.794500
  H       0.744933     -3.296348     -2.039020
  C       2.857773     -3.825952     -1.810190
  H       3.785568     -3.337439     -1.422104
  H       2.773453     -4.797039     -1.264256
  C       3.010487     -4.132603     -3.326469
  H       3.809852     -4.900987     -3.464422
  H       2.068546     -4.607117     -3.697180
  C       3.314411     -2.905356     -4.231969
  H       4.166696     -2.321815     -3.794963
  H       2.439066     -2.214718     -4.208649
  C       3.635593     -3.296825     -5.673493
  H       3.881167     -4.365902     -5.840207
  C       3.593474     -2.486144     -6.760302
  H       3.817308     -2.928207     -7.752002
  C       3.260011     -0.996601     -6.761941
  H       3.458521     -0.552567     -5.759905
  H       2.158110     -0.875269     -6.923159
  C       3.997402     -0.177398     -7.864143
  H       3.779361      0.905430     -7.692322
  H       3.556856     -0.419261     -8.861782
  C       5.543874     -0.344261     -7.926369
  H       5.807201     -1.347580     -8.338477
  H       5.943846      0.390518     -8.667282
  C       6.263269     -0.108785     -6.569784
  H       5.962730      0.897520     -6.186426
  H       5.902754     -0.846791     -5.816251
  C       7.815164     -0.174845     -6.651444
  H       8.239975      0.218906     -5.695605
  H       8.168267      0.519171     -7.451251
  C       8.377966     -1.601494     -6.898860
  H       7.881941     -2.318844     -6.201478
  H       8.107607     -1.940846     -7.928648
  C       9.921260     -1.714676     -6.738858
  H      10.216249     -1.334409     -5.729635
  H      10.210979     -2.793730     -6.748509
  C      10.727897     -0.966337     -7.829853
  H      11.826248     -1.090072     -7.685594
  H      10.475624     -1.351734     -8.846090
  H      10.522826      0.129006     -7.826729
138
Coordinates from ORCA-job /wrk/rja7/qm_final_3_replicates/qm_final_1.1/qm/2/freq E -2722.547292420183
  N       1.818230     -0.654291     12.288237
  C       1.390296      0.832486     12.035182
  H       1.736720      1.392409     12.932212
  H       0.279584      0.821445     11.997574
  C       1.326100     -1.021539     13.688253
  H       0.235314     -0.830674     13.738695
  H       1.532012     -2.095765     13.873155
  H       1.857391     -0.398083     14.435328
  C       3.336121     -0.790350     12.250796
  H       3.620795     -1.758867     12.711710
  H       3.683598     -0.761390     11.201035
  H       3.790277      0.045017     12.822478
  C       1.176245     -1.623251     11.266321
  H       1.771295     -1.587183     10.333625
  H       0.146781     -1.261437     11.037370
  H       1.200378     -2.639197     11.713442
  C       1.917689      1.467537     10.719909
  H       1.670284      2.559122     10.795519
  H       3.031245      1.386956     10.654929
  P      -0.386548      1.200765      9.341496
  O      -0.617577      2.690826      9.452682
  O      -1.091751      0.151912     10.232602
  O       1.355318      0.898507      9.551414
  O      -0.459576      0.725471      7.728030
  C       0.094648     -0.534768      7.335100
  H      -0.217899     -1.349944      8.039105
  H       1.213497     -0.491200      7.336820
  C      -0.394045     -0.885282      5.916552
  H      -0.175499     -0.052320      5.214446
  O      -1.850781     -1.068040      6.005667
  C      -2.628232     -0.725559      4.927444
  O      -2.185007     -0.293079      3.868875
  C      -4.112786     -0.965796      5.246238
  H      -4.469962     -0.076571      5.822430
  H      -4.177358     -1.826529      5.949652
  C       0.265889     -2.195915      5.422090
  H      -0.001005     -3.032250      6.108553
  H       1.374651     -2.075219      5.410005
  O      -0.214923     -2.622784      4.115900
  C       0.246129     -1.926065      3.008698
  O       1.173111     -1.131810      3.050171
  C      -0.606650     -2.260199      1.777465
  H      -0.990924     -3.302793      1.865661
  H      -1.497712     -1.591735      1.861869
  C      -5.011431     -1.213447      4.003466
  H      -6.005855     -1.568355      4.368552
  H      -4.589860     -2.060671      3.409588
  C      -5.235670      0.011013      3.075042
  H      -4.256296      0.355544      2.675299
  H      -5.644662      0.859511      3.677819
  C      -6.193874     -0.291526      1.894815
  H      -7.202116     -0.573768      2.291616
  H      -5.828804     -1.188488      1.336008
  C      -6.332506      0.890875      0.896582
  H      -5.353974      1.013624      0.372685
  H      -6.488790      1.836535      1.469299
  C      -7.462532      0.708791     -0.165752
  H      -8.377190      1.264288      0.150031
  H      -7.765778     -0.365870     -0.209216
  C      -7.057766      1.183092     -1.595477
  H      -6.618848      2.205495     -1.529460
  H      -7.982757      1.286524     -2.217670
  C      -6.088414      0.223050     -2.268877
  H      -6.376051     -0.847003     -2.198375
  C      -4.916946      0.511043     -2.887416
  H      -4.333857     -0.340078     -3.296829
  C      -4.291179      1.882482     -3.109329
  H      -3.529479      2.078650     -2.309718
  H      -5.059517      2.679724     -2.994144
  C      -3.596555      2.000857     -4.495754
  H      -4.360608      1.828973     -5.292677
  H      -2.860807      1.167104     -4.602083
  C      -2.862211      3.347049     -4.738493
  H      -2.250301      3.262624     -5.669629
  H      -2.131036      3.510275     -3.908324
  C      -3.775026      4.600986     -4.847448
  H      -3.119296      5.501982     -4.908069
  H      -4.352617      4.725995     -3.901040
  C      -4.758177      4.594339     -6.067346
  H      -5.798168      4.377917     -5.723935
  H      -4.499557      3.759606     -6.764386
  C      -4.756183      5.924138     -6.867901
  H      -3.722198      6.120861     -7.245707
  H      -4.984720      6.766293     -6.168450
  C      -5.757672      5.953447     -8.057368
  H      -6.792211      6.131263     -7.674465
  H      -5.787221      4.946977     -8.542750
  C      -5.420290      7.038364     -9.110759
  H      -6.234515      7.151077     -9.864381
  H      -4.483317      6.797014     -9.664790
  H      -5.282520      8.036708     -8.631699
  C       0.088169     -2.004574      0.415854
  H       0.418071     -0.939625      0.389252
  H      -0.693029     -2.108781     -0.374841
  C       1.291118     -2.931835      0.091110
  H       1.053484     -3.978974      0.407320
  H       2.176089     -2.615163      0.691678
  C       1.653395     -2.935359     -1.416831
  H       1.852691     -1.889300     -1.756631
  H       0.764138     -3.272437     -2.006580
  C       2.867903     -3.837374     -1.781452
  H       3.804767     -3.368353     -1.390574
  H       2.766730     -4.809104     -1.238843
  C       3.015440     -4.137437     -3.297474
  H       3.804960     -4.914827     -3.440129
  H       2.068004     -4.599852     -3.670551
  C       3.337812     -2.908339     -4.196764
  H       4.204590     -2.346810     -3.760142
  H       2.479044     -2.197583     -4.160889
  C       3.632219     -3.299099     -5.643715
  H       3.858267     -4.371369     -5.817495
  C       3.591734     -2.484037     -6.726530
  H       3.775661     -2.931710     -7.724677
  C       3.287179     -0.989932     -6.720989
  H       3.517123     -0.551205     -5.723573
  H       2.184232     -0.845634     -6.855894
  C       4.013858     -0.188691     -7.842556
  H       3.817209      0.899148     -7.676574
  H       3.551400     -0.432684     -8.829511
  C       5.554376     -0.389384     -7.935596
  H       5.785313     -1.406059     -8.335731
  H       5.953458      0.326077     -8.695586
  C       6.309029     -0.149913     -6.598988
  H       6.037090      0.867748     -6.223699
  H       5.950818     -0.870625     -5.826562
  C       7.856052     -0.248586     -6.714358
  H       8.309944      0.147866     -5.772708
  H       8.204166      0.432701     -7.527509
  C       8.386672     -1.686940     -6.961811
  H       7.896851     -2.388192     -6.243731
  H       8.079456     -2.032729     -7.979558
  C       9.931152     -1.828472     -6.845453
  H      10.263234     -1.446121     -5.848187
  H      10.199546     -2.912954     -6.856855
  C      10.722658     -1.104919     -7.964675
  H      11.821282     -1.255246     -7.850802
  H      10.435076     -1.492536     -8.970678
  H      10.543566     -0.005229     -7.964329
138
Coordinates from ORCA-job /wrk/rja7/qm_final_3_replicates/qm_final_1.1/qm/2/freq E -2722.550275938221
  N       1.825347     -0.538674     12.270709
  C       1.294053      0.920224     12.052654
  H       1.620651      1.491207     12.950032
  H       0.186888      0.830474     12.036677
  C       1.350130     -0.986960     13.651452
  H       0.246431     -0.892818     13.692488
  H       1.644219     -2.045021     13.809166
  H       1.817564     -0.344438     14.424644
  C       3.348926     -0.570260     12.238211
  H       3.694700     -1.544380     12.641663
  H       3.696840     -0.455869     11.194489
  H       3.745650      0.257584     12.861095
  C       1.257010     -1.512260     11.213356
  H       1.828741     -1.379093     10.275843
  H       0.194799     -1.236027     11.013185
  H       1.381568     -2.543016     11.606739
  C       1.756295      1.605035     10.740422
  H       1.416611      2.671138     10.827848
  H       2.872577      1.623665     10.669540
  P      -0.515144      1.174949      9.359815
  O      -0.837128      2.645583      9.476971
  O      -1.149737      0.084136     10.248538
  O       1.241728      0.986069      9.576954
  O      -0.551510      0.703004      7.745141
  C      -0.003910     -0.564370      7.363884
  H      -0.331412     -1.374507      8.065977
  H       1.115266     -0.529447      7.377366
  C      -0.473380     -0.914947      5.937701
  H      -0.256412     -0.076051      5.241935
  O      -1.928959     -1.121719      6.002443
  C      -2.689328     -0.757806      4.920511
  O      -2.232077     -0.273127      3.891081
  C      -4.176939     -1.035943      5.191771
  H      -4.579907     -0.160314      5.758572
  H      -4.240340     -1.902414      5.887985
  C       0.212609     -2.214899      5.446027
  H      -0.021126     -3.048189      6.146946
  H       1.316896     -2.063950      5.414405
  O      -0.276383     -2.676545      4.155127
  C       0.175263     -2.009535      3.026808
  O       1.096559     -1.207375      3.039212
  C      -0.637423     -2.439784      1.799866
  H      -0.957251     -3.500389      1.923954
  H      -1.569472     -1.826826      1.845432
  C      -5.019076     -1.304815      3.914822
  H      -6.014617     -1.694507      4.239500
  H      -4.546216     -2.135547      3.336514
  C      -5.240390     -0.086081      2.979314
  H      -4.253219      0.292519      2.631705
  H      -5.711955      0.745767      3.559523
  C      -6.123615     -0.421844      1.750459
  H      -7.142201     -0.737595      2.091704
  H      -5.698806     -1.310351      1.220583
  C      -6.244790      0.747557      0.736622
  H      -5.237309      0.920993      0.287483
  H      -6.496612      1.686414      1.286307
  C      -7.280911      0.497077     -0.404688
  H      -8.261900      0.957048     -0.137816
  H      -7.480776     -0.598600     -0.495064
  C      -6.831017      1.049743     -1.792274
  H      -6.530258      2.116875     -1.679717
  H      -7.712056      1.048836     -2.483112
  C      -5.701529      0.232497     -2.399766
  H      -5.867684     -0.865273     -2.385072
  C      -4.531533      0.677795     -2.920453
  H      -3.817536     -0.085274     -3.295154
  C      -4.059831      2.119589     -3.061071
  H      -3.376996      2.371216     -2.207929
  H      -4.921476      2.818948     -2.973648
  C      -3.298761      2.369235     -4.394791
  H      -3.980226      2.135214     -5.248561
  H      -2.460939      1.634275     -4.471999
  C      -2.719661      3.801857     -4.548455
  H      -2.038114      3.822898     -5.433932
  H      -2.073145      4.024306     -3.663772
  C      -3.769451      4.938614     -4.700630
  H      -3.229286      5.915156     -4.680527
  H      -4.432752      4.957392     -3.803584
  C      -4.637457      4.858358     -6.001217
  H      -5.656357      4.469117     -5.761788
  H      -4.199088      4.114055     -6.710694
  C      -4.782382      6.218392     -6.733384
  H      -3.765921      6.590293     -7.015749
  H      -5.188449      6.975213     -6.016932
  C      -5.686131      6.168077     -7.995471
  H      -6.758129      6.114499     -7.684539
  H      -5.489008      5.221995     -8.557459
  C      -5.495345      7.387066     -8.931633
  H      -6.250429      7.401237     -9.751862
  H      -4.485627      7.385768     -9.404925
  H      -5.603782      8.346450     -8.372056
  C       0.064927     -2.197665      0.440706
  H       0.322544     -1.114951      0.367001
  H      -0.687027     -2.394263     -0.360969
  C       1.333986     -3.056602      0.187660
  H       1.159886     -4.099159      0.555126
  H       2.181372     -2.650015      0.788949
  C       1.731277     -3.121964     -1.310408
  H       1.843078     -2.086184     -1.715095
  H       0.887812     -3.577514     -1.888006
  C       3.030114     -3.932848     -1.585536
  H       3.913374     -3.348525     -1.226011
  H       3.008185     -4.861370     -0.963718
  C       3.235948     -4.348946     -3.066006
  H       4.111731     -5.039212     -3.133216
  H       2.353928     -4.951813     -3.397571
  C       3.431878     -3.181083     -4.075838
  H       4.247427     -2.504773     -3.708626
  H       2.512517     -2.549716     -4.090253
  C       3.741141     -3.681064     -5.485579
  H       4.087652     -4.732652     -5.557948
  C       3.603549     -2.985969     -6.641441
  H       3.827289     -3.510259     -7.593159
  C       3.130487     -1.544744     -6.780053
  H       3.315340     -0.982754     -5.836441
  H       2.017337     -1.539774     -6.909792
  C       3.754332     -0.787804     -7.991848
  H       3.404168      0.273006     -7.961104
  H       3.345479     -1.215360     -8.939238
  C       5.308982     -0.789340     -8.064787
  H       5.678863     -1.813293     -8.313136
  H       5.616640     -0.144583     -8.924429
  C       6.009037     -0.258246     -6.784305
  H       5.594517      0.754139     -6.552780
  H       5.749052     -0.905237     -5.913145
  C       7.555152     -0.154859     -6.897018
  H       7.939938      0.424568     -6.021510
  H       7.812910      0.453870     -7.797326
  C       8.287566     -1.522788     -6.953341
  H       7.906936     -2.174063     -6.129280
  H       8.026738     -2.054270     -7.901768
  C       9.836080     -1.425919     -6.856181
  H      10.112992     -0.869443     -5.926230
  H      10.256916     -2.453141     -6.731234
  C      10.511664     -0.752583     -8.078203
  H      11.621093     -0.735700     -7.971360
  H      10.276331     -1.303034     -9.019938
  H      10.180125      0.302327     -8.214067
138
Coordinates from ORCA-job /wrk/rja7/qm_final_3_replicates/qm_final_1.1/qm/2/freq E -2722.553512283360
  N       1.824487     -0.574929     12.289224
  C       1.299895      0.890509     12.087949
  H       1.635293      1.451477     12.988832
  H       0.193625      0.798351     12.081209
  C       1.316485     -1.053151     13.645311
  H       0.210433     -0.978553     13.655569
  H       1.621435     -2.109909     13.793382
  H       1.752143     -0.419407     14.444381
  C       3.347281     -0.609677     12.289522
  H       3.680957     -1.606967     12.644014
  H       3.716427     -0.439665     11.260545
  H       3.734480      0.181899     12.963957
  C       1.277161     -1.524783     11.200730
  H       1.842829     -1.351807     10.266975
  H       0.208264     -1.265730     11.006005
  H       1.425302     -2.566334     11.557569
  C       1.762622      1.591291     10.784723
  H       1.399971      2.649414     10.882475
  H       2.879506      1.638111     10.727958
  P      -0.475350      1.137982      9.363876
  O      -0.808791      2.603698      9.492118
  O      -1.105344      0.034769     10.235675
  O       1.280691      0.964146      9.612804
  O      -0.478639      0.685309      7.743738
  C       0.008804     -0.608419      7.366505
  H      -0.361285     -1.400042      8.067006
  H       1.129022     -0.626391      7.383715
  C      -0.465936     -0.938000      5.936819
  H      -0.221084     -0.102540      5.245810
  O      -1.927230     -1.104268      5.997189
  C      -2.674965     -0.709262      4.917762
  O      -2.201825     -0.248914      3.884332
  C      -4.175502     -0.876432      5.214441
  H      -4.509571      0.040425      5.760555
  H      -4.287651     -1.716081      5.936648
  C       0.183787     -2.254678      5.440331
  H      -0.069238     -3.084946      6.137589
  H       1.290535     -2.128066      5.405406
  O      -0.318523     -2.689406      4.145291
  C       0.195364     -2.059200      3.022211
  O       1.147780     -1.294081      3.051573
  C      -0.634424     -2.428234      1.787384
  H      -0.982199     -3.483029      1.882811
  H      -1.549634     -1.792915      1.853566
  C      -5.056330     -1.123504      3.958884
  H      -6.066745     -1.441259      4.314961
  H      -4.648931     -1.999374      3.397186
  C      -5.217897      0.075161      2.987086
  H      -4.217834      0.366695      2.595817
  H      -5.608744      0.960292      3.548549
  C      -6.170858     -0.241353      1.806049
  H      -7.200317     -0.446173      2.195808
  H      -5.846730     -1.194387      1.317618
  C      -6.221941      0.867796      0.723186
  H      -5.214707      0.935976      0.246064
  H      -6.393758      1.857584      1.211369
  C      -7.305568      0.622575     -0.373776
  H      -8.255008      1.135966     -0.090065
  H      -7.556692     -0.465631     -0.416194
  C      -6.884213      1.097967     -1.799011
  H      -6.552535      2.160551     -1.749822
  H      -7.787858      1.082696     -2.459888
  C      -5.803215      0.214397     -2.401492
  H      -6.023015     -0.873225     -2.355806
  C      -4.632527      0.588724     -2.974074
  H      -3.967061     -0.219313     -3.344550
  C      -4.088804      1.998794     -3.162888
  H      -3.336648      2.215157     -2.360151
  H      -4.898847      2.750549     -3.029712
  C      -3.404335      2.190426     -4.547913
  H      -4.151829      1.992359     -5.353965
  H      -2.619142      1.405046     -4.669497
  C      -2.752043      3.584774     -4.754681
  H      -2.145392      3.565828     -5.693331
  H      -2.022554      3.765920     -3.927004
  C      -3.741839      4.781024     -4.828624
  H      -3.147948      5.725979     -4.859276
  H      -4.326289      4.840372     -3.879874
  C      -4.713544      4.745393     -6.054245
  H      -5.715376      4.363581     -5.740370
  H      -4.346326      4.012098     -6.813657
  C      -4.906736      6.125123     -6.735246
  H      -3.915060      6.494769     -7.098802
  H      -5.238243      6.868877     -5.968118
  C      -5.920219      6.116921     -7.909027
  H      -6.954484      5.999615     -7.501586
  H      -5.745058      5.216987     -8.549095
  C      -5.863818      7.399509     -8.774945
  H      -6.678589      7.421688     -9.535375
  H      -4.893343      7.482350     -9.318601
  H      -5.974429      8.315366     -8.146962
  C       0.073277     -2.170314      0.433791
  H       0.369409     -1.095815      0.386237
  H      -0.683087     -2.318524     -0.374486
  C       1.307172     -3.070936      0.154671
  H       1.082693     -4.120980      0.469115
  H       2.162035     -2.731790      0.786681
  C       1.726715     -3.082696     -1.339163
  H       1.885071     -2.034653     -1.692745
  H       0.873470     -3.477909     -1.946442
  C       2.994472     -3.936126     -1.627739
  H       3.896219     -3.410501     -1.225473
  H       2.919168     -4.889994     -1.049797
  C       3.215621     -4.292499     -3.120828
  H       4.068610     -5.009245     -3.204217
  H       2.320468     -4.849062     -3.495766
  C       3.481408     -3.089108     -4.070271
  H       4.345703     -2.492060     -3.677526
  H       2.609803     -2.393495     -4.042299
  C       3.736601     -3.537943     -5.508064
  H       4.023087     -4.602332     -5.635480
  C       3.634772     -2.777855     -6.625484
  H       3.807251     -3.270503     -7.604515
  C       3.262511     -1.303469     -6.687768
  H       3.505254     -0.800930     -5.723606
  H       2.150333     -1.211471     -6.793723
  C       3.918213     -0.538574     -7.878154
  H       3.634561      0.539586     -7.806635
  H       3.473116     -0.908997     -8.833436
  C       5.467336     -0.649136     -7.977104
  H       5.753959     -1.692160     -8.251897
  H       5.809053     -0.009190     -8.828008
  C       6.225862     -0.208824     -6.695624
  H       5.893038      0.822972     -6.422487
  H       5.934281     -0.863620     -5.839851
  C       7.772962     -0.220778     -6.832000
  H       8.218520      0.277496     -5.935585
  H       8.063747      0.415368     -7.703579
  C       8.393593     -1.635982     -6.981304
  H       7.985911     -2.294895     -6.175987
  H       8.059358     -2.097537     -7.942929
  C       9.946377     -1.668002     -6.930757
  H      10.293751     -1.197649     -5.977247
  H      10.284614     -2.731511     -6.886699
  C      10.640394     -0.969369     -8.128338
  H      11.749686     -1.054972     -8.059504
  H      10.331678     -1.429597     -9.097100
  H      10.395949      0.116348     -8.180319
138
Coordinates from ORCA-job /wrk/rja7/qm_final_3_replicates/qm_final_1.1/qm/2/freq E -2722.556457559465
  N       1.850970     -0.536928     12.307439
  C       1.314671      0.925285     12.096528
  H       1.657309      1.493167     12.991194
  H       0.210466      0.819979     12.106675
  C       1.315007     -1.022517     13.647159
  H       0.207151     -0.988271     13.619944
  H       1.652390     -2.066585     13.815437
  H       1.698511     -0.367615     14.456732
  C       3.371518     -0.552648     12.341661
  H       3.710768     -1.563038     12.651708
  H       3.758874     -0.326991     11.329743
  H       3.735341      0.209224     13.062595
  C       1.345313     -1.502798     11.212820
  H       1.899061     -1.301746     10.278596
  H       0.266781     -1.288076     11.015144
  H       1.536891     -2.539798     11.565337
  C       1.765007      1.636483     10.792254
  H       1.363166      2.679975     10.893582
  H       2.880423      1.729128     10.747634
  P      -0.444024      1.103136      9.355112
  O      -0.836025      2.552533      9.505094
  O      -1.026278     -0.041465     10.204303
  O       1.318899      0.995067      9.615306
  O      -0.407351      0.682993      7.727633
  C       0.011080     -0.635184      7.351744
  H      -0.410144     -1.402970      8.047730
  H       1.129677     -0.716075      7.379294
  C      -0.461829     -0.939261      5.917524
  H      -0.159841     -0.120273      5.228985
  O      -1.929922     -1.022916      5.961552
  C      -2.643548     -0.580909      4.875925
  O      -2.137817     -0.212316      3.821200
  C      -4.154395     -0.654010      5.161045
  H      -4.443052      0.312906      5.642557
  H      -4.321765     -1.435690      5.935950
  C       0.122064     -2.291778      5.435789
  H      -0.161992     -3.101265      6.145803
  H       1.232257     -2.212384      5.388359
  O      -0.412128     -2.705933      4.148083
  C       0.164314     -2.143072      3.019746
  O       1.174845     -1.455794      3.045869
  C      -0.665243     -2.489388      1.779000
  H      -1.037920     -3.536490      1.869028
  H      -1.567369     -1.835957      1.842234
  C      -5.041459     -0.926352      3.913674
  H      -6.066192     -1.173819      4.284197
  H      -4.675532     -1.851655      3.404946
  C      -5.141663      0.219681      2.872465
  H      -4.130063      0.434412      2.463569
  H      -5.480637      1.157857      3.378926
  C      -6.123027     -0.117738      1.720028
  H      -7.162604     -0.205822      2.125681
  H      -5.877357     -1.132840      1.316968
  C      -6.093576      0.888517      0.541780
  H      -5.085054      0.848609      0.064080
  H      -6.202719      1.929386      0.933227
  C      -7.200788      0.622531     -0.523975
  H      -8.137509      1.152717     -0.228150
  H      -7.463021     -0.464150     -0.534182
  C      -6.815940      1.057583     -1.973233
  H      -6.492402      2.123640     -1.969207
  H      -7.737573      1.008752     -2.606822
  C      -5.754214      0.154625     -2.581967
  H      -5.994595     -0.928356     -2.527820
  C      -4.588232      0.502366     -3.180417
  H      -3.951676     -0.321831     -3.566437
  C      -4.009882      1.895789     -3.380984
  H      -3.187319      2.062132     -2.637941
  H      -4.775047      2.675471     -3.168574
  C      -3.431412      2.097691     -4.813470
  H      -4.247486      1.956103     -5.562551
  H      -2.694024      1.283511     -5.017185
  C      -2.734712      3.468809     -5.036135
  H      -2.229235      3.461459     -6.033114
  H      -1.917622      3.582969     -4.281908
  C      -3.670239      4.708425     -4.966547
  H      -3.042499      5.629003     -5.041612
  H      -4.140590      4.762200     -3.955973
  C      -4.775278      4.749408     -6.070746
  H      -5.723656      4.306192     -5.679744
  H      -4.482958      4.101460     -6.933076
  C      -5.089630      6.178516     -6.582865
  H      -4.165974      6.617416     -7.037971
  H      -5.333137      6.836683     -5.711456
  C      -6.253094      6.241939     -7.603366
  H      -7.203883      5.958876     -7.087123
  H      -6.099669      5.469578     -8.397433
  C      -6.425165      7.637413     -8.252497
  H      -7.319742      7.677032     -8.915712
  H      -5.535764      7.911461     -8.867714
  H      -6.548956      8.430611     -7.477503
  C       0.057111     -2.246026      0.431201
  H       0.391453     -1.183096      0.389975
  H      -0.696944     -2.366074     -0.384066
  C       1.256761     -3.190276      0.147124
  H       0.981007     -4.239398      0.421485
  H       2.111488     -2.911693      0.808501
  C       1.709314     -3.170740     -1.338447
  H       1.912262     -2.117875     -1.650731
  H       0.854172     -3.515249     -1.973351
  C       2.948506     -4.063939     -1.625125
  H       3.861265     -3.589725     -1.185381
  H       2.822151     -5.032980     -1.082629
  C       3.195302     -4.378839     -3.124765
  H       4.028186     -5.118568     -3.213127
  H       2.292643     -4.892664     -3.539673
  C       3.532991     -3.156490     -4.024794
  H       4.440883     -2.640442     -3.616639
  H       2.713972     -2.402056     -3.960390
  C       3.742378     -3.562681     -5.483747
  H       3.978483     -4.633632     -5.653541
  C       3.651897     -2.759945     -6.572144
  H       3.797966     -3.225190     -7.568858
  C       3.336319     -1.271706     -6.579650
  H       3.621145     -0.810142     -5.606465
  H       2.227067     -1.130647     -6.659023
  C       3.997211     -0.496050     -7.761203
  H       3.725503      0.583745     -7.673251
  H       3.541043     -0.849670     -8.718226
  C       5.542019     -0.637852     -7.875682
  H       5.799240     -1.687953     -8.149251
  H       5.889107     -0.010205     -8.733987
  C       6.322829     -0.216427     -6.602067
  H       6.014856      0.819747     -6.317797
  H       6.028666     -0.869745     -5.745186
  C       7.868849     -0.258133     -6.748243
  H       8.329282      0.215400     -5.845946
  H       8.169058      0.385554     -7.611601
  C       8.462782     -1.682533     -6.919268
  H       8.047905     -2.337650     -6.113984
  H       8.110267     -2.130773     -7.880134
  C      10.014273     -1.745377     -6.874252
  H      10.371350     -1.301249     -5.912004
  H      10.330009     -2.816366     -6.853019
  C      10.720679     -1.034979     -8.057705
  H      11.827622     -1.149177     -7.993950
  H      10.398354     -1.461898     -9.037431
  H      10.500009      0.056667     -8.081728
138
Coordinates from ORCA-job /wrk/rja7/qm_final_3_replicates/qm_final_1.1/qm/2/freq E -2722.559082560853
  N       1.860115     -0.392099     12.261876
  C       1.162184      1.006078     12.081702
  H       1.447904      1.588467     12.987747
  H       0.077313      0.777040     12.097794
  C       1.346728     -0.983900     13.566386
  H       0.246872     -1.104021     13.493052
  H       1.821726     -1.974374     13.727418
  H       1.599589     -0.303259     14.406255
  C       3.368363     -0.229095     12.340773
  H       3.823294     -1.213953     12.577259
  H       3.744393      0.125273     11.361366
  H       3.623285      0.508007     13.131504
  C       1.510322     -1.378905     11.126155
  H       2.036167     -1.064377     10.207038
  H       0.415613     -1.310979     10.916687
  H       1.844007     -2.389957     11.448716
  C       1.524072      1.800185     10.796319
  H       0.988030      2.778120     10.925937
  H       2.617958      2.041792     10.764097
  P      -0.600820      1.014614      9.347327
  O      -1.188349      2.394600      9.528450
  O      -1.013731     -0.222090     10.167418
  O       1.165615      1.140891      9.601741
  O      -0.499939      0.645285      7.711318
  C      -0.036123     -0.654955      7.326538
  H      -0.443959     -1.438889      8.010702
  H       1.085153     -0.703173      7.370095
  C      -0.475339     -0.961618      5.883898
  H      -0.170874     -0.138174      5.201509
  O      -1.941251     -1.065832      5.897614
  C      -2.637552     -0.618057      4.801949
  O      -2.115056     -0.227213      3.763522
  C      -4.152649     -0.677624      5.064724
  H      -4.446668      0.307075      5.506125
  H      -4.340408     -1.429626      5.863797
  C       0.137779     -2.306488      5.417318
  H      -0.121544     -3.111719      6.142248
  H       1.244966     -2.200632      5.358173
  O      -0.400544     -2.745935      4.140456
  C       0.187806     -2.227387      2.996684
  O       1.198924     -1.540129      3.005494
  C      -0.648612     -2.595952      1.766590
  H      -1.004720     -3.647758      1.872616
  H      -1.561711     -1.957604      1.831586
  C      -5.015702     -0.984821      3.808266
  H      -6.045653     -1.229784      4.165267
  H      -4.634545     -1.919136      3.327673
  C      -5.099070      0.139088      2.742143
  H      -4.077651      0.363231      2.365107
  H      -5.468208      1.082107      3.217815
  C      -6.028892     -0.238795      1.559736
  H      -7.083880     -0.324853      1.922932
  H      -5.757515     -1.262082      1.194681
  C      -5.955653      0.736327      0.358496
  H      -4.917013      0.724361     -0.051738
  H      -6.132897      1.783071      0.708755
  C      -6.973237      0.401612     -0.770525
  H      -7.976866      0.809145     -0.499595
  H      -7.109086     -0.705780     -0.845201
  C      -6.566922      0.952035     -2.174396
  H      -6.407900      2.052989     -2.113209
  H      -7.428449      0.792056     -2.870890
  C      -5.346971      0.239766     -2.739409
  H      -5.438058     -0.867075     -2.756315
  C      -4.193026      0.774106     -3.209142
  H      -3.416907      0.066509     -3.570827
  C      -3.802881      2.240643     -3.304080
  H      -3.058323      2.472106     -2.499128
  H      -4.678795      2.898990     -3.110489
  C      -3.163416      2.599597     -4.679449
  H      -3.891471      2.375096     -5.495626
  H      -2.296292      1.917473     -4.855651
  C      -2.674453      4.071209     -4.792575
  H      -2.093514      4.186301     -5.740594
  H      -1.953172      4.278468     -3.964469
  C      -3.802201      5.140828     -4.775212
  H      -3.332446      6.154213     -4.769165
  H      -4.364023      5.073811     -3.813206
  C      -4.796805      5.039834     -5.973051
  H      -5.617301      4.321607     -5.727141
  H      -4.281181      4.604384     -6.863886
  C      -5.449474      6.392776     -6.356769
  H      -4.651358      7.113941     -6.666751
  H      -5.925905      6.845306     -5.451001
  C      -6.509612      6.280017     -7.479848
  H      -7.337455      5.615025     -7.127717
  H      -6.063791      5.763404     -8.365600
  C      -7.099615      7.646014     -7.910879
  H      -7.892895      7.526306     -8.683878
  H      -6.311932      8.312833     -8.334857
  H      -7.553379      8.181878     -7.043789
  C       0.059136     -2.366798      0.409072
  H       0.392612     -1.304744      0.346342
  H      -0.700241     -2.504406     -0.398490
  C       1.255603     -3.316460      0.130756
  H       0.970736     -4.364044      0.402932
  H       2.107381     -3.045681      0.798896
  C       1.720042     -3.302758     -1.351452
  H       1.929854     -2.251152     -1.662131
  H       0.868989     -3.645805     -1.992464
  C       2.954922     -4.205587     -1.619848
  H       3.866697     -3.736175     -1.173121
  H       2.816427     -5.171347     -1.074726
  C       3.216524     -4.531281     -3.115903
  H       4.050830     -5.271201     -3.190252
  H       2.318198     -5.046281     -3.537917
  C       3.572372     -3.317403     -4.018825
  H       4.500132     -2.829440     -3.621691
  H       2.776039     -2.540066     -3.946551
  C       3.760342     -3.729947     -5.479433
  H       3.991150     -4.802526     -5.646926
  C       3.657234     -2.932668     -6.570195
  H       3.802825     -3.402432     -7.565028
  C       3.348128     -1.442688     -6.582936
  H       3.644364     -0.976525     -5.615371
  H       2.239863     -1.293075     -6.657050
  C       4.010328     -0.681885     -7.771784
  H       3.731150      0.397348     -7.702516
  H       3.559741     -1.054593     -8.724752
  C       5.554571     -0.826992     -7.876325
  H       5.807553     -1.886677     -8.113379
  H       5.906840     -0.231075     -8.754973
  C       6.330036     -0.369957     -6.612671
  H       6.023477      0.673943     -6.356991
  H       6.031539     -0.998380     -5.738225
  C       7.877817     -0.416979     -6.746168
  H       8.330038      0.069262     -5.846556
  H       8.188332      0.210948     -7.617485
  C       8.471745     -1.845745     -6.881975
  H       8.050086     -2.478751     -6.062316
  H       8.124783     -2.317291     -7.833378
  C      10.022524     -1.909494     -6.818815
  H      10.368212     -1.453446     -5.858075
  H      10.335422     -2.980931     -6.779754
  C      10.744204     -1.215765     -8.002923
  H      11.849663     -1.335804     -7.927120
  H      10.427695     -1.648724     -8.981940
  H      10.529550     -0.123313     -8.039357
138
Coordinates from ORCA-job /wrk/rja7/qm_final_3_replicates/qm_final_1.1/qm/2/freq E -2722.561236188853
  N       1.792837     -0.351733     12.246022
  C       1.288048      1.099152     11.906360
  H       1.594225      1.714258     12.783328
  H       0.183277      1.010925     11.866889
  C       1.088832     -0.772792     13.530418
  H      -0.003485     -0.794452     13.342685
  H       1.438479     -1.784711     13.824208
  H       1.321313     -0.045149     14.335508
  C       3.295190     -0.347374     12.469717
  H       3.616642     -1.362973     12.782224
  H       3.800897     -0.075997     11.522437
  H       3.550307      0.391959     13.257753
  C       1.444771     -1.381403     11.151222
  H       2.076103     -1.179352     10.266527
  H       0.386202     -1.224045     10.839771
  H       1.648750     -2.390026     11.571813
  C       1.815390      1.733567     10.591017
  H       1.407492      2.779724     10.623909
  H       2.931774      1.826160     10.605672
  P      -0.355829      1.118061      9.131090
  O      -0.781325      2.566754      9.216778
  O      -0.930810     -0.015736     10.004223
  O       1.412594      1.053030      9.423885
  O      -0.266978      0.648244      7.519695
  C       0.054023     -0.715403      7.211616
  H      -0.427817     -1.411684      7.940139
  H       1.164781     -0.877190      7.258800
  C      -0.421225     -1.050641      5.785938
  H      -0.077449     -0.273888      5.068238
  O      -1.889617     -1.064335      5.817870
  C      -2.573625     -0.607355      4.717904
  O      -2.040885     -0.252510      3.671819
  C      -4.078447     -0.517793      5.020355
  H      -4.271430      0.516454      5.401238
  H      -4.310499     -1.197911      5.869928
  C       0.109939     -2.442811      5.358601
  H      -0.186717     -3.212651      6.107174
  H       1.220740     -2.400433      5.286972
  O      -0.460614     -2.881778      4.095840
  C       0.139774     -2.417651      2.935227
  O       1.179199     -1.774788      2.919468
  C      -0.699860     -2.818012      1.716417
  H      -1.042762     -3.871960      1.846432
  H      -1.620836     -2.189277      1.771408
  C      -4.996512     -0.824568      3.803415
  H      -6.036918     -0.948383      4.190918
  H      -4.715272     -1.819352      3.378251
  C      -4.996469      0.233756      2.669250
  H      -3.967143      0.333491      2.260292
  H      -5.257904      1.235358      3.093758
  C      -5.981650     -0.120562      1.525059
  H      -7.032566     -0.079567      1.907564
  H      -5.820365     -1.183762      1.213643
  C      -5.837270      0.779330      0.272604
  H      -4.804614      0.663131     -0.135797
  H      -5.931335      1.854429      0.565594
  C      -6.873108      0.464496     -0.840821
  H      -7.870046      0.874386     -0.548992
  H      -7.014789     -0.641425     -0.927004
  C      -6.479891      1.031737     -2.241739
  H      -6.338227      2.134582     -2.172622
  H      -7.340631      0.863738     -2.937118
  C      -5.249986      0.344274     -2.815459
  H      -5.328881     -0.762893     -2.854310
  C      -4.092368      0.898799     -3.249744
  H      -3.301559      0.207893     -3.611117
  C      -3.723015      2.371151     -3.318170
  H      -2.974004      2.595207     -2.515006
  H      -4.606203      3.013292     -3.103407
  C      -3.093542      2.763926     -4.688326
  H      -3.819742      2.538445     -5.505404
  H      -2.215509      2.099023     -4.875705
  C      -2.630187      4.245413     -4.781098
  H      -2.039596      4.375286     -5.721210
  H      -1.921956      4.459268     -3.943535
  C      -3.775365      5.296828     -4.772089
  H      -3.323185      6.318384     -4.764575
  H      -4.347873      5.222575     -3.816460
  C      -4.759236      5.174861     -5.972826
  H      -5.483327      4.343725     -5.788116
  H      -4.197374      4.881477     -6.893852
  C      -5.569799      6.468699     -6.243968
  H      -4.863890      7.304133     -6.480530
  H      -6.098579      6.778634     -5.307722
  C      -6.603393      6.329321     -7.389414
  H      -7.313602      5.501701     -7.140280
  H      -6.080085      6.006316     -8.322984
  C      -7.401367      7.628543     -7.663983
  H      -8.146754      7.487843     -8.480183
  H      -6.726753      8.464968     -7.963965
  H      -7.956170      7.962143     -6.755439
  C       0.003286     -2.614397      0.353170
  H       0.315046     -1.547564      0.261841
  H      -0.753137     -2.790254     -0.449640
  C       1.223569     -3.543131      0.110778
  H       0.953770     -4.590910      0.398308
  H       2.057557     -3.242090      0.787659
  C       1.715108     -3.550852     -1.361946
  H       1.886213     -2.499999     -1.698540
  H       0.896142     -3.947225     -2.013702
  C       2.995331     -4.403145     -1.578190
  H       3.873019     -3.877329     -1.126517
  H       2.889912     -5.356905     -1.005382
  C       3.305909     -4.764835     -3.056749
  H       4.184894     -5.454617     -3.085001
  H       2.450514     -5.348807     -3.477852
  C       3.607336     -3.565268     -3.998505
  H       4.494834     -3.008814     -3.599374
  H       2.764301     -2.836262     -3.974707
  C       3.874052     -4.018993     -5.433605
  H       4.210694     -5.070517     -5.546062
  C       3.728300     -3.283521     -6.562387
  H       3.947102     -3.779112     -7.530866
  C       3.280038     -1.830801     -6.652472
  H       3.491537     -1.298625     -5.696972
  H       2.166931     -1.790963     -6.772809
  C       3.918896     -1.060445     -7.846711
  H       3.518850     -0.017399     -7.849780
  H       3.566479     -1.525662     -8.800418
  C       5.473032     -1.028708     -7.862732
  H       5.859063     -2.065058     -8.011560
  H       5.806237     -0.453726     -8.761811
  C       6.113936     -0.401789     -6.597134
  H       5.669292      0.610436     -6.431822
  H       5.842717     -1.004293     -5.696389
  C       7.661160     -0.261240     -6.651927
  H       7.994924      0.327672     -5.761898
  H       7.942601      0.351306     -7.542929
  C       8.432437     -1.609565     -6.663097
  H       8.051246     -2.239823     -5.821968
  H       8.198356     -2.178587     -7.595721
  C       9.973934     -1.470430     -6.527652
  H      10.210401     -0.922392     -5.581978
  H      10.416828     -2.489191     -6.409904
  C      10.662983     -0.758018     -7.719936
  H      11.769935     -0.736351     -7.592374
  H      10.447648     -1.279802     -8.682789
  H      10.321425      0.296474     -7.830860
138
Coordinates from ORCA-job /wrk/rja7/qm_final_3_replicates/qm_final_1.1/qm/2/freq E -2722.563227927475
  N       1.675472     -0.179816     12.239636
  C       1.300740      1.276247     11.779675
  H       1.600504      1.924730     12.633278
  H       0.197125      1.269126     11.673406
  C       0.817981     -0.487390     13.465010
  H      -0.247102     -0.471709     13.159355
  H       1.081107     -1.492948     13.854879
  H       1.001733      0.278594     14.245191
  C       3.145442     -0.244782     12.620366
  H       3.381536     -1.265877     12.984471
  H       3.761414     -0.019935     11.728211
  H       3.351605      0.499970     13.416549
  C       1.380260     -1.240031     11.160923
  H       2.097104     -1.098942     10.329697
  H       0.361502     -1.049774     10.754026
  H       1.502718     -2.233991     11.640081
  C       1.941695      1.774291     10.459183
  H       1.623438      2.851438     10.404694
  H       3.058926      1.772283     10.529628
  P      -0.215373      1.239319      8.942151
  O      -0.534006      2.717922      8.933713
  O      -0.913585      0.201047      9.846211
  O       1.533522      1.060699      9.313068
  O      -0.108601      0.677843      7.361103
  C       0.135511     -0.717327      7.123849
  H      -0.387971     -1.351269      7.879788
  H       1.234714     -0.936475      7.188875
  C      -0.350495     -1.086108      5.708266
  H       0.019670     -0.347603      4.964059
  O      -1.818632     -1.043268      5.735849
  C      -2.482688     -0.573167      4.629623
  O      -1.935188     -0.267486      3.575724
  C      -3.993910     -0.499484      4.899160
  H      -4.210351      0.549531      5.222938
  H      -4.232782     -1.143276      5.774064
  C       0.133885     -2.507330      5.319464
  H      -0.185635     -3.247091      6.088067
  H       1.245455     -2.503657      5.244947
  O      -0.452107     -2.964041      4.069047
  C       0.149070     -2.549003      2.890915
  O       1.204746     -1.935687      2.847193
  C      -0.719953     -2.957779      1.693504
  H      -1.059204     -4.010779      1.841758
  H      -1.638976     -2.329072      1.763193
  C      -4.877308     -0.878633      3.676462
  H      -5.924812     -1.012926      4.040954
  H      -4.563441     -1.882384      3.297497
  C      -4.872328      0.137885      2.504287
  H      -3.830944      0.266586      2.135402
  H      -5.189361      1.141124      2.884246
  C      -5.783553     -0.290373      1.324928
  H      -6.854449     -0.280055      1.650653
  H      -5.566744     -1.353325      1.050887
  C      -5.604228      0.588769      0.062174
  H      -4.540835      0.522096     -0.269786
  H      -5.777373      1.662456      0.323159
  C      -6.531136      0.194099     -1.116073
  H      -7.587829      0.451373     -0.862173
  H      -6.514769     -0.915344     -1.255545
  C      -6.148566      0.880965     -2.465136
  H      -6.181546      1.987569     -2.341942
  H      -6.932538      0.623622     -3.221252
  C      -4.796740      0.418202     -2.985221
  H      -4.705947     -0.683354     -3.093692
  C      -3.707601      1.164497     -3.289338
  H      -2.797244      0.625780     -3.626225
  C      -3.567262      2.676389     -3.241978
  H      -2.894608      2.952808     -2.388618
  H      -4.548379      3.156955     -3.028049
  C      -2.948923      3.258396     -4.547012
  H      -3.592208      2.977947     -5.414347
  H      -1.967953      2.754787     -4.725993
  C      -2.725958      4.796622     -4.521538
  H      -2.105438      5.077030     -5.408121
  H      -2.111491      5.060333     -3.626091
  C      -4.018887      5.660885     -4.530848
  H      -3.731224      6.735757     -4.429072
  H      -4.637265      5.437012     -3.627614
  C      -4.894755      5.482460     -5.800519
  H      -5.371656      4.471927     -5.794391
  H      -4.241438      5.502756     -6.708395
  C      -6.009593      6.551591     -5.934714
  H      -5.541800      7.567060     -5.969990
  H      -6.642683      6.544779     -5.012070
  C      -6.911124      6.361793     -7.180528
  H      -7.355805      5.335867     -7.163585
  H      -6.275778      6.399052     -8.099635
  C      -8.040224      7.415322     -7.294291
  H      -8.660436      7.254596     -8.206376
  H      -7.628338      8.450733     -7.346378
  H      -8.722230      7.374891     -6.412466
  C      -0.048212     -2.770673      0.311933
  H       0.273021     -1.707136      0.207413
  H      -0.828746     -2.939465     -0.468874
  C       1.155393     -3.714171      0.047732
  H       0.867640     -4.761520      0.319294
  H       1.998391     -3.437506      0.722611
  C       1.636748     -3.704478     -1.426677
  H       1.836629     -2.651878     -1.743166
  H       0.805917     -4.061983     -2.085852
  C       2.892481     -4.585645     -1.670839
  H       3.782986     -4.100184     -1.199789
  H       2.758800     -5.554916     -1.130685
  C       3.194991     -4.903666     -3.159346
  H       4.046458     -5.625966     -3.207333
  H       2.320913     -5.437681     -3.607458
  C       3.547286     -3.678417     -4.050429
  H       4.458244     -3.179526     -3.627536
  H       2.736772     -2.916100     -3.992936
  C       3.808220     -4.077833     -5.500287
  H       4.125442     -5.129921     -5.654868
  C       3.688055     -3.290962     -6.597028
  H       3.882290     -3.753037     -7.587000
  C       3.296755     -1.818573     -6.624267
  H       3.517034     -1.340217     -5.642889
  H       2.187880     -1.728480     -6.753790
  C       3.986676     -1.021552     -7.771520
  H       3.638393      0.039007     -7.728358
  H       3.628886     -1.420551     -8.752318
  C       5.541111     -1.057756     -7.760812
  H       5.885062     -2.105526     -7.936952
  H       5.914602     -0.469302     -8.634304
  C       6.188095     -0.498238     -6.467344
  H       5.784986      0.527691     -6.278583
  H       5.877071     -1.114101     -5.589806
  C       7.740056     -0.426025     -6.501568
  H       8.090058      0.106020     -5.582499
  H       8.058856      0.212406     -7.360235
  C       8.444511     -1.808601     -6.570104
  H       8.035823     -2.457119     -5.756754
  H       8.183611     -2.323655     -7.526970
  C       9.991880     -1.749326     -6.438736
  H      10.260689     -1.263551     -5.467928
  H      10.386463     -2.792660     -6.376503
  C      10.708114     -1.012748     -7.599781
  H      11.815846     -1.057053     -7.485298
  H      10.455423     -1.472243     -8.584772
  H      10.424831      0.063496     -7.652223
138
Coordinates from ORCA-job /wrk/rja7/qm_final_3_replicates/qm_final_1.1/qm/2/freq E -2722.564367441704
  N       1.551203      0.000266     12.252994
  C       1.247648      1.437684     11.699762
  H       1.551135      2.129099     12.517525
  H       0.147883      1.470661     11.560056
  C       0.615060     -0.227534     13.435889
  H      -0.428149     -0.203702     13.061488
  H       0.832398     -1.214929     13.894176
  H       0.766650      0.578410     14.182253
  C       2.995184     -0.085751     12.722022
  H       3.184969     -1.100702     13.127773
  H       3.668273      0.101781     11.863272
  H       3.169489      0.674782     13.511140
  C       1.284676     -1.104166     11.209180
  H       2.029125     -1.005243     10.396347
  H       0.278778     -0.920852     10.764991
  H       1.375211     -2.077742     11.734465
  C       1.942107      1.827520     10.367818
  H       1.673254      2.911664     10.236689
  H       3.055605      1.782835     10.474044
  P      -0.172990      1.258512      8.789950
  O      -0.461851      2.742872      8.726107
  O      -0.936020      0.263283      9.692899
  O       1.551315      1.056911      9.249690
  O      -0.010791      0.646612      7.232752
  C       0.205387     -0.759811      7.038771
  H      -0.352667     -1.362285      7.796356
  H       1.296096     -1.004731      7.136723
  C      -0.261080     -1.149671      5.623208
  H       0.164334     -0.451611      4.869941
  O      -1.724396     -1.039638      5.608473
  C      -2.331879     -0.560818      4.473537
  O      -1.734847     -0.286112      3.438566
  C      -3.842937     -0.400056      4.698963
  H      -4.013128      0.672698      4.969241
  H      -4.135219     -0.988482      5.596099
  C       0.156341     -2.603475      5.281510
  H      -0.203731     -3.301943      6.070393
  H       1.267035     -2.658401      5.214509
  O      -0.452613     -3.067594      4.045161
  C       0.150545     -2.694356      2.854704
  O       1.225187     -2.117282      2.789801
  C      -0.737926     -3.109511      1.674266
  H      -1.069753     -4.163599      1.831817
  H      -1.659302     -2.485545      1.757826
  C      -4.720144     -0.787078      3.472759
  H      -5.779323     -0.852824      3.822317
  H      -4.448814     -1.818876      3.138905
  C      -4.646563      0.182532      2.264231
  H      -3.592844      0.258327      1.914787
  H      -4.929983      1.210908      2.601867
  C      -5.550844     -0.247057      1.079792
  H      -6.627599     -0.170441      1.375386
  H      -5.375892     -1.328735      0.853889
  C      -5.301041      0.577100     -0.209013
  H      -4.234744      0.455237     -0.514864
  H      -5.432949      1.666085      0.010484
  C      -6.221180      0.184308     -1.391491
  H      -7.282581      0.413634     -1.128584
  H      -6.179932     -0.922411     -1.547777
  C      -5.868739      0.903823     -2.732331
  H      -5.924596      2.006841     -2.587287
  H      -6.658850      0.647705     -3.482603
  C      -4.516247      0.485677     -3.287815
  H      -4.405271     -0.608714     -3.442458
  C      -3.445827      1.267467     -3.572389
  H      -2.534198      0.766013     -3.960136
  C      -3.337703      2.778374     -3.453069
  H      -2.613095      3.033322     -2.636476
  H      -4.312878      3.216216     -3.142114
  C      -2.842075      3.451463     -4.766697
  H      -3.532406      3.179897     -5.599562
  H      -1.852565      3.012230     -5.043028
  C      -2.698394      4.996845     -4.674198
  H      -2.190244      5.361926     -5.600618
  H      -2.009071      5.243276     -3.830053
  C      -4.026116      5.785696     -4.484644
  H      -3.781657      6.867460     -4.348511
  H      -4.526594      5.474285     -3.534605
  C      -5.037031      5.642389     -5.650679
  H      -5.343102      4.572959     -5.756483
  H      -4.536395      5.913992     -6.613739
  C      -6.314226      6.500451     -5.460611
  H      -6.024433      7.576584     -5.363086
  H      -6.798790      6.230095     -4.489164
  C      -7.344896      6.353844     -6.609691
  H      -7.589593      5.272202     -6.751610
  H      -6.871551      6.683804     -7.567486
  C      -8.647783      7.157022     -6.377208
  H      -9.354502      7.049147     -7.232428
  H      -8.437500      8.245344     -6.250841
  H      -9.176356      6.813647     -5.456881
  C      -0.091012     -2.925261      0.280185
  H       0.233730     -1.863689      0.168384
  H      -0.885036     -3.094895     -0.486458
  C       1.104567     -3.872202     -0.005877
  H       0.814556     -4.922317      0.252331
  H       1.953921     -3.610762      0.667174
  C       1.575567     -3.837609     -1.483125
  H       1.790932     -2.780676     -1.773963
  H       0.734132     -4.167272     -2.143369
  C       2.816587     -4.730223     -1.755267
  H       3.714493     -4.274167     -1.268958
  H       2.668657     -5.717008     -1.251507
  C       3.114377     -4.998096     -3.254806
  H       3.943879     -5.742767     -3.331156
  H       2.224068     -5.486301     -3.723402
  C       3.502935     -3.746943     -4.092557
  H       4.429321     -3.292917     -3.651438
  H       2.715497     -2.964738     -4.001052
  C       3.752674     -4.086698     -5.559269
  H       4.053177     -5.135977     -5.760533
  C       3.645860     -3.248465     -6.618731
  H       3.843061     -3.666501     -7.627646
  C       3.287326     -1.767918     -6.577166
  H       3.495771     -1.346636     -5.567725
  H       2.184516     -1.643967     -6.729618
  C       4.028040     -0.928721     -7.663031
  H       3.714406      0.138859     -7.565120
  H       3.678342     -1.258481     -8.671668
  C       5.579448     -1.019805     -7.620891
  H       5.891429     -2.067779     -7.845605
  H       5.992401     -0.401236     -8.455727
  C       6.218794     -0.552542     -6.288042
  H       5.856056      0.478740     -6.052403
  H       5.864676     -1.199022     -5.449661
  C       7.773160     -0.550322     -6.290523
  H       8.133300     -0.097962     -5.333879
  H       8.136173      0.123657     -7.103343
  C       8.410843     -1.959500     -6.443470
  H       7.956858     -2.639092     -5.681288
  H       8.141767     -2.393048     -7.437159
  C       9.957289     -1.988806     -6.286695
  H      10.232705     -1.586980     -5.279890
  H      10.295560     -3.053440     -6.290067
  C      10.730286     -1.211922     -7.382874
  H      11.832178     -1.321590     -7.256935
  H      10.468897     -1.584896     -8.401608
  H      10.503349     -0.121148     -7.360910
138
Coordinates from ORCA-job /wrk/rja7/qm_final_3_replicates/qm_final_1.1/qm/2/freq E -2722.564765281203
  N       1.504416      0.063211     12.221972
  C       1.200684      1.488566     11.640379
  H       1.473555      2.198328     12.453028
  H       0.104136      1.507270     11.472867
  C       0.516223     -0.181216     13.356855
  H      -0.506427     -0.189059     12.928400
  H       0.740235     -1.159698     13.830334
  H       0.611172      0.633262     14.103579
  C       2.923183      0.013170     12.766309
  H       3.116828     -0.998755     13.178199
  H       3.635402      0.222140     11.944587
  H       3.035915      0.774712     13.565707
  C       1.308691     -1.053163     11.174699
  H       2.077604     -0.939302     10.388753
  H       0.309507     -0.903448     10.699631
  H       1.409167     -2.022613     11.707197
  C       1.925294      1.866072     10.319811
  H       1.667177      2.949711     10.171843
  H       3.037310      1.813776     10.445347
  P      -0.160648      1.257107      8.722765
  O      -0.460929      2.737478      8.654344
  O      -0.922339      0.262967      9.626020
  O       1.556726      1.078157      9.207433
  O       0.024695      0.639253      7.172108
  C       0.206919     -0.772137      6.983604
  H      -0.375334     -1.355764      7.738504
  H       1.289434     -1.045722      7.091440
  C      -0.262609     -1.154415      5.567577
  H       0.218543     -0.496229      4.812268
  O      -1.716345     -0.949623      5.527398
  C      -2.268984     -0.460220      4.368785
  O      -1.638868     -0.276521      3.333183
  C      -3.769220     -0.185636      4.556508
  H      -3.870321      0.908639      4.766132
  H      -4.113812     -0.706771      5.476461
  C       0.060003     -2.638830      5.254203
  H      -0.369618     -3.300276      6.040285
  H       1.165693     -2.772781      5.220470
  O      -0.544733     -3.085860      4.009455
  C       0.121542     -2.780661      2.834573
  O       1.228038     -2.264828      2.796711
  C      -0.757397     -3.155521      1.633278
  H      -1.132499     -4.196079      1.783717
  H      -1.656075     -2.498150      1.692828
  C      -4.652908     -0.576481      3.335544
  H      -5.718142     -0.555304      3.672442
  H      -4.446188     -1.639535      3.058171
  C      -4.503816      0.321920      2.078936
  H      -3.446467      0.305221      1.733281
  H      -4.716491      1.383480      2.361254
  C      -5.438003     -0.101633      0.915562
  H      -6.506298      0.057742      1.208829
  H      -5.334164     -1.202765      0.745559
  C      -5.144492      0.638811     -0.414742
  H      -4.089570      0.437086     -0.720200
  H      -5.206835      1.743823     -0.251592
  C      -6.101802      0.243820     -1.566937
  H      -7.150800      0.506723     -1.284621
  H      -6.091330     -0.867459     -1.694204
  C      -5.767000      0.915809     -2.936121
  H      -5.781492      2.023387     -2.818690
  H      -6.590080      0.669370     -3.653545
  C      -4.450111      0.435550     -3.525467
  H      -4.396474     -0.661979     -3.687958
  C      -3.354103      1.167504     -3.848129
  H      -2.482981      0.623481     -4.270609
  C      -3.162192      2.669830     -3.718810
  H      -2.358181      2.878861     -2.966750
  H      -4.082839      3.147210     -3.317283
  C      -2.760708      3.344786     -5.064769
  H      -3.537421      3.116180     -5.832598
  H      -1.820585      2.873300     -5.441252
  C      -2.546960      4.881221     -4.958543
  H      -2.166228      5.262973     -5.937488
  H      -1.733264      5.073591     -4.217069
  C      -3.797214      5.706351     -4.538739
  H      -3.488195      6.770163     -4.392083
  H      -4.160157      5.365760     -3.537917
  C      -4.977239      5.668629     -5.542174
  H      -5.282057      4.610618     -5.730897
  H      -4.638495      6.070396     -6.529794
  C      -6.219538      6.456119     -5.053067
  H      -5.930661      7.518492     -4.852686
  H      -6.549698      6.043087     -4.067307
  C      -7.408754      6.432580     -6.046990
  H      -7.652104      5.372856     -6.306577
  H      -7.092173      6.912903     -7.006151
  C      -8.675966      7.139889     -5.509330
  H      -9.501381      7.130416     -6.258063
  H      -8.467976      8.205650     -5.252729
  H      -9.053508      6.644891     -4.583639
  C      -0.072644     -2.995861      0.253887
  H       0.278540     -1.943056      0.145607
  H      -0.853331     -3.148092     -0.530059
  C       1.106643     -3.970657     -0.006141
  H       0.792783     -5.011630      0.260441
  H       1.952289     -3.715841      0.673809
  C       1.594643     -3.962928     -1.479309
  H       1.814822     -2.912087     -1.787583
  H       0.759913     -4.304083     -2.142420
  C       2.840657     -4.858707     -1.720587
  H       3.731849     -4.389723     -1.233979
  H       2.688305     -5.834219     -1.196253
  C       3.157371     -5.162354     -3.209947
  H       4.000087     -5.894309     -3.259012
  H       2.279233     -5.681617     -3.668821
  C       3.526249     -3.931389     -4.086369
  H       4.429908     -3.432204     -3.646092
  H       2.715338     -3.169754     -4.037278
  C       3.809138     -4.320452     -5.535322
  H       4.172304     -5.358649     -5.684273
  C       3.660766     -3.543615     -6.636898
  H       3.897745     -3.998197     -7.621336
  C       3.185046     -2.097338     -6.680184
  H       3.311471     -1.617295     -5.683612
  H       2.084191     -2.070833     -6.886755
  C       3.905067     -1.247232     -7.772842
  H       3.483521     -0.212784     -7.756133
  H       3.652587     -1.665730     -8.777472
  C       5.452721     -1.175635     -7.639519
  H       5.880193     -2.197475     -7.769575
  H       5.853657     -0.572113     -8.491639
  C       5.956628     -0.558881     -6.308674
  H       5.477738      0.441840     -6.170344
  H       5.615018     -1.182343     -5.447266
  C       7.500117     -0.395057     -6.221273
  H       7.750546      0.158727     -5.283088
  H       7.845155      0.255522     -7.061148
  C       8.286895     -1.735282     -6.230646
  H       7.852532     -2.407495     -5.450639
  H       8.132477     -2.259890     -7.204231
  C       9.813956     -1.592324     -5.976573
  H       9.978003     -1.095996     -4.987762
  H      10.254929     -2.613938     -5.878960
  C      10.580783     -0.816789     -7.077984
  H      11.677129     -0.807350     -6.877723
  H      10.426413     -1.282427     -8.080446
  H      10.249721      0.244675     -7.150179
138
Coordinates from ORCA-job /wrk/rja7/qm_final_3_replicates/qm_final_1.1/qm/2/freq E -2722.565645599626
  N       1.584766      0.146714     12.145928
  C       1.210424      1.539151     11.525889
  H       1.444788      2.282253     12.321005
  H       0.114084      1.498316     11.360684
  C       0.604250     -0.118772     13.283595
  H      -0.414332     -0.194306     12.852181
  H       0.880142     -1.071278     13.781799
  H       0.653666      0.718462     14.009581
  C       2.999367      0.188776     12.699574
  H       3.243852     -0.799812     13.140765
  H       3.705206      0.412565     11.875722
  H       3.066379      0.977928     13.477138
  C       1.456068     -1.010066     11.133725
  H       2.223268     -0.879944     10.350282
  H       0.451904     -0.933025     10.651900
  H       1.607480     -1.956113     11.696904
  C       1.915467      1.923588     10.196190
  H       1.621164      2.995153     10.035591
  H       3.030492      1.908625     10.309519
  P      -0.179473      1.199491      8.674411
  O      -0.554876      2.662813      8.634577
  O      -0.857346      0.161007      9.592940
  O       1.557264      1.107641      9.102817
  O      -0.013507      0.605804      7.113556
  C       0.195120     -0.798585      6.905244
  H      -0.356589     -1.401103      7.668265
  H       1.285766     -1.049723      6.983261
  C      -0.300254     -1.176152      5.496649
  H       0.160449     -0.509201      4.736090
  O      -1.757337     -0.979906      5.491024
  C      -2.340637     -0.479934      4.351883
  O      -1.735325     -0.268422      3.306497
  C      -3.835623     -0.204712      4.579275
  H      -3.932131      0.888037      4.796690
  H      -4.159339     -0.733515      5.502536
  C       0.028148     -2.656833      5.171596
  H      -0.402235     -3.326882      5.949983
  H       1.134581     -2.786159      5.141197
  O      -0.564822     -3.098907      3.919960
  C       0.122835     -2.796594      2.756865
  O       1.246483     -2.317448      2.738895
  C      -0.733418     -3.173609      1.540482
  H      -1.116058     -4.212040      1.688711
  H      -1.629677     -2.513251      1.579406
  C      -4.742309     -0.590955      3.374962
  H      -5.802125     -0.556695      3.727241
  H      -4.549890     -1.657763      3.101800
  C      -4.597320      0.293594      2.108245
  H      -3.547019      0.252602      1.745086
  H      -4.785748      1.361913      2.382056
  C      -5.559991     -0.127249      0.967693
  H      -6.620177      0.029288      1.290346
  H      -5.460055     -1.228198      0.792686
  C      -5.299005      0.611968     -0.369144
  H      -4.251089      0.409954     -0.699149
  H      -5.356158      1.717372     -0.206740
  C      -6.281573      0.213512     -1.499038
  H      -7.324129      0.484030     -1.200757
  H      -6.278554     -0.898723     -1.618783
  C      -5.956858      0.866865     -2.878251
  H      -5.951020      1.975801     -2.771469
  H      -6.792306      0.626408     -3.583041
  C      -4.655159      0.353792     -3.473691
  H      -4.633723     -0.743673     -3.642730
  C      -3.537582      1.053007     -3.793944
  H      -2.682382      0.482212     -4.213750
  C      -3.296822      2.546981     -3.657526
  H      -2.480476      2.723033     -2.910862
  H      -4.196994      3.053086     -3.246917
  C      -2.880078      3.212702     -5.003917
  H      -3.674228      3.024157     -5.765701
  H      -1.968044      2.697921     -5.392033
  C      -2.586101      4.736195     -4.895551
  H      -2.185376      5.096697     -5.874418
  H      -1.761959      4.887762     -4.155797
  C      -3.790610      5.628689     -4.482702
  H      -3.423003      6.673344     -4.333332
  H      -4.176029      5.310627     -3.483891
  C      -4.964103      5.654830     -5.495786
  H      -5.323531      4.615240     -5.692320
  H      -4.595136      6.040320     -6.478742
  C      -6.165015      6.511497     -5.019443
  H      -5.817843      7.553492     -4.804840
  H      -6.534318      6.110784     -4.042484
  C      -7.338564      6.565326     -6.030332
  H      -7.645404      5.523292     -6.294756
  H      -6.979643      7.025521     -6.984166
  C      -8.566213      7.349345     -5.506704
  H      -9.383212      7.389544     -6.263394
  H      -8.296199      8.400670     -5.248259
  H      -8.982759      6.879315     -4.584668
  C      -0.025933     -3.020255      0.172103
  H       0.336099     -1.969672      0.068328
  H      -0.797970     -3.163061     -0.622367
  C       1.144330     -4.007490     -0.079834
  H       0.815112     -5.047390      0.171715
  H       1.984514     -3.767938      0.612195
  C       1.644352     -3.988929     -1.548333
  H       1.881337     -2.937683     -1.842061
  H       0.809235     -4.309175     -2.221321
  C       2.878682     -4.898104     -1.797721
  H       3.771739     -4.455662     -1.290088
  H       2.706443     -5.884430     -1.300539
  C       3.202145     -5.163665     -3.292329
  H       4.035250     -5.905338     -3.359151
  H       2.320173     -5.657264     -3.771728
  C       3.588444     -3.910621     -4.127609
  H       4.498104     -3.437778     -3.671625
  H       2.787677     -3.140381     -4.049716
  C       3.855918     -4.252157     -5.590931
  H       4.212722     -5.286281     -5.778663
  C       3.699494     -3.437970     -6.663328
  H       3.922998     -3.859736     -7.665548
  C       3.228560     -1.990254     -6.652951
  H       3.344707     -1.551633     -5.636325
  H       2.130488     -1.950781     -6.871664
  C       3.964710     -1.102074     -7.700888
  H       3.568762     -0.059776     -7.630860
  H       3.702622     -1.463276     -8.725388
  C       5.513138     -1.080661     -7.565371
  H       5.909533     -2.105786     -7.752560
  H       5.932257     -0.440522     -8.381079
  C       6.031455     -0.556517     -6.200057
  H       5.579145      0.447172     -6.005919
  H       5.669359     -1.218614     -5.376378
  C       7.578386     -0.438743     -6.098115
  H       7.836171      0.064847     -5.133802
  H       7.946584      0.241271     -6.904556
  C       8.331670     -1.795772     -6.162171
  H       7.869254     -2.494220     -5.422153
  H       8.179211     -2.269586     -7.161968
  C       9.857282     -1.703403     -5.879648
  H      10.018014     -1.258649     -4.866112
  H      10.272244     -2.739095     -5.825039
  C      10.659724     -0.894848     -6.930921
  H      11.752526     -0.921251     -6.713430
  H      10.512538     -1.309494     -7.956691
  H      10.354189      0.176181     -6.958274
138
Coordinates from ORCA-job /wrk/rja7/qm_final_3_replicates/qm_final_1.1/qm/2/freq E -2722.565996817121
  N       1.691449      0.223954     12.106171
  C       1.113499      1.560621     11.520735
  H       1.250077      2.314464     12.329740
  H       0.031499      1.367374     11.372140
  C       0.771800     -0.203242     13.247669
  H      -0.231440     -0.413158     12.824684
  H       1.188045     -1.118573     13.717218
  H       0.712901      0.615229     13.994796
  C       3.091491      0.457593     12.647109
  H       3.477704     -0.493172     13.071073
  H       3.749567      0.788952     11.819152
  H       3.058831      1.238201     13.435966
  C       1.724831     -0.922868     11.073663
  H       2.461962     -0.673117     10.290503
  H       0.717646     -0.988958     10.598306
  H       2.015966     -1.846764     11.619793
  C       1.733869      2.069388     10.189161
  H       1.303600      3.097999     10.066365
  H       2.844969      2.191065     10.275877
  P      -0.288920      1.084071      8.719832
  O      -0.879412      2.474857      8.755858
  O      -0.765523     -0.075243      9.619833
  O       1.453852      1.239848      9.083208
  O      -0.098095      0.572092      7.134265
  C       0.236481     -0.798728      6.876011
  H      -0.236780     -1.468341      7.635533
  H       1.347805     -0.948542      6.920382
  C      -0.257824     -1.188273      5.469431
  H       0.150230     -0.488542      4.707642
  O      -1.723845     -1.074969      5.491062
  C      -2.354956     -0.595887      4.368026
  O      -1.784506     -0.342777      3.311804
  C      -3.850915     -0.368940      4.638070
  H      -3.973103      0.716666      4.875716
  H      -4.136456     -0.922616      5.559583
  C       0.146608     -2.644294      5.134349
  H      -0.238096     -3.336591      5.917419
  H       1.257814     -2.714943      5.090123
  O      -0.441572     -3.114166      3.889685
  C       0.213811     -2.780990      2.715144
  O       1.316718     -2.254944      2.680425
  C      -0.644638     -3.187026      1.509928
  H      -0.995950     -4.235441      1.667174
  H      -1.560544     -2.552206      1.557090
  C      -4.776604     -0.759913      3.450143
  H      -5.828619     -0.741251      3.825357
  H      -4.574426     -1.822375      3.166964
  C      -4.669539      0.132799      2.185713
  H      -3.634296      0.084226      1.781872
  H      -4.837442      1.201016      2.473512
  C      -5.687616     -0.268504      1.086830
  H      -6.728431     -0.132889      1.475035
  H      -5.586271     -1.363186      0.875367
  C      -5.514885      0.510515     -0.241513
  H      -4.491725      0.318922     -0.647243
  H      -5.556387      1.610816     -0.043515
  C      -6.572098      0.144257     -1.315442
  H      -7.587333      0.451238     -0.964522
  H      -6.612047     -0.967854     -1.430556
  C      -6.289831      0.774172     -2.714739
  H      -6.214023      1.881786     -2.616881
  H      -7.172832      0.576719     -3.372792
  C      -5.050890      0.182692     -3.368392
  H      -5.108947     -0.912482     -3.542756
  C      -3.899329      0.804233     -3.723191
  H      -3.099462      0.174841     -4.167746
  C      -3.552147      2.278144     -3.604144
  H      -2.703618      2.394993     -2.882632
  H      -4.400286      2.853367     -3.174472
  C      -3.116034      2.893773     -4.969164
  H      -3.949269      2.783941     -5.705050
  H      -2.279340      2.277156     -5.377953
  C      -2.639210      4.373781     -4.897290
  H      -2.204102      4.651889     -5.888430
  H      -1.793944      4.444955     -4.169052
  C      -3.716415      5.431470     -4.524878
  H      -3.212176      6.423702     -4.424840
  H      -4.132388      5.215348     -3.512235
  C      -4.880769      5.564633     -5.544850
  H      -5.417533      4.590619     -5.652871
  H      -4.456969      5.788805     -6.555214
  C      -5.903303      6.667920     -5.168646
  H      -5.370282      7.643722     -5.043130
  H      -6.340688      6.434289     -4.165553
  C      -7.049523      6.841932     -6.198181
  H      -7.568614      5.861698     -6.340580
  H      -6.613923      7.100662     -7.194585
  C      -8.083433      7.919874     -5.788032
  H      -8.890866      8.029303     -6.548052
  H      -7.600921      8.918370     -5.665081
  H      -8.568692      7.666352     -4.815833
  C       0.040950     -3.019931      0.131554
  H       0.383553     -1.964002      0.020997
  H      -0.740536     -3.175480     -0.651505
  C       1.222341     -3.987669     -0.144336
  H       0.915659     -5.033231      0.111927
  H       2.072489     -3.734558      0.530820
  C       1.691229     -3.954583     -1.622717
  H       1.919457     -2.900241     -1.911498
  H       0.841786     -4.270474     -2.279499
  C       2.918828     -4.860959     -1.911039
  H       3.822196     -4.430280     -1.411587
  H       2.753389     -5.855883     -1.429239
  C       3.211792     -5.093912     -3.418034
  H       4.038298     -5.839152     -3.520327
  H       2.317553     -5.569451     -3.892948
  C       3.590882     -3.821717     -4.225959
  H       4.506719     -3.362733     -3.769586
  H       2.791543     -3.053697     -4.115399
  C       3.831766     -4.121051     -5.703281
  H       4.188116     -5.148160     -5.927521
  C       3.661063     -3.274642     -6.747430
  H       3.870029     -3.664979     -7.765625
  C       3.204062     -1.824082     -6.686012
  H       3.295814     -1.432090     -5.648463
  H       2.113304     -1.764050     -6.933943
  C       3.978030     -0.898883     -7.671940
  H       3.605180      0.147256     -7.552349
  H       3.727346     -1.198935     -8.719202
  C       5.523946     -0.925134     -7.508933
  H       5.897766     -1.946082     -7.757399
  H       5.975087     -0.242106     -8.270444
  C       6.026551     -0.510318     -6.099836
  H       5.595483      0.489244     -5.845493
  H       5.629883     -1.218037     -5.332077
  C       7.573161     -0.440377     -5.957969
  H       7.820797     -0.005425     -4.958096
  H       7.977878      0.279032     -6.711325
  C       8.293738     -1.809364     -6.091358
  H       7.793553     -2.543522     -5.412522
  H       8.158874     -2.212601     -7.124715
  C       9.811679     -1.774281     -5.761038
  H       9.952564     -1.397927     -4.717244
  H      10.201559     -2.821176     -5.760885
  C      10.662700     -0.919311     -6.734595
  H      11.746944     -0.979239     -6.483503
  H      10.544383     -1.269062     -7.788042
  H      10.375643      0.156720     -6.707859
138
Coordinates from ORCA-job /wrk/rja7/qm_final_3_replicates/qm_final_1.1/qm/2/freq E -2722.566830640966
  N       1.650112      0.298279     12.126272
  C       1.225974      1.646789     11.446488
  H       1.413876      2.430224     12.215939
  H       0.135239      1.554358     11.271118
  C       0.640356      0.019400     13.237774
  H      -0.355499     -0.122399     12.771322
  H       0.945012     -0.901837     13.776838
  H       0.618859      0.880608     13.937278
  C       3.040677      0.431896     12.723734
  H       3.319925     -0.526914     13.208605
  H       3.762085      0.662106     11.914631
  H       3.045129      1.249767     13.474394
  C       1.627041     -0.899651     11.154703
  H       2.423960     -0.760256     10.402091
  H       0.643818     -0.896666     10.629442
  H       1.801483     -1.814923     11.760791
  C       1.929977      2.008662     10.108783
  H       1.605028      3.064368      9.910694
  H       3.043821      2.029273     10.230184
  P      -0.126725      1.126211      8.610269
  O      -0.594982      2.563714      8.574253
  O      -0.739043      0.046003      9.528294
  O       1.608394      1.145986      9.037077
  O       0.071586      0.540600      7.050734
  C       0.308869     -0.859874      6.843821
  H      -0.221561     -1.469499      7.615344
  H       1.405848     -1.086123      6.912980
  C      -0.188994     -1.256113      5.439198
  H       0.259010     -0.593530      4.666644
  O      -1.647530     -1.075606      5.440485
  C      -2.244337     -0.592439      4.300854
  O      -1.652728     -0.389742      3.245465
  C      -3.738008     -0.324167      4.542850
  H      -3.838223      0.770443      4.748632
  H      -4.047704     -0.845185      5.475362
  C       0.150944     -2.734347      5.135755
  H      -0.276940     -3.393939      5.924340
  H       1.258024     -2.857984      5.107878
  O      -0.446405     -3.194594      3.891272
  C       0.213637     -2.889272      2.711270
  O       1.315900     -2.362594      2.666453
  C      -0.666855     -3.273490      1.514874
  H      -1.021584     -4.321753      1.665363
  H      -1.578352     -2.633318      1.585383
  C      -4.659187     -0.726982      3.354693
  H      -5.713862     -0.688775      3.720592
  H      -4.468369     -1.796962      3.092390
  C      -4.536201      0.145998      2.078055
  H      -3.494550      0.095241      1.691531
  H      -4.712160      1.217964      2.346698
  C      -5.532582     -0.276835      0.967641
  H      -6.580672     -0.151284      1.339147
  H      -5.414332     -1.371104      0.764073
  C      -5.352422      0.501268     -0.360315
  H      -4.320078      0.327332     -0.749067
  H      -5.417755      1.601032     -0.165282
  C      -6.383600      0.112653     -1.450304
  H      -7.411802      0.382149     -1.106804
  H      -6.385942     -0.998869     -1.577429
  C      -6.109909      0.772066     -2.838431
  H      -6.076433      1.880210     -2.723915
  H      -6.978073      0.552618     -3.508865
  C      -4.842176      0.241614     -3.489009
  H      -4.854479     -0.851339     -3.685679
  C      -3.713085      0.916628     -3.816501
  H      -2.883783      0.331460     -4.267243
  C      -3.435370      2.402852     -3.672895
  H      -2.586896      2.547902     -2.956278
  H      -4.307470      2.928349     -3.225704
  C      -3.042201      3.063506     -5.029579
  H      -3.875336      2.922146     -5.759420
  H      -2.177299      2.499881     -5.456376
  C      -2.646370      4.565039     -4.935054
  H      -2.250137      4.887185     -5.929443
  H      -1.790734      4.667712     -4.223077
  C      -3.772425      5.550632     -4.513379
  H      -3.328240      6.571760     -4.419976
  H      -4.140783      5.298003     -3.489945
  C      -4.977359      5.616609     -5.490059
  H      -5.444561      4.607768     -5.598542
  H      -4.605653      5.888248     -6.509761
  C      -6.062739      6.636107     -5.057735
  H      -5.597345      7.645543     -4.931396
  H      -6.447386      6.354043     -4.045411
  C      -7.254147      6.743432     -6.044904
  H      -7.706541      5.730993     -6.188763
  H      -6.872940      7.049716     -7.050008
  C      -8.347252      7.737616     -5.579855
  H      -9.186526      7.801325     -6.310228
  H      -7.933474      8.766140     -5.454219
  H      -8.779306      7.433622     -4.597187
  C      -0.002871     -3.096018      0.127309
  H       0.345488     -2.041624      0.022665
  H      -0.797895     -3.238792     -0.644407
  C       1.169794     -4.066318     -0.175307
  H       0.859140     -5.113638      0.068783
  H       2.028125     -3.828900      0.495211
  C       1.624816     -4.013856     -1.657182
  H       1.860018     -2.957001     -1.930883
  H       0.767111     -4.311775     -2.311580
  C       2.841126     -4.926669     -1.971243
  H       3.751727     -4.514635     -1.469310
  H       2.668712     -5.928895     -1.507476
  C       3.121212     -5.134563     -3.484676
  H       3.938928     -5.886728     -3.605223
  H       2.218905     -5.591065     -3.962857
  C       3.510261     -3.851888     -4.271550
  H       4.430648     -3.409142     -3.808261
  H       2.717104     -3.079771     -4.148700
  C       3.753427     -4.129400     -5.752525
  H       4.109300     -5.153579     -5.990619
  C       3.591350     -3.266637     -6.784928
  H       3.804501     -3.642389     -7.807717
  C       3.148368     -1.812186     -6.705005
  H       3.212075     -1.444105     -5.656892
  H       2.066909     -1.734408     -6.985955
  C       3.965103     -0.874250     -7.644790
  H       3.594405      0.171877     -7.519154
  H       3.752285     -1.152459     -8.706220
  C       5.503914     -0.911083     -7.423853
  H       5.882558     -1.930525     -7.673239
  H       5.986885     -0.219410     -8.157147
  C       5.955640     -0.519678     -5.991107
  H       5.522058      0.479119     -5.737361
  H       5.526946     -1.236067     -5.249892
  C       7.496521     -0.463874     -5.794377
  H       7.713139     -0.054168     -4.776897
  H       7.931662      0.268856     -6.516841
  C       8.209581     -1.836065     -5.937985
  H       7.684484     -2.581962     -5.291700
  H       8.102100     -2.213137     -6.984548
  C       9.717836     -1.821471     -5.563930
  H       9.832042     -1.472031     -4.507518
  H      10.099966     -2.871090     -5.578384
  C      10.602172     -0.950116     -6.492082
  H      11.678269     -1.022011     -6.210906
  H      10.512557     -1.275032     -7.556204
  H      10.320424      0.126879     -6.449252
138
Coordinates from ORCA-job /wrk/rja7/qm_final_3_replicates/qm_final_1.1/qm/2/freq E -2722.567209042360
  N       1.651765      0.261310     12.114067
  C       1.209565      1.621004     11.472465
  H       1.390773      2.388068     12.258812
  H       0.119740      1.523318     11.295923
  C       0.630242     -0.080136     13.195823
  H      -0.352755     -0.228355     12.704448
  H       0.945882     -1.011872     13.709932
  H       0.573430      0.755784     13.923046
  C       3.030459      0.403416     12.737794
  H       3.325913     -0.566152     13.189753
  H       3.756927      0.681366     11.949061
  H       3.005094      1.191229     13.519365
  C       1.670953     -0.898385     11.097166
  H       2.475805     -0.711144     10.362995
  H       0.695097     -0.896783     10.557709
  H       1.857915     -1.831770     11.669756
  C       1.906426      2.015575     10.141944
  H       1.570657      3.071865      9.962473
  H       3.019562      2.044290     10.264287
  P      -0.134579      1.129772      8.619903
  O      -0.621259      2.561730      8.598143
  O      -0.742400      0.032662      9.521152
  O       1.596163      1.165296      9.056350
  O       0.078473      0.561164      7.056489
  C       0.308049     -0.839371      6.836360
  H      -0.221119     -1.453058      7.605031
  H       1.403957     -1.071756      6.898818
  C      -0.198355     -1.221551      5.430792
  H       0.257283     -0.562454      4.660219
  O      -1.653854     -1.020376      5.434334
  C      -2.243386     -0.535670      4.292118
  O      -1.649682     -0.359756      3.233383
  C      -3.732529     -0.241421      4.532270
  H      -3.815595      0.858212      4.719373
  H      -4.046949     -0.740295      5.475023
  C       0.119361     -2.704558      5.118058
  H      -0.316876     -3.361787      5.903745
  H       1.224402     -2.845078      5.086878
  O      -0.487724     -3.148661      3.872991
  C       0.178528     -2.846889      2.697018
  O       1.298152     -2.358631      2.658209
  C      -0.691193     -3.240397      1.495972
  H      -1.054992     -4.284538      1.652980
  H      -1.598867     -2.594118      1.548146
  C      -4.665716     -0.648788      3.354087
  H      -5.718201     -0.587783      3.723567
  H      -4.494349     -1.725778      3.107449
  C      -4.535422      0.204362      2.064274
  H      -3.494912      0.134119      1.677663
  H      -4.696705      1.282293      2.317702
  C      -5.535567     -0.219874      0.957897
  H      -6.583564     -0.065884      1.318979
  H      -5.438225     -1.319927      0.777373
  C      -5.330042      0.527503     -0.384134
  H      -4.297884      0.327349     -0.759269
  H      -5.378847      1.631808     -0.211523
  C      -6.358441      0.135265     -1.474909
  H      -7.385142      0.417902     -1.136952
  H      -6.371409     -0.977542     -1.588579
  C      -6.080358      0.781100     -2.869499
  H      -6.036857      1.889524     -2.763664
  H      -6.952203      0.565268     -3.536334
  C      -4.819366      0.236886     -3.521469
  H      -4.840916     -0.856793     -3.714119
  C      -3.685922      0.903278     -3.854065
  H      -2.863537      0.312235     -4.309640
  C      -3.396804      2.388143     -3.713821
  H      -2.538379      2.529646     -3.008109
  H      -4.260694      2.918573     -3.254863
  C      -3.018679      3.048427     -5.074569
  H      -3.861118      2.911432     -5.793266
  H      -2.158946      2.486708     -5.514689
  C      -2.624820      4.548267     -4.974720
  H      -2.246404      4.883138     -5.972164
  H      -1.758990      4.642885     -4.274446
  C      -3.746953      5.521453     -4.515378
  H      -3.303680      6.541218     -4.404966
  H      -4.103957      5.243051     -3.493279
  C      -4.961211      5.610387     -5.475807
  H      -5.423389      4.602516     -5.607120
  H      -4.601255      5.912328     -6.491705
  C      -6.049701      6.607104     -5.002274
  H      -5.590890      7.616414     -4.853193
  H      -6.422788      6.294120     -3.994702
  C      -7.251281      6.731270     -5.974573
  H      -7.697797      5.719683     -6.139793
  H      -6.880994      7.065541     -6.975197
  C      -8.346192      7.705998     -5.475709
  H      -9.191615      7.782601     -6.197854
  H      -7.937721      8.733667     -5.327448
  H      -8.768471      7.374395     -4.497747
  C      -0.007391     -3.080561      0.117053
  H       0.348436     -2.029689      0.009066
  H      -0.791838     -3.226195     -0.664719
  C       1.166720     -4.057281     -0.158912
  H       0.851186     -5.100527      0.096085
  H       2.018361     -3.812589      0.517645
  C       1.638992     -4.024141     -1.636349
  H       1.877452     -2.970608     -1.920061
  H       0.788774     -4.330402     -2.296741
  C       2.859991     -4.939114     -1.925007
  H       3.765846     -4.518309     -1.421681
  H       2.684100     -5.934499     -1.447830
  C       3.154634     -5.170742     -3.432199
  H       3.977582     -5.919841     -3.533645
  H       2.258632     -5.641238     -3.908553
  C       3.541435     -3.898652     -4.239238
  H       4.460521     -3.445771     -3.782535
  H       2.746184     -3.126879     -4.131335
  C       3.789293     -4.199948     -5.714853
  H       4.157180     -5.224355     -5.932604
  C       3.604083     -3.364564     -6.766844
  H       3.814926     -3.762624     -7.781661
  C       3.135134     -1.916895     -6.721940
  H       3.177774     -1.525686     -5.681200
  H       2.056710     -1.865339     -7.020243
  C       3.946507     -0.981439     -7.672903
  H       3.548455      0.057922     -7.577963
  H       3.755696     -1.289505     -8.729833
  C       5.482798     -0.970762     -7.430845
  H       5.892956     -1.986435     -7.641498
  H       5.956095     -0.290512     -8.181210
  C       5.908212     -0.518605     -6.008242
  H       5.448287      0.477244     -5.792230
  H       5.490209     -1.220354     -5.247835
  C       7.445513     -0.421536     -5.802407
  H       7.648339      0.014066     -4.793092
  H       7.866673      0.305428     -6.538648
  C       8.189744     -1.780543     -5.919146
  H       7.683489     -2.524327     -5.255999
  H       8.086969     -2.180501     -6.957342
  C       9.699227     -1.726185     -5.552560
  H       9.811056     -1.354455     -4.503467
  H      10.102945     -2.767637     -5.548996
  C      10.560606     -0.855017     -6.502042
  H      11.639265     -0.898048     -6.224810
  H      10.472505     -1.202240     -7.559171
  H      10.255592      0.216300     -6.478484
138
Coordinates from ORCA-job /wrk/rja7/qm_final_3_replicates/qm_final_1.1/qm/2/freq E -2722.567624035044
  N       1.634700      0.290083     12.105690
  C       1.156017      1.638301     11.465067
  H       1.297321      2.403781     12.260836
  H       0.072846      1.506747     11.271427
  C       0.585839     -0.114801     13.136677
  H      -0.364751     -0.306428     12.598238
  H       0.924198     -1.035976     13.655599
  H       0.451906      0.707798     13.869566
  C       2.978307      0.488832     12.787494
  H       3.304482     -0.472684     13.235450
  H       3.719471      0.815707     12.031922
  H       2.883722      1.260463     13.580023
  C       1.750661     -0.857226     11.080561
  H       2.573537     -0.625519     10.379931
  H       0.796301     -0.900742     10.505179
  H       1.962315     -1.785091     11.653533
  C       1.859089      2.071187     10.149402
  H       1.489727      3.117488      9.977570
  H       2.968691      2.135495     10.288803
  P      -0.129365      1.112268      8.604059
  O      -0.683975      2.520183      8.597550
  O      -0.687746     -0.022037      9.491900
  O       1.593382      1.225509      9.048729
  O       0.114619      0.567795      7.036555
  C       0.364469     -0.827846      6.802358
  H      -0.147277     -1.454471      7.571608
  H       1.464674     -1.043134      6.853330
  C      -0.147461     -1.209871      5.398803
  H       0.297007     -0.545821      4.626013
  O      -1.604243     -1.019465      5.413910
  C      -2.205000     -0.529062      4.280109
  O      -1.620170     -0.340715      3.218595
  C      -3.692329     -0.239111      4.535593
  H      -3.776203      0.861184      4.719015
  H      -3.994906     -0.734466      5.483970
  C       0.180861     -2.691361      5.083991
  H      -0.244352     -3.350302      5.874157
  H       1.286665     -2.823243      5.044625
  O      -0.432492     -3.144292      3.845115
  C       0.224987     -2.849317      2.662851
  O       1.337570     -2.346001      2.613006
  C      -0.654746     -3.247391      1.470442
  H      -1.012285     -4.292894      1.632450
  H      -1.564884     -2.605343      1.529936
  C      -4.638979     -0.652450      3.369972
  H      -5.687600     -0.583386      3.749033
  H      -4.475354     -1.732392      3.131170
  C      -4.516785      0.188756      2.071562
  H      -3.480230      0.107984      1.675909
  H      -4.668729      1.270010      2.316304
  C      -5.530372     -0.238509      0.978831
  H      -6.573939     -0.074155      1.348238
  H      -5.442441     -1.340778      0.807529
  C      -5.332876      0.494358     -0.372370
  H      -4.305240      0.284998     -0.754689
  H      -5.375544      1.600494     -0.210341
  C      -6.374124      0.096966     -1.448719
  H      -7.395960      0.382016     -1.097762
  H      -6.389667     -1.016284     -1.556927
  C      -6.116108      0.737987     -2.850099
  H      -6.065957      1.846410     -2.748481
  H      -6.999559      0.523139     -3.501667
  C      -4.868497      0.186225     -3.521404
  H      -4.902394     -0.906294     -3.719075
  C      -3.731839      0.843298     -3.862253
  H      -2.921330      0.246479     -4.331442
  C      -3.424438      2.324437     -3.720170
  H      -2.548428      2.452537     -3.033742
  H      -4.271659      2.862813     -3.239447
  C      -3.066856      2.985612     -5.086237
  H      -3.928807      2.870687     -5.784852
  H      -2.229708      2.408834     -5.550056
  C      -2.637795      4.475047     -4.985954
  H      -2.268380      4.806574     -5.987983
  H      -1.758789      4.544674     -4.299408
  C      -3.729865      5.471247     -4.503900
  H      -3.259847      6.479008     -4.393659
  H      -4.081547      5.194104     -3.479348
  C      -4.951370      5.597383     -5.450448
  H      -5.451031      4.606004     -5.567734
  H      -4.591259      5.875955     -6.473157
  C      -5.998292      6.637192     -4.977173
  H      -5.502697      7.631912     -4.849006
  H      -6.371816      6.352964     -3.961178
  C      -7.205614      6.787732     -5.938355
  H      -7.695421      5.791654     -6.072556
  H      -6.833439      7.080700     -6.951375
  C      -8.252907      7.820503     -5.454423
  H      -9.102244      7.913461     -6.169986
  H      -7.800094      8.833603     -5.337940
  H      -8.678370      7.533381     -4.463746
  C       0.017002     -3.088704      0.085729
  H       0.372378     -2.038454     -0.026845
  H      -0.773205     -3.235775     -0.689903
  C       1.190174     -4.064546     -0.198130
  H       0.876311     -5.108267      0.057094
  H       2.045483     -3.820892      0.474244
  C       1.655266     -4.027378     -1.677816
  H       1.895869     -2.973363     -1.957562
  H       0.800479     -4.327886     -2.335026
  C       2.870499     -4.946311     -1.977334
  H       3.781690     -4.534148     -1.476441
  H       2.690959     -5.943417     -1.505058
  C       3.155324     -5.170557     -3.487763
  H       3.972313     -5.924715     -3.599281
  H       2.253279     -5.631418     -3.961980
  C       3.548516     -3.895903     -4.288263
  H       4.480077     -3.460641     -3.839719
  H       2.765254     -3.114743     -4.163657
  C       3.772836     -4.187340     -5.769697
  H       4.136464     -5.210742     -5.999314
  C       3.566419     -3.348193     -6.814792
  H       3.761508     -3.741721     -7.834652
  C       3.097717     -1.901280     -6.758651
  H       3.115997     -1.525123     -5.711851
  H       2.027682     -1.843592     -7.084581
  C       3.933310     -0.953824     -7.677017
  H       3.535121      0.084899     -7.575167
  H       3.764861     -1.245748     -8.742265
  C       5.463853     -0.951393     -7.402470
  H       5.874420     -1.966200     -7.614313
  H       5.954937     -0.264976     -8.135786
  C       5.862178     -0.516456     -5.966492
  H       5.401131      0.478102     -5.747494
  H       5.427287     -1.226327     -5.223337
  C       7.395865     -0.427303     -5.730723
  H       7.582342     -0.012838     -4.709526
  H       7.831674      0.313090     -6.444835
  C       8.138681     -1.786063     -5.863100
  H       7.621702     -2.540988     -5.221060
  H       8.048330     -2.165305     -6.909894
  C       9.643386     -1.744188     -5.475471
  H       9.743011     -1.391832     -4.418478
  H      10.042836     -2.787192     -5.485892
  C      10.520591     -0.860042     -6.398086
  H      11.595046     -0.910501     -6.106242
  H      10.446569     -1.189348     -7.462030
  H      10.217598      0.211445     -6.361196
138
Coordinates from ORCA-job /wrk/rja7/qm_final_3_replicates/qm_final_1.1/qm/2/freq E -2722.567979119459
  N       1.724484      0.313728     12.077236
  C       1.276245      1.658513     11.405657
  H       1.454562      2.437447     12.180321
  H       0.186302      1.559470     11.233881
  C       0.657585     -0.048732     13.104937
  H      -0.288576     -0.239093     12.558067
  H       0.974923     -0.962242     13.650059
  H       0.528013      0.792725     13.817255
  C       3.063585      0.508678     12.768132
  H       3.372540     -0.446719     13.240617
  H       3.814993      0.807744     12.010931
  H       2.971503      1.299651     13.541413
  C       1.828257     -0.863105     11.086689
  H       2.654783     -0.664021     10.380259
  H       0.870527     -0.914501     10.517778
  H       2.031384     -1.775318     11.687482
  C       1.972612      2.040291     10.071274
  H       1.621037      3.088113      9.874198
  H       3.084678      2.088226     10.199314
  P      -0.044310      1.066711      8.574431
  O      -0.588174      2.479133      8.570886
  O      -0.599809     -0.059691      9.474768
  O       1.682053      1.172659      8.994727
  O       0.176573      0.512414      7.006944
  C       0.377014     -0.891173      6.766629
  H      -0.140785     -1.503499      7.542768
  H       1.470900     -1.139643      6.799238
  C      -0.164414     -1.250607      5.368468
  H       0.279596     -0.587644      4.594407
  O      -1.617692     -1.036131      5.405541
  C      -2.225031     -0.537221      4.279051
  O      -1.650378     -0.360546      3.209854
  C      -3.705285     -0.225809      4.550734
  H      -3.775257      0.878045      4.717038
  H      -3.999442     -0.703524      5.510669
  C       0.136646     -2.733674      5.032882
  H      -0.300620     -3.398433      5.811412
  H       1.240032     -2.883011      4.991363
  O      -0.479894     -3.156771      3.786019
  C       0.189419     -2.853083      2.613871
  O       1.302887     -2.350236      2.579526
  C      -0.687915     -3.218207      1.409929
  H      -1.061086     -4.260952      1.553049
  H      -1.589250     -2.564713      1.473141
  C      -4.671269     -0.648842      3.405218
  H      -5.714593     -0.561761      3.795143
  H      -4.523502     -1.734818      3.184196
  C      -4.553813      0.168386      2.091258
  H      -3.520407      0.074060      1.690685
  H      -4.698022      1.254523      2.317547
  C      -5.576239     -0.271282      1.012212
  H      -6.617067     -0.103810      1.388388
  H      -5.490812     -1.375350      0.851210
  C      -5.388127      0.447698     -0.347545
  H      -4.360867      0.237715     -0.731501
  H      -5.435250      1.555000     -0.196107
  C      -6.432696      0.035961     -1.415350
  H      -7.454375      0.319363     -1.062018
  H      -6.444100     -1.077968     -1.515166
  C      -6.181883      0.667906     -2.821818
  H      -6.135437      1.777067     -2.727400
  H      -7.065885      0.444251     -3.469489
  C      -4.933059      0.115377     -3.490020
  H      -4.967867     -0.976771     -3.688972
  C      -3.793873      0.770859     -3.825283
  H      -2.982046      0.172691     -4.290530
  C      -3.482339      2.250933     -3.681011
  H      -2.603375      2.374717     -2.997840
  H      -4.325716      2.790702     -3.195878
  C      -3.125963      2.912220     -5.047463
  H      -3.992232      2.805796     -5.742237
  H      -2.296581      2.327920     -5.515549
  C      -2.681674      4.397243     -4.945743
  H      -2.295788      4.721616     -5.943670
  H      -1.810338      4.458472     -4.248532
  C      -3.769114      5.408027     -4.483912
  H      -3.288155      6.410146     -4.369416
  H      -4.141975      5.139067     -3.465354
  C      -4.970919      5.544298     -5.454776
  H      -5.507411      4.568790     -5.540624
  H      -4.583244      5.764776     -6.481459
  C      -5.983885      6.643048     -5.047327
  H      -5.452291      7.623577     -4.960539
  H      -6.383557      6.424491     -4.025047
  C      -7.169546      6.789181     -6.035373
  H      -7.705871      5.811239     -6.112782
  H      -6.769379      6.996147     -7.058970
  C      -8.171663      7.900722     -5.639088
  H      -9.005553      7.984560     -6.373597
  H      -7.672055      8.896762     -5.583506
  H      -8.624999      7.702434     -4.638905
  C      -0.001763     -3.048128      0.034171
  H       0.372751     -2.002000     -0.056717
  H      -0.787288     -3.168202     -0.750757
  C       1.157705     -4.037872     -0.257540
  H       0.823048     -5.081185     -0.028515
  H       2.009607     -3.823873      0.428919
  C       1.637601     -3.976326     -1.731323
  H       1.905108     -2.921875     -1.983396
  H       0.781660     -4.240627     -2.402479
  C       2.831919     -4.917399     -2.046065
  H       3.750950     -4.542365     -1.530630
  H       2.623569     -5.920507     -1.598916
  C       3.115788     -5.112900     -3.560421
  H       3.909325     -5.889139     -3.688970
  H       2.201757     -5.533802     -4.048531
  C       3.551543     -3.831912     -4.328310
  H       4.505991     -3.449955     -3.879601
  H       2.802924     -3.023408     -4.171094
  C       3.742549     -4.091101     -5.819929
  H       4.082453     -5.115379     -6.080262
  C       3.529201     -3.225911     -6.841999
  H       3.696629     -3.600155     -7.874030
  C       3.090069     -1.772532     -6.748502
  H       3.085684     -1.431866     -5.689634
  H       2.032892     -1.679233     -7.105957
  C       3.972097     -0.816453     -7.612225
  H       3.599039      0.228532     -7.482266
  H       3.821043     -1.066442     -8.690806
  C       5.494762     -0.867125     -7.305145
  H       5.878641     -1.888496     -7.532735
  H       6.021252     -0.177258     -8.010174
  C       5.874954     -0.480082     -5.850089
  H       5.434043      0.519734     -5.614818
  H       5.407042     -1.197958     -5.135051
  C       7.405633     -0.434119     -5.582207
  H       7.580825     -0.056079     -4.544972
  H       7.872043      0.318718     -6.263411
  C       8.120994     -1.804320     -5.741901
  H       7.577600     -2.566034     -5.130181
  H       8.039111     -2.151228     -6.800268
  C       9.619738     -1.807414     -5.330206
  H       9.711329     -1.484593     -4.263181
  H       9.995422     -2.858751     -5.362734
  C      10.531391     -0.921209     -6.216925
  H      11.599625     -1.003274     -5.909808
  H      10.467353     -1.223539     -7.289480
  H      10.251982      0.155659     -6.158835
138
Coordinates from ORCA-job /wrk/rja7/qm_final_3_replicates/qm_final_1.1/qm/2/freq E -2722.568619441075
  N       1.734447      0.375600     12.043490
  C       1.304028      1.713050     11.343105
  H       1.474776      2.501867     12.109369
  H       0.216311      1.621030     11.155866
  C       0.613830     -0.002993     13.007825
  H      -0.291740     -0.216723     12.403748
  H       0.916864     -0.906121     13.577739
  H       0.424392      0.839031     13.706168
  C       3.025802      0.602458     12.810788
  H       3.332291     -0.345493     13.299751
  H       3.810317      0.922379     12.096334
  H       2.866624      1.389453     13.576685
  C       1.916103     -0.805959     11.070153
  H       2.767353     -0.593776     10.397283
  H       0.982125     -0.890413     10.467122
  H       2.119793     -1.705780     11.689596
  C       2.023777      2.073601     10.016426
  H       1.677863      3.119356      9.799909
  H       3.134158      2.119411     10.162389
  P       0.027748      1.059731      8.521358
  O      -0.532835      2.466201      8.504566
  O      -0.518698     -0.064686      9.431185
  O       1.747592      1.193170      8.947881
  O       0.265006      0.492688      6.960580
  C       0.431207     -0.916681      6.723158
  H      -0.099962     -1.514874      7.500999
  H       1.519612     -1.187555      6.757009
  C      -0.113830     -1.265513      5.324075
  H       0.343848     -0.610713      4.551043
  O      -1.563545     -1.026619      5.353949
  C      -2.157557     -0.518687      4.223853
  O      -1.572628     -0.341469      3.160100
  C      -3.634255     -0.186367      4.488860
  H      -3.693451      0.921111      4.632352
  H      -3.932638     -0.643631      5.457284
  C       0.160797     -2.752138      4.985676
  H      -0.288714     -3.411523      5.761926
  H       1.261269     -2.920384      4.943252
  O      -0.464560     -3.160049      3.737584
  C       0.205632     -2.864933      2.564104
  O       1.325629     -2.376448      2.526499
  C      -0.683967     -3.209254      1.361999
  H      -1.069966     -4.248038      1.500778
  H      -1.576914     -2.544520      1.436052
  C      -4.604419     -0.623047      3.352152
  H      -5.646924     -0.515742      3.739191
  H      -4.470084     -1.715427      3.155221
  C      -4.478380      0.165323      2.021511
  H      -3.444985      0.056265      1.624066
  H      -4.614991      1.256523      2.226599
  C      -5.505094     -0.285625      0.951271
  H      -6.544252     -0.111677      1.329536
  H      -5.423738     -1.391806      0.802233
  C      -5.324694      0.420593     -0.416623
  H      -4.297733      0.211667     -0.802872
  H      -5.377155      1.528864     -0.274747
  C      -6.373784     -0.005950     -1.473959
  H      -7.395305      0.268495     -1.112630
  H      -6.373964     -1.120280     -1.569259
  C      -6.144355      0.623203     -2.885149
  H      -6.105845      1.732976     -2.793772
  H      -7.034615      0.389723     -3.520448
  C      -4.900010      0.080226     -3.569074
  H      -4.934512     -1.009147     -3.781977
  C      -3.766685      0.743542     -3.907581
  H      -2.957992      0.155023     -4.390390
  C      -3.458319      2.222371     -3.745676
  H      -2.552718      2.338358     -3.097196
  H      -4.283741      2.744879     -3.213984
  C      -3.164774      2.915170     -5.112177
  H      -4.061687      2.819211     -5.769087
  H      -2.355840      2.343860     -5.629011
  C      -2.721878      4.400838     -4.997426
  H      -2.374522      4.747553     -6.001615
  H      -1.825011      4.450595     -4.332041
  C      -3.794505      5.398407     -4.475546
  H      -3.314343      6.401145     -4.362193
  H      -4.125509      5.109347     -3.449007
  C      -5.034965      5.544354     -5.396106
  H      -5.573118      4.568376     -5.470900
  H      -4.688903      5.775998     -6.434853
  C      -6.033559      6.635335     -4.936854
  H      -5.503115      7.618039     -4.869296
  H      -6.384947      6.409684     -3.898669
  C      -7.263815      6.779415     -5.869416
  H      -7.801033      5.800358     -5.921812
  H      -6.911397      6.986389     -6.910323
  C      -8.249946      7.888065     -5.428197
  H      -9.116300      7.968996     -6.124466
  H      -7.751217      8.885483     -5.395611
  H      -8.657273      7.689101     -4.408598
  C      -0.003908     -3.040866     -0.017724
  H       0.394119     -2.002664     -0.101700
  H      -0.797217     -3.134793     -0.798337
  C       1.129887     -4.054427     -0.327466
  H       0.766913     -5.092775     -0.119680
  H       1.985879     -3.876439      0.363773
  C       1.613254     -3.975483     -1.798783
  H       1.923340     -2.926653     -2.024345
  H       0.748287     -4.187724     -2.476684
  C       2.766456     -4.958050     -2.139905
  H       3.700501     -4.641199     -1.612713
  H       2.511988     -5.963438     -1.722665
  C       3.042238     -5.120656     -3.659320
  H       3.790164     -5.936782     -3.812732
  H       2.106857     -5.472367     -4.161348
  C       3.554492     -3.843216     -4.385443
  H       4.542059     -3.550900     -3.941637
  H       2.869600     -2.990147     -4.181606
  C       3.697889     -4.058625     -5.888542
  H       4.010057     -5.081016     -6.188392
  C       3.468717     -3.162517     -6.879772
  H       3.597965     -3.511862     -7.926055
  C       3.062800     -1.704031     -6.740280
  H       3.033848     -1.402934     -5.669909
  H       2.021425     -1.569634     -7.128719
  C       3.992980     -0.741467     -7.544052
  H       3.640501      0.307490     -7.390044
  H       3.869021     -0.952351     -8.634543
  C       5.503018     -0.839919     -7.194411
  H       5.862965     -1.869825     -7.422032
  H       6.068564     -0.156950     -7.875512
  C       5.851439     -0.479494     -5.723933
  H       5.428059      0.528310     -5.490774
  H       5.345204     -1.193171     -5.030872
  C       7.374829     -0.472392     -5.411791
  H       7.527459     -0.111174     -4.364923
  H       7.877761      0.278709     -6.068601
  C       8.063705     -1.856266     -5.565146
  H       7.487821     -2.611248     -4.974897
  H       8.001789     -2.192130     -6.628328
  C       9.550757     -1.896616     -5.115341
  H       9.623332     -1.583880     -4.043938
  H       9.903302     -2.956040     -5.147559
  C      10.504410     -1.025650     -5.972746
  H      11.562701     -1.135418     -5.640823
  H      10.459106     -1.319424     -7.048567
  H      10.249682      0.057255     -5.913288
138
Coordinates from ORCA-job /wrk/rja7/qm_final_3_replicates/qm_final_1.1/qm/2/freq E -2722.569371440743
  N       1.705153      0.448725     12.028232
  C       1.343517      1.779516     11.273266
  H       1.509175      2.584990     12.023281
  H       0.261933      1.719544     11.043966
  C       0.492307      0.077776     12.881066
  H      -0.344453     -0.148888     12.188830
  H       0.741127     -0.813331     13.494275
  H       0.232017      0.929968     13.543177
  C       2.911061      0.699181     12.917575
  H       3.182013     -0.240258     13.442919
  H       3.757207      1.027752     12.280618
  H       2.659713      1.488246     13.655247
  C       1.986926     -0.749292     11.097990
  H       2.882089     -0.540031     10.482945
  H       1.097677     -0.866992     10.436671
  H       2.160631     -1.630207     11.753410
  C       2.123428      2.084255      9.968091
  H       1.817992      3.134934      9.717137
  H       3.229372      2.096706     10.153555
  P       0.143052      1.061233      8.461467
  O      -0.408676      2.472023      8.421375
  O      -0.424407     -0.048073      9.379952
  O       1.853857      1.191363      8.909374
  O       0.402515      0.473556      6.911081
  C       0.526069     -0.940956      6.676665
  H      -0.026715     -1.521810      7.452796
  H       1.606504     -1.240307      6.718826
  C      -0.016012     -1.274555      5.273998
  H       0.462055     -0.626401      4.507824
  O      -1.461133     -1.007772      5.291889
  C      -2.038178     -0.471935      4.164543
  O      -1.437652     -0.265868      3.114591
  C      -3.518525     -0.148011      4.417742
  H      -3.587418      0.959759      4.552180
  H      -3.819405     -0.602342      5.386628
  C       0.229488     -2.763889      4.929083
  H      -0.228633     -3.416834      5.706241
  H       1.326299     -2.951983      4.879675
  O      -0.412912     -3.155901      3.682414
  C       0.248858     -2.873065      2.500400
  O       1.381984     -2.416705      2.448762
  C      -0.668732     -3.181951      1.307056
  H      -1.076072     -4.213683      1.438685
  H      -1.545624     -2.498722      1.407662
  C      -4.478363     -0.599709      3.277859
  H      -5.523749     -0.497779      3.658323
  H      -4.335257     -1.692380      3.088620
  C      -4.353820      0.183124      1.943813
  H      -3.315780      0.093029      1.553727
  H      -4.510575      1.272342      2.144917
  C      -5.366400     -0.287308      0.868460
  H      -6.410812     -0.129952      1.239526
  H      -5.265979     -1.392232      0.720687
  C      -5.193479      0.423353     -0.498956
  H      -4.157681      0.243337     -0.876804
  H      -5.278669      1.529514     -0.356695
  C      -6.222706     -0.032605     -1.563142
  H      -7.254636      0.212819     -1.210244
  H      -6.189169     -1.146525     -1.657920
  C      -6.002602      0.600741     -2.973382
  H      -5.994603      1.711217     -2.881265
  H      -6.883939      0.343102     -3.611540
  C      -4.742242      0.093453     -3.655525
  H      -4.751068     -0.992620     -3.886167
  C      -3.622691      0.788466     -3.973990
  H      -2.797266      0.230150     -4.464473
  C      -3.352884      2.270480     -3.778472
  H      -2.436034      2.396066     -3.148392
  H      -4.179651      2.749806     -3.209991
  C      -3.119496      3.015305     -5.129724
  H      -4.030153      2.904621     -5.765831
  H      -2.303638      2.492287     -5.684800
  C      -2.735998      4.515825     -4.975665
  H      -2.415850      4.908765     -5.971270
  H      -1.834511      4.582085     -4.317688
  C      -3.844158      5.449188     -4.410585
  H      -3.406462      6.466707     -4.261737
  H      -4.154043      5.107068     -3.394848
  C      -5.099405      5.575898     -5.315302
  H      -5.588997      4.577729     -5.429937
  H      -4.777118      5.872333     -6.344598
  C      -6.149548      6.587463     -4.793703
  H      -5.674375      7.595261     -4.691602
  H      -6.466833      6.297123     -3.761020
  C      -7.403688      6.700425     -5.699556
  H      -7.882303      5.693947     -5.788251
  H      -7.083557      6.974073     -6.735171
  C      -8.447299      7.724187     -5.191384
  H      -9.328888      7.783042     -5.870573
  H      -8.009812      8.747857     -5.119332
  H      -8.823130      7.453466     -4.176454
  C      -0.011496     -3.010240     -0.085159
  H       0.429689     -1.988589     -0.156024
  H      -0.823613     -3.052577     -0.850692
  C       1.067781     -4.068449     -0.438185
  H       0.653034     -5.092587     -0.257825
  H       1.936938     -3.955713      0.250062
  C       1.546573     -3.971969     -1.910262
  H       1.935367     -2.942373     -2.100359
  H       0.664866     -4.092583     -2.588685
  C       2.614873     -5.032292     -2.295115
  H       3.572647     -4.816448     -1.759797
  H       2.276280     -6.027441     -1.915098
  C       2.877223     -5.162717     -3.820403
  H       3.528437     -6.052124     -4.005070
  H       1.910902     -5.384320     -4.336978
  C       3.541552     -3.927505     -4.497583
  H       4.561464     -3.787244     -4.054063
  H       2.974566     -3.002539     -4.251044
  C       3.646668     -4.104578     -6.007871
  H       3.927671     -5.127098     -6.337086
  C       3.406592     -3.187445     -6.977299
  H       3.509766     -3.521332     -8.031640
  C       3.027238     -1.725368     -6.814713
  H       2.948832     -1.448650     -5.739986
  H       2.012498     -1.557741     -7.255706
  C       4.013855     -0.764658     -7.553764
  H       3.662050      0.286004     -7.408676
  H       3.949287     -0.962702     -8.651916
  C       5.499252     -0.879309     -7.119720
  H       5.855678     -1.918500     -7.309863
  H       6.111620     -0.215654     -7.779132
  C       5.768189     -0.497090     -5.637578
  H       5.343297      0.519327     -5.448720
  H       5.214784     -1.191625     -4.960695
  C       7.271420     -0.497005     -5.237731
  H       7.365576     -0.113754     -4.191619
  H       7.818556      0.235370     -5.880051
  C       7.954253     -1.889602     -5.314387
  H       7.340111     -2.622041     -4.734081
  H       7.945785     -2.256191     -6.369203
  C       9.414941     -1.928165     -4.785563
  H       9.434943     -1.584947     -3.721363
  H       9.758596     -2.991050     -4.768777
  C      10.420070     -1.090599     -5.617401
  H      11.459390     -1.202767     -5.230830
  H      10.423029     -1.412929     -6.685810
  H      10.176816     -0.003499     -5.598641
138
Coordinates from ORCA-job /wrk/rja7/qm_final_3_replicates/qm_final_1.1/qm/2/freq E -2722.570216830895
  N       1.744200      0.503287     11.993825
  C       1.418610      1.818951     11.194935
  H       1.590636      2.646884     11.918697
  H       0.339665      1.777019     10.950910
  C       0.492258      0.148593     12.798331
  H      -0.312326     -0.086327     12.071496
  H       0.712136     -0.730896     13.439078
  H       0.207963      1.014281     13.431974
  C       2.912853      0.769667     12.928059
  H       3.162412     -0.161028     13.479298
  H       3.784874      1.089554     12.321655
  H       2.632243      1.569731     13.643168
  C       2.071732     -0.711310     11.101567
  H       2.989635     -0.509209     10.519102
  H       1.209780     -0.853385     10.410229
  H       2.225681     -1.576515     11.782454
  C       2.220706      2.061182      9.891561
  H       1.950820      3.112666      9.605097
  H       3.324529      2.044222     10.088648
  P       0.225132      1.016482      8.417199
  O      -0.326016      2.428083      8.389903
  O      -0.343831     -0.097393      9.330050
  O       1.934999      1.141601      8.859457
  O       0.481458      0.438770      6.863414
  C       0.581823     -0.974349      6.615683
  H       0.021853     -1.552958      7.388905
  H       1.657423     -1.290791      6.652405
  C       0.029017     -1.285768      5.212814
  H       0.521961     -0.642242      4.452065
  O      -1.409273     -0.984849      5.236913
  C      -1.977783     -0.429796      4.113876
  O      -1.375836     -0.229222      3.063907
  C      -3.454906     -0.091476      4.367145
  H      -3.516978      1.018204      4.486978
  H      -3.756641     -0.533168      5.341546
  C       0.236223     -2.777749      4.856292
  H      -0.237055     -3.424824      5.629202
  H       1.327725     -2.993918      4.802985
  O      -0.418934     -3.142351      3.607417
  C       0.250400     -2.866416      2.427915
  O       1.401794     -2.457996      2.380104
  C      -0.671805     -3.141747      1.230689
  H      -1.107506     -4.163216      1.351339
  H      -1.530376     -2.436314      1.335185
  C      -4.419521     -0.551916      3.234479
  H      -5.463234     -0.438220      3.616086
  H      -4.282693     -1.647699      3.058958
  C      -4.294929      0.213153      1.890127
  H      -3.258407      0.116671      1.497510
  H      -4.448744      1.305288      2.078330
  C      -5.313714     -0.268180      0.825475
  H      -6.355401     -0.111617      1.203965
  H      -5.209669     -1.373665      0.684834
  C      -5.157451      0.433987     -0.549008
  H      -4.125178      0.256574     -0.936909
  H      -5.245376      1.540707     -0.412698
  C      -6.196993     -0.035135     -1.598090
  H      -7.225617      0.214774     -1.239549
  H      -6.163401     -1.150348     -1.677993
  C      -5.991150      0.576911     -3.019869
  H      -5.977232      1.688589     -2.943441
  H      -6.881771      0.315526     -3.643316
  C      -4.742052      0.055870     -3.712357
  H      -4.761701     -1.030763     -3.939574
  C      -3.620920      0.741689     -4.045495
  H      -2.805197      0.176438     -4.544209
  C      -3.340447      2.222612     -3.855666
  H      -2.406728      2.343872     -3.250186
  H      -4.149903      2.703044     -3.263346
  C      -3.145262      2.971480     -5.210818
  H      -4.075194      2.864403     -5.819154
  H      -2.347279      2.450294     -5.793002
  C      -2.757224      4.471840     -5.063237
  H      -2.478886      4.872887     -6.068063
  H      -1.829905      4.534957     -4.442046
  C      -3.841052      5.399929     -4.444635
  H      -3.399456      6.417618     -4.309600
  H      -4.102135      5.051590     -3.417080
  C      -5.138546      5.529830     -5.288520
  H      -5.631421      4.531815     -5.388634
  H      -4.867955      5.837466     -6.329211
  C      -6.163634      6.533907     -4.705006
  H      -5.686804      7.542329     -4.616537
  H      -6.424865      6.231380     -3.660264
  C      -7.464110      6.653073     -5.542759
  H      -7.946762      5.646945     -5.613047
  H      -7.200165      6.934426     -6.591912
  C      -8.479432      7.671112     -4.969827
  H      -9.398504      7.731967     -5.597275
  H      -8.040865      8.695562     -4.916397
  H      -8.795976      7.393043     -3.936854
  C      -0.006833     -2.971048     -0.157753
  H       0.473282     -1.966372     -0.208319
  H      -0.819726     -2.966763     -0.923779
  C       1.029390     -4.063901     -0.531585
  H       0.573539     -5.074046     -0.373742
  H       1.901608     -4.001467      0.159910
  C       1.514818     -3.954029     -2.000654
  H       1.945355     -2.936760     -2.166721
  H       0.630533     -4.022951     -2.682989
  C       2.542472     -5.045808     -2.407575
  H       3.503938     -4.881398     -1.860635
  H       2.162588     -6.036915     -2.057580
  C       2.814042     -5.143276     -3.933478
  H       3.423516     -6.057417     -4.138404
  H       1.843483     -5.301498     -4.465067
  C       3.543913     -3.920303     -4.566133
  H       4.561060     -3.838530     -4.102416
  H       3.014628     -2.977267     -4.303782
  C       3.670320     -4.065074     -6.076887
  H       3.982571     -5.073999     -6.420001
  C       3.424262     -3.136308     -7.033806
  H       3.552036     -3.450080     -8.091745
  C       3.020207     -1.683374     -6.855566
  H       2.877283     -1.434720     -5.780592
  H       2.030875     -1.514975     -7.350322
  C       4.036604     -0.693561     -7.513584
  H       3.674091      0.350253     -7.346665
  H       4.022682     -0.851780     -8.619911
  C       5.499872     -0.822733     -7.014260
  H       5.865873     -1.854648     -7.226210
  H       6.143447     -0.135167     -7.616851
  C       5.692372     -0.498822     -5.506453
  H       5.264121      0.513243     -5.301834
  H       5.099321     -1.213347     -4.886319
  C       7.170988     -0.527327     -5.025509
  H       7.210707     -0.174359     -3.965228
  H       7.759860      0.216020     -5.616044
  C       7.842289     -1.924916     -5.101836
  H       7.186060     -2.665193     -4.580443
  H       7.893738     -2.262914     -6.165307
  C       9.267657     -1.995024     -4.486821
  H       9.225768     -1.680696     -3.414406
  H       9.598795     -3.061981     -4.477559
  C      10.330258     -1.146733     -5.231982
  H      11.343027     -1.283634     -4.787269
  H      10.393734     -1.437935     -6.307410
  H      10.099167     -0.057444     -5.195131
138
Coordinates from ORCA-job /wrk/rja7/qm_final_3_replicates/qm_final_1.1/qm/2/freq E -2722.570582423746
  N       1.710961      0.507199     11.981130
  C       1.588272      1.817707     11.111229
  H       1.813679      2.664158     11.798542
  H       0.530436      1.894395     10.794594
  C       0.353891      0.293212     12.659048
  H      -0.388826      0.123747     11.852147
  H       0.422387     -0.580547     13.341508
  H       0.103944      1.206108     13.236599
  C       2.810063      0.690886     13.016427
  H       2.917479     -0.244286     13.605779
  H       3.762989      0.913453     12.493005
  H       2.549867      1.530696     13.694830
  C       2.037617     -0.759104     11.162530
  H       3.025069     -0.641152     10.682065
  H       1.253166     -0.877724     10.382135
  H       2.050341     -1.607967     11.879832
  C       2.482077      1.887420      9.848652
  H       2.377345      2.950942      9.501940
  H       3.560469      1.728584     10.107874
  P       0.423675      0.977281      8.354832
  O      -0.027308      2.425217      8.354187
  O      -0.257470     -0.113811      9.217417
  O       2.122781      0.957268      8.844645
  O       0.684554      0.427383      6.794210
  C       0.734655     -0.980075      6.524341
  H       0.139999     -1.546620      7.282313
  H       1.795039     -1.343183      6.571954
  C       0.176454     -1.248371      5.115938
  H       0.710642     -0.617231      4.372469
  O      -1.243154     -0.873475      5.148664
  C      -1.792974     -0.271231      4.039484
  O      -1.190543     -0.074100      2.990355
  C      -3.266250      0.083944      4.293635
  H      -3.322078      1.194970      4.403034
  H      -3.573539     -0.348524      5.270431
  C       0.300043     -2.746570      4.745452
  H      -0.200828     -3.371365      5.519215
  H       1.376729     -3.025814      4.680234
  O      -0.384485     -3.057503      3.496046
  C       0.308713     -2.815163      2.320544
  O       1.499073     -2.541266      2.281544
  C      -0.619782     -2.995948      1.113227
  H      -1.137465     -3.981793      1.200768
  H      -1.420254     -2.228146      1.227734
  C      -4.232456     -0.381201      3.162453
  H      -5.274015     -0.267767      3.549586
  H      -4.088677     -1.476103      2.987487
  C      -4.120673      0.379068      1.814445
  H      -3.086789      0.295918      1.412795
  H      -4.286281      1.471039      1.998137
  C      -5.143140     -0.127073      0.764529
  H      -6.181588      0.018992      1.153616
  H      -5.018905     -1.231512      0.635241
  C      -5.018233      0.556394     -0.623808
  H      -3.993634      0.384577     -1.030319
  H      -5.112047      1.664591     -0.502256
  C      -6.074863      0.057315     -1.643304
  H      -7.097175      0.320397     -1.279409
  H      -6.043799     -1.060534     -1.686470
  C      -5.892382      0.616077     -3.090500
  H      -5.871926      1.729915     -3.056666
  H      -6.797625      0.341508     -3.686717
  C      -4.663018      0.064323     -3.795823
  H      -4.689940     -1.029905     -3.983563
  C      -3.549760      0.735916     -4.182824
  H      -2.749105      0.154139     -4.686647
  C      -3.273615      2.223831     -4.047099
  H      -2.322976      2.366941     -3.472928
  H      -4.069117      2.715170     -3.442578
  C      -3.137621      2.943331     -5.423682
  H      -4.087447      2.810135     -5.994459
  H      -2.351655      2.428777     -6.028480
  C      -2.780597      4.454585     -5.322863
  H      -2.603247      4.854948     -6.350972
  H      -1.807872      4.553375     -4.782353
  C      -3.830942      5.352840     -4.609607
  H      -3.417164      6.387723     -4.531443
  H      -3.963414      5.011392     -3.553083
  C      -5.221586      5.423003     -5.299156
  H      -5.676850      4.404702     -5.357436
  H      -5.098634      5.761222     -6.357980
  C      -6.210373      6.365801     -4.563701
  H      -5.777123      7.396449     -4.510770
  H      -6.305814      6.027040     -3.501924
  C      -7.620236      6.437434     -5.208912
  H      -8.054911      5.407477     -5.251989
  H      -7.525250      6.768518     -6.272135
  C      -8.594060      7.372797     -4.450854
  H      -9.600381      7.395255     -4.929679
  H      -8.212387      8.421195     -4.423145
  H      -8.730300      7.043505     -3.393876
  C       0.070976     -2.829118     -0.262201
  H       0.656034     -1.881817     -0.255484
  H      -0.731144     -2.696484     -1.028651
  C       0.980129     -4.010752     -0.686873
  H       0.417463     -4.970400     -0.565800
  H       1.857264     -4.075914      0.001075
  C       1.474975     -3.898967     -2.153917
  H       2.000023     -2.921545     -2.287401
  H       0.588694     -3.861124     -2.836541
  C       2.406181     -5.064560     -2.584451
  H       3.371354     -4.991256     -2.023667
  H       1.942679     -6.030833     -2.268778
  C       2.703384     -5.141256     -4.106882
  H       3.234500     -6.100136     -4.322944
  H       1.736145     -5.194673     -4.664633
  C       3.552958     -3.964444     -4.680974
  H       4.532304     -3.942443     -4.136795
  H       3.062948     -2.988357     -4.463560
  C       3.815010     -4.132417     -6.168360
  H       4.246953     -5.116987     -6.447249
  C       3.575167     -3.255252     -7.174891
  H       3.831686     -3.586011     -8.204025
  C       3.051750     -1.833058     -7.083534
  H       2.766310     -1.575932     -6.039114
  H       2.114503     -1.751170     -7.688841
  C       4.064826     -0.773837     -7.641538
  H       3.614568      0.241444     -7.518838
  H       4.174360     -0.929553     -8.742516
  C       5.469101     -0.806192     -6.980397
  H       5.937123     -1.800068     -7.180317
  H       6.128249     -0.053839     -7.479369
  C       5.443741     -0.531819     -5.452291
  H       4.948523      0.454649     -5.272846
  H       4.802441     -1.289122     -4.942241
  C       6.836245     -0.531352     -4.764075
  H       6.712407     -0.176429     -3.710838
  H       7.492365      0.219830     -5.266549
  C       7.532532     -1.917432     -4.729026
  H       6.805676     -2.665651     -4.325863
  H       7.771763     -2.257423     -5.766953
  C       8.827895     -1.962276     -3.870841
  H       8.584487     -1.651717     -2.824566
  H       9.171646     -3.022654     -3.797115
  C       9.989668     -1.087697     -4.408610
  H      10.908051     -1.211109     -3.789372
  H      10.250941     -1.364087     -5.457908
  H       9.735295     -0.002882     -4.403862
138
Coordinates from ORCA-job /wrk/rja7/qm_final_3_replicates/qm_final_1.1/qm/2/freq E -2722.571762648250
  N       1.722813      0.540795     11.945903
  C       1.570254      1.845258     11.072704
  H       1.791411      2.691518     11.760942
  H       0.506972      1.908104     10.772558
  C       0.369993      0.299746     12.620013
  H      -0.362803      0.096692     11.811435
  H       0.457479     -0.565715     13.310538
  H       0.088116      1.209994     13.188026
  C       2.811559      0.761265     12.983812
  H       2.946857     -0.167818     13.576169
  H       3.757721      1.010682     12.460655
  H       2.524408      1.596037     13.657152
  C       2.074123     -0.724530     11.141186
  H       3.055919     -0.585942     10.652750
  H       1.284027     -0.872175     10.372082
  H       2.117643     -1.562190     11.870015
  C       2.446407      1.931357      9.799045
  H       2.309630      2.990362      9.450054
  H       3.531728      1.804120     10.047007
  P       0.393717      0.964026      8.338044
  O      -0.092836      2.400248      8.339147
  O      -0.244359     -0.140086      9.215730
  O       2.100743      0.990524      8.801457
  O       0.638831      0.411837      6.775914
  C       0.682685     -0.998185      6.505816
  H       0.099684     -1.564881      7.271128
  H       1.743713     -1.361766      6.537145
  C       0.108016     -1.262486      5.101425
  H       0.629471     -0.628962      4.350871
  O      -1.312246     -0.892159      5.145212
  C      -1.866434     -0.302030      4.033338
  O      -1.266483     -0.118603      2.979977
  C      -3.332793      0.077269      4.293297
  H      -3.373515      1.191091      4.379331
  H      -3.638266     -0.331355      5.280668
  C       0.233976     -2.757798      4.719549
  H      -0.264857     -3.393228      5.485510
  H       1.311192     -3.032755      4.649793
  O      -0.447858     -3.057757      3.467855
  C       0.248495     -2.810955      2.296593
  O       1.431542     -2.505969      2.262283
  C      -0.677797     -2.994968      1.088837
  H      -1.193908     -3.980855      1.184249
  H      -1.479013     -2.226811      1.194261
  C      -4.309613     -0.400512      3.177414
  H      -5.349706     -0.270561      3.563439
  H      -4.178940     -1.500254      3.023770
  C      -4.186384      0.333199      1.816142
  H      -3.149855      0.232179      1.425549
  H      -4.343725      1.429459      1.978070
  C      -5.200052     -0.183116      0.763279
  H      -6.242569     -0.031972      1.140384
  H      -5.079733     -1.289215      0.644685
  C      -5.052067      0.488681     -0.627132
  H      -4.018637      0.314960     -1.010993
  H      -5.151798      1.597362     -0.515438
  C      -6.084184     -0.016503     -1.666676
  H      -7.116331      0.221045     -1.311698
  H      -6.032181     -1.132465     -1.728059
  C      -5.888206      0.575449     -3.098541
  H      -5.900495      1.688321     -3.042295
  H      -6.771128      0.285442     -3.720378
  C      -4.626830      0.070759     -3.781710
  H      -4.624765     -1.018164     -3.999479
  C      -3.516517      0.775117     -4.114842
  H      -2.687311      0.222941     -4.605399
  C      -3.272366      2.262909     -3.928802
  H      -2.341324      2.404963     -3.322968
  H      -4.093755      2.723381     -3.335650
  C      -3.101676      3.020763     -5.280218
  H      -4.028638      2.888877     -5.887362
  H      -2.287657      2.532444     -5.869350
  C      -2.768312      4.531947     -5.125764
  H      -2.544520      4.957163     -6.134771
  H      -1.823383      4.628925     -4.537222
  C      -3.864723      5.401856     -4.447678
  H      -3.463261      6.436096     -4.314435
  H      -4.060637      5.029127     -3.412222
  C      -5.207899      5.484353     -5.221179
  H      -5.648975      4.464660     -5.337487
  H      -5.014983      5.850940     -6.260333
  C      -6.251365      6.402769     -4.533719
  H      -5.829614      7.433891     -4.428299
  H      -6.422284      6.040687     -3.489020
  C      -7.609815      6.480924     -5.278370
  H      -8.033441      5.450494     -5.377545
  H      -7.437111      6.837474     -6.323691
  C      -8.642839      7.397192     -4.578076
  H      -9.607740      7.430565     -5.134989
  H      -8.267191      8.444676     -4.495192
  H      -8.863179      7.042911     -3.543445
  C       0.021024     -2.849727     -0.284067
  H       0.602589     -1.898714     -0.292893
  H      -0.775073     -2.736997     -1.059609
  C       0.942351     -4.033562     -0.674791
  H       0.380552     -4.993505     -0.551210
  H       1.806082     -4.084541      0.029965
  C       1.460010     -3.939171     -2.133493
  H       1.988670     -2.964362     -2.270111
  H       0.584645     -3.907054     -2.830258
  C       2.392252     -5.111029     -2.542965
  H       3.348674     -5.043938     -1.966660
  H       1.917630     -6.073750     -2.232371
  C       2.706289     -5.188424     -4.060923
  H       3.237626     -6.147866     -4.274123
  H       1.746150     -5.238782     -4.631127
  C       3.562905     -4.010782     -4.619144
  H       4.545711     -4.008156     -4.080533
  H       3.082055     -3.036428     -4.378043
  C       3.808429     -4.146986     -6.112246
  H       4.224814     -5.129166     -6.421396
  C       3.554779     -3.245143     -7.092650
  H       3.777947     -3.554579     -8.136009
  C       3.041612     -1.822827     -6.954480
  H       2.783717     -1.588457     -5.898024
  H       2.090373     -1.721095     -7.534421
  C       4.045803     -0.760955     -7.517480
  H       3.615509      0.257291     -7.353524
  H       4.111388     -0.889772     -8.625452
  C       5.478037     -0.828396     -6.921118
  H       5.912176     -1.832351     -7.141338
  H       6.125924     -0.091404     -7.456164
  C       5.548388     -0.542672     -5.396456
  H       5.077012      0.451296     -5.196199
  H       4.933691     -1.288454     -4.840155
  C       6.984309     -0.546275     -4.802416
  H       6.933170     -0.189355     -3.743843
  H       7.606179      0.204424     -5.347683
  C       7.680508     -1.933435     -4.817090
  H       6.991510     -2.680150     -4.350636
  H       7.830427     -2.277567     -5.869857
  C       9.045982     -1.976505     -4.075825
  H       8.898402     -1.659181     -3.013622
  H       9.393507     -3.037161     -4.028689
  C      10.157535     -1.110228     -4.722118
  H      11.128157     -1.234156     -4.188475
  H      10.321623     -1.395569     -5.788530
  H       9.908709     -0.024472     -4.702526
138
Coordinates from ORCA-job /wrk/rja7/qm_final_3_replicates/qm_final_1.1/qm/2/freq E -2722.572442264900
  N       1.750672      0.524572     11.903817
  C       1.623625      1.845215     11.050659
  H       1.865104      2.673806     11.752884
  H       0.561208      1.941848     10.756294
  C       0.376061      0.266144     12.524354
  H      -0.323528      0.073904     11.683385
  H       0.443582     -0.613171     13.199013
  H       0.067796      1.163618     13.099768
  C       2.798510      0.735397     12.984415
  H       2.919717     -0.201954     13.566110
  H       3.760872      1.001034     12.500171
  H       2.480518      1.557239     13.659546
  C       2.129634     -0.729295     11.094086
  H       3.123844     -0.581318     10.632399
  H       1.354402     -0.875320     10.310391
  H       2.162835     -1.574139     11.815032
  C       2.493369      1.933543      9.772388
  H       2.366512      2.996246      9.432096
  H       3.578972      1.794424     10.013723
  P       0.429335      0.968496      8.319284
  O      -0.064400      2.402752      8.331370
  O      -0.197089     -0.140626      9.198513
  O       2.138436      1.000393      8.770090
  O       0.659094      0.421586      6.753481
  C       0.683934     -0.988338      6.471186
  H       0.101584     -1.556415      7.235253
  H       1.740679     -1.364118      6.488802
  C       0.095957     -1.229015      5.067306
  H       0.621271     -0.595155      4.319902
  O      -1.318755     -0.838329      5.121429
  C      -1.865617     -0.220608      4.021474
  O      -1.257994     -0.008478      2.977690
  C      -3.335493      0.146421      4.278504
  H      -3.388656      1.260267      4.354217
  H      -3.636552     -0.258067      5.268863
  C       0.198322     -2.722106      4.665410
  H      -0.308973     -3.361407      5.422536
  H       1.270646     -3.013461      4.589454
  O      -0.489181     -2.995940      3.411560
  C       0.213418     -2.752183      2.244257
  O       1.399831     -2.459666      2.215111
  C      -0.714881     -2.904547      1.033660
  H      -1.261006     -3.874258      1.127368
  H      -1.492554     -2.111866      1.135514
  C      -4.306888     -0.353578      3.166526
  H      -5.349434     -0.230811      3.548349
  H      -4.165197     -1.453456      3.025296
  C      -4.187675      0.367359      1.797688
  H      -3.147879      0.273666      1.413064
  H      -4.358954      1.462930      1.947702
  C      -5.189558     -0.170818      0.744420
  H      -6.236194     -0.030076      1.114768
  H      -5.055258     -1.276465      0.636689
  C      -5.042369      0.491330     -0.650631
  H      -4.004321      0.326806     -1.027309
  H      -5.156575      1.599380     -0.547843
  C      -6.062656     -0.033606     -1.692299
  H      -7.099671      0.192592     -1.342902
  H      -5.996345     -1.148996     -1.746227
  C      -5.869635      0.554404     -3.126504
  H      -5.900342      1.667073     -3.075545
  H      -6.744772      0.246939     -3.750950
  C      -4.596617      0.067956     -3.801077
  H      -4.579613     -1.019911     -4.023216
  C      -3.492382      0.787845     -4.121882
  H      -2.652527      0.248647     -4.608609
  C      -3.267704      2.277715     -3.924538
  H      -2.339568      2.427196     -3.316074
  H      -4.095620      2.722093     -3.329431
  C      -3.103788      3.048193     -5.269748
  H      -4.025431      2.904940     -5.882490
  H      -2.278955      2.577997     -5.858471
  C      -2.796911      4.563770     -5.102852
  H      -2.583681      5.000864     -6.109037
  H      -1.851714      4.672955     -4.516601
  C      -3.906736      5.409937     -4.415713
  H      -3.525211      6.451881     -4.283191
  H      -4.088390      5.032052     -3.380070
  C      -5.254881      5.467646     -5.182210
  H      -5.674864      4.439465     -5.300519
  H      -5.073178      5.840998     -6.221108
  C      -6.316051      6.361559     -4.490472
  H      -5.916406      7.401334     -4.384865
  H      -6.478836      5.994778     -3.445966
  C      -7.675987      6.410845     -5.233838
  H      -8.078126      5.372057     -5.332868
  H      -7.511219      6.771179     -6.279343
  C      -8.727580      7.306104     -4.534150
  H      -9.693124      7.318939     -5.090680
  H      -8.373791      8.361115     -4.452332
  H      -8.940587      6.947849     -3.499297
  C      -0.001861     -2.786570     -0.334332
  H       0.611827     -1.855827     -0.340170
  H      -0.786328     -2.651003     -1.117671
  C       0.885973     -4.000213     -0.712929
  H       0.289317     -4.940890     -0.604604
  H       1.732719     -4.083007      0.008455
  C       1.433723     -3.916456     -2.161199
  H       2.011826     -2.967824     -2.277879
  H       0.572813     -3.834461     -2.871561
  C       2.311383     -5.129098     -2.572850
  H       3.256075     -5.127689     -1.973688
  H       1.777254     -6.069983     -2.293354
  C       2.651977     -5.191101     -4.086464
  H       3.124567     -6.177223     -4.315395
  H       1.703542     -5.163820     -4.677125
  C       3.592645     -4.056314     -4.596564
  H       4.564493     -4.133620     -4.043442
  H       3.169764     -3.062264     -4.331378
  C       3.849014     -4.160022     -6.090345
  H       4.260304     -5.137838     -6.419556
  C       3.593425     -3.238344     -7.052331
  H       3.821857     -3.522279     -8.101660
  C       3.067133     -1.823925     -6.883947
  H       2.791506     -1.620126     -5.825610
  H       2.124033     -1.713731     -7.475535
  C       4.069741     -0.740964     -7.406600
  H       3.637155      0.270343     -7.209689
  H       4.138122     -0.832539     -8.518176
  C       5.502679     -0.824492     -6.814840
  H       5.933767     -1.822855     -7.061428
  H       6.148328     -0.075085     -7.335714
  C       5.584425     -0.571814     -5.285420
  H       5.119363      0.419790     -5.061174
  H       4.971945     -1.326848     -4.738328
  C       7.027330     -0.589447     -4.707167
  H       6.991127     -0.245375     -3.643924
  H       7.645568      0.166290     -5.250219
  C       7.718976     -1.978376     -4.750370
  H       7.044755     -2.726667     -4.265548
  H       7.833661     -2.316435     -5.809270
  C       9.109724     -2.028890     -4.058217
  H       9.003448     -1.711832     -2.990843
  H       9.453326     -3.091352     -4.025746
  C      10.201189     -1.169284     -4.746081
  H      11.191739     -1.302359     -4.252734
  H      10.319239     -1.453143     -5.818884
  H       9.961544     -0.081829     -4.713904
138
Coordinates from ORCA-job /wrk/rja7/qm_final_3_replicates/qm_final_1.1/qm/2/freq E -2722.572907018068
  N       1.784478      0.427174     11.838588
  C       1.744810      1.778388     11.023832
  H       2.035216      2.567273     11.752074
  H       0.691492      1.957926     10.732973
  C       0.372721      0.193994     12.382282
  H      -0.288689      0.054067     11.498792
  H       0.380062     -0.712903     13.022579
  H       0.064004      1.080060     12.975459
  C       2.778195      0.569298     12.978886
  H       2.835508     -0.388464     13.535396
  H       3.774594      0.816441     12.558060
  H       2.453434      1.381353     13.662545
  C       2.160456     -0.817515     11.011119
  H       3.179308     -0.687468     10.597815
  H       1.411234     -0.925631     10.199026
  H       2.141090     -1.680908     11.709928
  C       2.610263      1.854657      9.739443
  H       2.528561      2.927998      9.420854
  H       3.691296      1.667350      9.967884
  P       0.498010      0.968955      8.289864
  O       0.030224      2.412120      8.326186
  O      -0.137034     -0.138848      9.161687
  O       2.214424      0.953181      8.721391
  O       0.681722      0.439148      6.713458
  C       0.686787     -0.969324      6.414152
  H       0.102690     -1.540972      7.173390
  H       1.737120     -1.361868      6.415290
  C       0.081201     -1.177442      5.011018
  H       0.613342     -0.545415      4.267377
  O      -1.323271     -0.756492      5.081989
  C      -1.858637     -0.089957      4.006784
  O      -1.241138      0.171733      2.979964
  C      -3.334929      0.251968      4.259551
  H      -3.410150      1.364344      4.332511
  H      -3.635330     -0.157390      5.248159
  C       0.141290     -2.666738      4.584210
  H      -0.367160     -3.306571      5.340501
  H       1.203626     -2.984853      4.482922
  O      -0.574164     -2.903493      3.338167
  C       0.119409     -2.666732      2.163156
  O       1.310076     -2.393599      2.123457
  C      -0.824899     -2.785159      0.959445
  H      -1.416516     -3.725884      1.069793
  H      -1.562082     -1.953273      1.052345
  C      -4.288999     -0.270638      3.140959
  H      -5.336830     -0.177580      3.516611
  H      -4.116213     -1.365348      2.996556
  C      -4.177861      0.458324      1.775656
  H      -3.132412      0.389632      1.400462
  H      -4.376289      1.548559      1.927943
  C      -5.153577     -0.100970      0.708891
  H      -6.208759      0.019004      1.062207
  H      -4.994880     -1.203965      0.606314
  C      -4.992088      0.560333     -0.683732
  H      -3.944936      0.409343     -1.041286
  H      -5.123712      1.666881     -0.585686
  C      -5.983254      0.022095     -1.746043
  H      -7.030729      0.227585     -1.414345
  H      -5.897732     -1.091592     -1.804842
  C      -5.773422      0.627206     -3.170769
  H      -5.843989      1.737723     -3.113359
  H      -6.620557      0.295260     -3.820865
  C      -4.466776      0.189443     -3.813918
  H      -4.407873     -0.895418     -4.043749
  C      -3.376883      0.947920     -4.092708
  H      -2.504953      0.442004     -4.557851
  C      -3.209586      2.441761     -3.867656
  H      -2.321448      2.609722     -3.206216
  H      -4.082492      2.852558     -3.315735
  C      -2.993541      3.237367     -5.189745
  H      -3.866265      3.066517     -5.864030
  H      -2.113017      2.812469     -5.730204
  C      -2.764732      4.761602     -4.985055
  H      -2.532143      5.223693     -5.976031
  H      -1.850829      4.909051     -4.358915
  C      -3.942241      5.540927     -4.331645
  H      -3.620315      6.599539     -4.174198
  H      -4.140843      5.142621     -3.306908
  C      -5.261249      5.536613     -5.145789
  H      -5.599032      4.487540     -5.326292
  H      -5.071139      5.971144     -6.159398
  C      -6.411607      6.315241     -4.457162
  H      -6.094228      7.373870     -4.283213
  H      -6.590352      5.883251     -3.440275
  C      -7.739669      6.306720     -5.255441
  H      -8.047362      5.248919     -5.446597
  H      -7.566686      6.757884     -6.263928
  C      -8.889515      7.058916     -4.541321
  H      -9.830365      7.037251     -5.138237
  H      -8.628197      8.129275     -4.366310
  H      -9.111464      6.605501     -3.546463
  C      -0.103719     -2.734031     -0.409065
  H       0.539229     -1.822907     -0.444244
  H      -0.874026     -2.610002     -1.207573
  C       0.758464     -3.986865     -0.716968
  H       0.132474     -4.906290     -0.589892
  H       1.576843     -4.062361      0.036083
  C       1.360395     -3.980540     -2.145761
  H       1.962166     -3.050024     -2.282395
  H       0.529484     -3.917398     -2.892309
  C       2.227896     -5.228470     -2.461770
  H       3.135628     -5.226201     -1.808058
  H       1.655742     -6.145708     -2.179091
  C       2.655710     -5.352328     -3.950369
  H       3.119129     -6.354510     -4.119685
  H       1.748561     -5.322965     -4.602231
  C       3.648925     -4.249833     -4.429857
  H       4.570862     -4.310178     -3.795538
  H       3.211180     -3.245740     -4.239836
  C       4.028518     -4.408468     -5.892004
  H       4.524884     -5.370396     -6.140548
  C       3.771393     -3.553945     -6.914207
  H       4.095947     -3.860863     -7.930766
  C       3.120522     -2.182242     -6.841096
  H       2.816422     -1.939062     -5.798624
  H       2.174657     -2.196436     -7.438708
  C       4.026731     -1.048372     -7.425137
  H       3.505205     -0.069262     -7.294736
  H       4.116793     -1.202083     -8.528379
  C       5.454463     -0.966483     -6.820144
  H       5.974440     -1.933954     -7.009325
  H       6.035407     -0.193540     -7.382000
  C       5.501912     -0.617291     -5.310660
  H       4.968503      0.351360     -5.147563
  H       4.938412     -1.378288     -4.719993
  C       6.938996     -0.499804     -4.727879
  H       6.875497     -0.079539     -3.694228
  H       7.513125      0.250082     -5.325553
  C       7.717489     -1.841815     -4.670295
  H       7.100296     -2.587626     -4.111992
  H       7.838549     -2.258500     -5.699812
  C       9.119374     -1.748246     -4.004874
  H       9.010056     -1.347026     -2.966346
  H       9.527830     -2.781438     -3.889090
  C      10.145086     -0.888689     -4.786990
  H      11.151276     -0.923736     -4.308914
  H      10.258146     -1.253185     -5.835730
  H       9.841526      0.181916     -4.838830
138
Coordinates from ORCA-job /wrk/rja7/qm_final_3_replicates/qm_final_1.1/qm/2/freq E -2722.573550784618
  N       1.862242      0.509540     11.807838
  C       1.830142      1.833061     10.947037
  H       2.132989      2.642986     11.646180
  H       0.776817      2.014982     10.657615
  C       0.436308      0.266946     12.317650
  H      -0.195669      0.082032     11.420659
  H       0.443503     -0.617685     12.988679
  H       0.094602      1.165133     12.872851
  C       2.816051      0.708835     12.972943
  H       2.872367     -0.228461     13.563341
  H       3.821262      0.960327     12.575088
  H       2.454018      1.537438     13.615943
  C       2.286846     -0.754888     11.034978
  H       3.306740     -0.614986     10.628583
  H       1.545763     -0.917643     10.225727
  H       2.285665     -1.589913     11.768110
  C       2.686138      1.862631      9.655397
  H       2.608302      2.927064      9.307557
  H       3.767783      1.673930      9.880542
  P       0.557740      0.918719      8.261630
  O       0.055366      2.349056      8.324150
  O      -0.034857     -0.216028      9.128300
  O       2.279274      0.938181      8.664457
  O       0.729691      0.412709      6.676490
  C       0.741815     -0.991010      6.353714
  H       0.168285     -1.578444      7.108923
  H       1.795307     -1.374032      6.339256
  C       0.128810     -1.180431      4.951557
  H       0.654168     -0.537814      4.212269
  O      -1.277261     -0.767078      5.028306
  C      -1.806595     -0.093408      3.954435
  O      -1.178473      0.185487      2.938472
  C      -3.284237      0.248851      4.195618
  H      -3.366431      1.361564      4.245959
  H      -3.588520     -0.146632      5.188548
  C       0.188872     -2.661077      4.503890
  H      -0.315842     -3.311943      5.253416
  H       1.251075     -2.976125      4.392298
  O      -0.538577     -2.878585      3.259364
  C       0.138430     -2.629313      2.077098
  O       1.332513     -2.373944      2.021376
  C      -0.830344     -2.710300      0.887311
  H      -1.449055     -3.632953      1.002181
  H      -1.539864     -1.856450      1.001898
  C      -4.224754     -0.301017      3.078875
  H      -5.276321     -0.216623      3.445898
  H      -4.037644     -1.395442      2.950162
  C      -4.109724      0.414233      1.706522
  H      -3.057483      0.363266      1.347074
  H      -4.332556      1.501402      1.845196
  C      -5.059809     -0.171836      0.631008
  H      -6.120694     -0.082948      0.976580
  H      -4.870091     -1.270019      0.527733
  C      -4.907615      0.500372     -0.757484
  H      -3.853468      0.383309     -1.107423
  H      -5.073661      1.601830     -0.654946
  C      -5.873755     -0.061984     -1.830527
  H      -6.929663      0.103792     -1.503479
  H      -5.748646     -1.171360     -1.898941
  C      -5.676635      0.563401     -3.248105
  H      -5.791057      1.669777     -3.180693
  H      -6.505156      0.204432     -3.907433
  C      -4.348815      0.183053     -3.884135
  H      -4.253150     -0.893308     -4.139474
  C      -3.281405      0.982177     -4.134494
  H      -2.389223      0.514413     -4.601155
  C      -3.161833      2.474671     -3.872890
  H      -2.278003      2.654298     -3.209157
  H      -4.045874      2.842930     -3.309531
  C      -2.973421      3.308985     -5.176173
  H      -3.841149      3.125536     -5.854010
  H      -2.080953      2.923655     -5.726156
  C      -2.789892      4.835320     -4.937355
  H      -2.579894      5.326862     -5.918977
  H      -1.874945      4.996528     -4.315921
  C      -3.984528      5.566146     -4.259157
  H      -3.692442      6.630289     -4.081968
  H      -4.161653      5.141734     -3.241656
  C      -5.308750      5.540787     -5.065318
  H      -5.615399      4.487013     -5.272419
  H      -5.137419      6.007067     -6.067930
  C      -6.478346      6.267206     -4.353286
  H      -6.189235      7.328449     -4.148909
  H      -6.643396      5.801293     -3.349266
  C      -7.806983      6.245398     -5.150217
  H      -8.085918      5.185802     -5.372502
  H      -7.648610      6.731053     -6.144822
  C      -8.975976      6.943625     -4.412982
  H      -9.916800      6.914881     -5.009662
  H      -8.743294      8.014675     -4.205220
  H      -9.184543      6.453641     -3.432682
  C      -0.134082     -2.668477     -0.495680
  H       0.538652     -1.780772     -0.531783
  H      -0.914599     -2.505964     -1.277227
  C       0.678106     -3.946304     -0.838252
  H       0.018569     -4.843825     -0.724446
  H       1.499814     -4.066832     -0.095121
  C       1.272502     -3.931778     -2.270550
  H       1.911828     -3.024036     -2.389022
  H       0.443023     -3.817753     -3.012631
  C       2.085371     -5.208614     -2.618056
  H       2.984424     -5.268297     -1.955516
  H       1.466753     -6.104537     -2.366534
  C       2.527477     -5.312631     -4.104627
  H       2.938049     -6.333904     -4.295619
  H       1.633686     -5.215536     -4.768263
  C       3.592487     -4.257542     -4.539669
  H       4.494534     -4.384652     -3.887934
  H       3.207840     -3.234418     -4.337309
  C       3.994656     -4.410835     -5.996909
  H       4.489661     -5.374537     -6.240917
  C       3.784444     -3.541125     -7.017844
  H       4.135886     -3.843924     -8.026649
  C       3.158582     -2.157479     -6.955963
  H       2.800585     -1.926682     -5.928122
  H       2.248509     -2.141094     -7.606620
  C       4.119277     -1.032911     -7.466100
  H       3.598442     -0.048989     -7.372175
  H       4.295559     -1.184937     -8.559236
  C       5.495310     -0.967203     -6.749392
  H       6.016163     -1.941644     -6.898494
  H       6.128416     -0.199628     -7.259539
  C       5.420477     -0.624882     -5.239384
  H       4.893002      0.353329     -5.119339
  H       4.791897     -1.376273     -4.704210
  C       6.802412     -0.537138     -4.530548
  H       6.655350     -0.103055     -3.511051
  H       7.447805      0.191753     -5.079349
  C       7.536945     -1.896926     -4.385143
  H       6.848757     -2.620780     -3.883627
  H       7.746833     -2.329564     -5.393580
  C       8.868242     -1.831873     -3.585235
  H       8.668403     -1.414985     -2.566699
  H       9.235625     -2.873793     -3.419667
  C       9.989403     -1.008924     -4.269918
  H      10.942066     -1.064345     -3.694121
  H      10.196524     -1.390168     -5.298207
  H       9.721752      0.068392     -4.362949
138
Coordinates from ORCA-job /wrk/rja7/qm_final_3_replicates/qm_final_1.1/qm/2/freq E -2722.574111752677
  N       1.952915      0.517751     11.764018
  C       1.892591      1.831486     10.890744
  H       2.214878      2.651781     11.568494
  H       0.830285      2.005465     10.627779
  C       0.542428      0.261964     12.311400
  H      -0.112516      0.066499     11.433730
  H       0.577266     -0.619739     12.985924
  H       0.207475      1.158565     12.872942
  C       2.930774      0.733921     12.906769
  H       2.995623     -0.193597     13.511911
  H       3.928290      0.974949     12.484121
  H       2.580706      1.573946     13.541026
  C       2.376337     -0.744594     10.984988
  H       3.383942     -0.591046     10.555827
  H       1.617476     -0.919208     10.193573
  H       2.403843     -1.578261     11.719283
  C       2.711916      1.848133      9.576205
  H       2.615026      2.907821      9.217187
  H       3.800596      1.670273      9.772693
  P       0.551925      0.885415      8.251762
  O       0.045516      2.313662      8.330554
  O      -0.010311     -0.256741      9.129227
  O       2.282496      0.911541      8.608519
  O       0.681250      0.386505      6.660464
  C       0.703650     -1.014532      6.329544
  H       0.138344     -1.611115      7.084262
  H       1.760001     -1.388913      6.307329
  C       0.087990     -1.197872      4.929252
  H       0.606502     -0.545781      4.193707
  O      -1.322132     -0.798406      5.012305
  C      -1.856986     -0.106288      3.952645
  O      -1.228237      0.211739      2.948684
  C      -3.343599      0.196715      4.189859
  H      -3.454799      1.305856      4.257117
  H      -3.645372     -0.223657      5.173303
  C       0.157023     -2.674384      4.470297
  H      -0.354404     -3.332196      5.208799
  H       1.221265     -2.986009      4.366600
  O      -0.558017     -2.882297      3.217078
  C       0.127977     -2.619000      2.043657
  O       1.320464     -2.354540      2.000387
  C      -0.835512     -2.678979      0.848819
  H      -1.484998     -3.579411      0.966955
  H      -1.515985     -1.801550      0.957609
  C      -4.259856     -0.358817      3.055553
  H      -5.316027     -0.313658      3.416291
  H      -4.037862     -1.444206      2.906519
  C      -4.156136      0.388154      1.699567
  H      -3.098815      0.384272      1.352224
  H      -4.420827      1.463416      1.856770
  C      -5.068104     -0.210616      0.598871
  H      -6.136715     -0.169006      0.929080
  H      -4.835048     -1.298316      0.475899
  C      -4.916811      0.496333     -0.772171
  H      -3.852799      0.426040     -1.103276
  H      -5.125700      1.588439     -0.650326
  C      -5.837949     -0.079033     -1.877510
  H      -6.906757      0.055662     -1.579916
  H      -5.681490     -1.183824     -1.954984
  C      -5.614580      0.568018     -3.281313
  H      -5.761572      1.669912     -3.204181
  H      -6.411715      0.194990     -3.970727
  C      -4.256159      0.231519     -3.877253
  H      -4.122162     -0.839140     -4.139599
  C      -3.202387      1.060890     -4.082164
  H      -2.283614      0.621379     -4.524288
  C      -3.128739      2.553341     -3.805017
  H      -2.281795      2.749043     -3.099057
  H      -4.047111      2.899524     -3.283513
  C      -2.897203      3.397603     -5.095091
  H      -3.729128      3.199362     -5.812221
  H      -1.973299      3.031368     -5.604625
  C      -2.753992      4.925800     -4.843159
  H      -2.527504      5.428034     -5.815686
  H      -1.860914      5.101986     -4.194790
  C      -3.981999      5.623860     -4.190745
  H      -3.722662      6.695525     -4.009242
  H      -4.167872      5.194166     -3.176712
  C      -5.288337      5.560373     -5.023861
  H      -5.574957      4.497568     -5.213168
  H      -5.102089      6.005862     -6.033238
  C      -6.483307      6.287053     -4.356101
  H      -6.210909      7.355541     -4.166899
  H      -6.668147      5.840215     -3.346975
  C      -7.792029      6.232027     -5.184960
  H      -8.058706      5.164384     -5.382093
  H      -7.611756      6.688356     -6.189797
  C      -8.983700      6.944406     -4.499383
  H      -9.909410      6.889291     -5.117581
  H      -8.763409      8.023351     -4.320728
  H      -9.213765      6.484568     -3.509284
  C      -0.136188     -2.664397     -0.533028
  H       0.552206     -1.788676     -0.578420
  H      -0.913298     -2.496091     -1.316833
  C       0.652098     -3.960905     -0.861346
  H      -0.024423     -4.844851     -0.742360
  H       1.470170     -4.089248     -0.115152
  C       1.250872     -3.971064     -2.291028
  H       1.890157     -3.064801     -2.422137
  H       0.425986     -3.871236     -3.040550
  C       2.069451     -5.252005     -2.608229
  H       2.958298     -5.299791     -1.931412
  H       1.447353     -6.144954     -2.354123
  C       2.534930     -5.378226     -4.085263
  H       2.963134     -6.396936     -4.249759
  H       1.647746     -5.308979     -4.761382
  C       3.589406     -4.316104     -4.530139
  H       4.483293     -4.407609     -3.862266
  H       3.183640     -3.294502     -4.363209
  C       4.018964     -4.499284     -5.976923
  H       4.524890     -5.464142     -6.191544
  C       3.827689     -3.651250     -7.018959
  H       4.206621     -3.970640     -8.012687
  C       3.186199     -2.273320     -7.001413
  H       2.811688     -2.020098     -5.984994
  H       2.284851     -2.283011     -7.664604
  C       4.142841     -1.152600     -7.523421
  H       3.596579     -0.177895     -7.494839
  H       4.368685     -1.347989     -8.600306
  C       5.484620     -1.023739     -6.751869
  H       6.036266     -1.989270     -6.838768
  H       6.119955     -0.260232     -7.265009
  C       5.335179     -0.625761     -5.261057
  H       4.780797      0.343390     -5.203664
  H       4.699975     -1.370993     -4.725840
  C       6.681909     -0.478179     -4.496873
  H       6.483459      0.003629     -3.507819
  H       7.339973      0.233416     -5.053015
  C       7.429971     -1.816344     -4.249012
  H       6.733630     -2.522831     -3.733588
  H       7.682963     -2.300209     -5.223530
  C       8.729673     -1.686907     -3.406216
  H       8.487773     -1.214750     -2.421585
  H       9.102632     -2.712410     -3.166814
  C       9.865911     -0.889251     -4.096315
  H      10.795759     -0.893566     -3.481818
  H      10.118856     -1.329132     -5.090382
  H       9.586784      0.175858     -4.265987
138
Coordinates from ORCA-job /wrk/rja7/qm_final_3_replicates/qm_final_1.1/qm/2/freq E -2722.573937969002
  N       2.061009      0.444365     11.762747
  C       2.043287      1.750901     10.875943
  H       2.445917      2.563711     11.518457
  H       0.981157      1.979537     10.651032
  C       0.648729      0.227637     12.323751
  H      -0.024018      0.049305     11.456902
  H       0.668057     -0.651587     13.003126
  H       0.350753      1.136060     12.886345
  C       3.049720      0.634089     12.903202
  H       3.063283     -0.282279     13.529466
  H       4.058806      0.811693     12.476798
  H       2.736327      1.503938     13.515773
  C       2.456199     -0.829939     10.981984
  H       3.459984     -0.691504     10.543764
  H       1.685474     -0.996029     10.197968
  H       2.476674     -1.663236     11.717187
  C       2.808231      1.712493      9.529452
  H       2.732465      2.773008      9.162971
  H       3.895620      1.497618      9.685817
  P       0.564756      0.826221      8.294676
  O       0.106287      2.269879      8.403591
  O       0.004527     -0.315983      9.175270
  O       2.304981      0.791858      8.585654
  O       0.617836      0.350852      6.692264
  C       0.629254     -1.041840      6.336808
  H       0.046779     -1.643478      7.075386
  H       1.681345     -1.429573      6.323030
  C       0.037579     -1.191920      4.925001
  H       0.570798     -0.523626      4.215272
  O      -1.376441     -0.803796      4.988528
  C      -1.891069     -0.062944      3.950654
  O      -1.237840      0.331309      2.990803
  C      -3.401620      0.143164      4.125545
  H      -3.590653      1.240580      4.206026
  H      -3.724128     -0.319825      5.082746
  C       0.108875     -2.657741      4.434913
  H      -0.422052     -3.325747      5.149421
  H       1.172711     -2.975389      4.341695
  O      -0.588436     -2.826566      3.164901
  C       0.119719     -2.542032      2.010222
  O       1.316074     -2.294756      1.992819
  C      -0.827804     -2.547720      0.802177
  H      -1.562071     -3.377828      0.929300
  H      -1.421738     -1.606876      0.888797
  C      -4.217364     -0.444598      2.930142
  H      -5.287916     -0.503178      3.243436
  H      -3.892335     -1.499535      2.752385
  C      -4.119226      0.366545      1.612224
  H      -3.050776      0.491284      1.326688
  H      -4.503738      1.401447      1.794104
  C      -4.894721     -0.271974      0.432798
  H      -5.979451     -0.359336      0.692825
  H      -4.535371     -1.320303      0.278056
  C      -4.733335      0.518769     -0.890491
  H      -3.649352      0.584285     -1.145437
  H      -5.071966      1.573592     -0.735505
  C      -5.499163     -0.091909     -2.090704
  H      -6.596631     -0.077507     -1.883054
  H      -5.223139     -1.170364     -2.200891
  C      -5.227312      0.645042     -3.441220
  H      -5.501840      1.719393     -3.330664
  H      -5.914992      0.225994     -4.216385
  C      -3.791632      0.487526     -3.922198
  H      -3.514838     -0.548724     -4.210796
  C      -2.821585      1.432973     -3.990512
  H      -1.824713      1.115773     -4.363359
  C      -2.935688      2.911996     -3.664327
  H      -2.199708      3.167190     -2.859688
  H      -3.940262      3.147825     -3.248326
  C      -2.647755      3.817392     -4.901079
  H      -3.371538      3.562145     -5.710517
  H      -1.641809      3.555814     -5.310166
  C      -2.680581      5.343481     -4.603720
  H      -2.435492      5.894328     -5.544899
  H      -1.862125      5.585750     -3.883008
  C      -4.016843      5.891463     -4.024405
  H      -3.890365      6.982397     -3.820657
  H      -4.213653      5.426118     -3.027127
  C      -5.255914      5.692451     -4.934962
  H      -5.423355      4.605155     -5.127948
  H      -5.053366      6.148322     -5.936617
  C      -6.554932      6.302470     -4.349897
  H      -6.395479      7.390554     -4.143709
  H      -6.764574      5.835215     -3.355120
  C      -7.796715      6.129148     -5.264191
  H      -7.948382      5.041730     -5.475506
  H      -7.593044      6.602562     -6.256719
  C      -9.092908      6.726302     -4.663030
  H      -9.965202      6.588361     -5.343079
  H      -8.985273      7.820574     -4.472847
  H      -9.347848      6.244058     -3.689769
  C      -0.115531     -2.617556     -0.570492
  H       0.619992     -1.782689     -0.639716
  H      -0.875787     -2.434245     -1.367762
  C       0.600979     -3.968221     -0.839282
  H      -0.123219     -4.807436     -0.686122
  H       1.410833     -4.107810     -0.084536
  C       1.212471     -4.077617     -2.258468
  H       1.858841     -3.184505     -2.439933
  H       0.401986     -4.027461     -3.028999
  C       2.038376     -5.376767     -2.457837
  H       2.902575     -5.369634     -1.748592
  H       1.406408     -6.250985     -2.165319
  C       2.566950     -5.611864     -3.898628
  H       3.046477     -6.619631     -3.951060
  H       1.701985     -5.649622     -4.605633
  C       3.590087     -4.545571     -4.405731
  H       4.439715     -4.492752     -3.679927
  H       3.118368     -3.538285     -4.402569
  C       4.146760     -4.876480     -5.782714
  H       4.735559     -5.816434     -5.831040
  C       3.992693     -4.183625     -6.938021
  H       4.493737     -4.588107     -7.843142
  C       3.237849     -2.883739     -7.165922
  H       2.761506     -2.526898     -6.226574
  H       2.396400     -3.071710     -7.879961
  C       4.134291     -1.756322     -7.768247
  H       3.487075     -0.865495     -7.966410
  H       4.512587     -2.088646     -8.765532
  C       5.344105     -1.339457     -6.885588
  H       6.024716     -2.217224     -6.765673
  H       5.938093     -0.570238     -7.437135
  C       4.959242     -0.774064     -5.493818
  H       4.281657      0.103415     -5.640761
  H       4.362015     -1.526508     -4.927856
  C       6.168775     -0.337566     -4.620324
  H       5.794526      0.254803     -3.749046
  H       6.808319      0.362412     -5.210700
  C       7.025340     -1.515283     -4.076097
  H       6.355031     -2.209263     -3.510455
  H       7.433561     -2.115864     -4.924756
  C       8.202476     -1.090118     -3.154263
  H       7.805456     -0.490238     -2.298253
  H       8.646928     -2.008123     -2.698299
  C       9.322087     -0.290492     -3.869573
  H      10.166569     -0.065387     -3.177862
  H       9.736850     -0.864175     -4.732232
  H       8.951146      0.682471     -4.266448
138
Coordinates from ORCA-job /wrk/rja7/qm_final_3_replicates/qm_final_1.1/qm/2/freq E -2722.574830447732
  N       2.065525      0.411019     11.733044
  C       2.070444      1.734047     10.869677
  H       2.475066      2.529913     11.531991
  H       1.013728      1.980005     10.641224
  C       0.637962      0.192662     12.247761
  H      -0.007104      0.029809     11.356374
  H       0.632743     -0.696845     12.913482
  H       0.325168      1.093987     12.814399
  C       3.023393      0.580622     12.902774
  H       3.022968     -0.347447     13.511192
  H       4.042808      0.768157     12.506386
  H       2.694060      1.438140     13.524741
  C       2.471909     -0.855421     10.949829
  H       3.488949     -0.719169     10.540155
  H       1.721273     -1.008808     10.145138
  H       2.468586     -1.696070     11.676725
  C       2.847146      1.712366      9.528758
  H       2.785084      2.778924      9.178725
  H       3.931362      1.486208      9.692964
  P       0.609406      0.849455      8.268022
  O       0.158966      2.294547      8.390932
  O       0.037651     -0.295567      9.137222
  O       2.346710      0.806367      8.567386
  O       0.665723      0.387957      6.662034
  C       0.648162     -1.001552      6.291367
  H       0.063438     -1.601204      7.029171
  H       1.692794     -1.408527      6.261758
  C       0.037245     -1.123525      4.883617
  H       0.574805     -0.454858      4.177266
  O      -1.367752     -0.707117      4.971689
  C      -1.883050      0.042662      3.940821
  O      -1.237035      0.414553      2.967250
  C      -3.384306      0.291991      4.142728
  H      -3.544847      1.395721      4.193767
  H      -3.695539     -0.134290      5.120501
  C       0.078030     -2.584720      4.370965
  H      -0.460798     -3.255269      5.077048
  H       1.135131     -2.919757      4.267051
  O      -0.626294     -2.724309      3.101746
  C       0.087119     -2.443782      1.949575
  O       1.286421     -2.209831      1.934898
  C      -0.854081     -2.444446      0.737487
  H      -1.594977     -3.268847      0.863507
  H      -1.441492     -1.498705      0.813446
  C      -4.241686     -0.313831      2.985914
  H      -5.306622     -0.331627      3.322460
  H      -3.949909     -1.383093      2.840981
  C      -4.148103      0.442982      1.635953
  H      -3.081660      0.533293      1.330771
  H      -4.509899      1.491883      1.780051
  C      -4.954301     -0.229390      0.496509
  H      -6.035549     -0.288031      0.778588
  H      -4.614876     -1.289293      0.380231
  C      -4.803542      0.499489     -0.862959
  H      -3.723069      0.534822     -1.139451
  H      -5.122298      1.565732     -0.749337
  C      -5.604707     -0.150506     -2.018496
  H      -6.696137     -0.116748     -1.782007
  H      -5.341664     -1.235183     -2.092936
  C      -5.363805      0.529158     -3.404856
  H      -5.613422      1.612598     -3.328531
  H      -6.084354      0.093943     -4.140281
  C      -3.949402      0.321221     -3.926207
  H      -3.709163     -0.728932     -4.196437
  C      -2.957816      1.238305     -4.051037
  H      -1.982661      0.884684     -4.447555
  C      -3.019530      2.726644     -3.753411
  H      -2.233898      2.980265     -2.996765
  H      -3.992933      2.996731     -3.287579
  C      -2.778646      3.597393     -5.024566
  H      -3.562397      3.356191     -5.780969
  H      -1.811335      3.290094     -5.491411
  C      -2.733161      5.128320     -4.756878
  H      -2.522632      5.651032     -5.722233
  H      -1.863314      5.349845     -4.091610
  C      -4.009550      5.743462     -4.114259
  H      -3.828374      6.833119     -3.947155
  H      -4.165663      5.311038     -3.095342
  C      -5.306439      5.574193     -4.946563
  H      -5.529730      4.490258     -5.096247
  H      -5.142543      5.991924     -5.971863
  C      -6.543419      6.256055     -4.308692
  H      -6.329168      7.342736     -4.150289
  H      -6.713641      5.830787     -3.287680
  C      -7.841662      6.105352     -5.144006
  H      -8.052519      5.018630     -5.301755
  H      -7.674451      6.530738     -6.164701
  C      -9.073792      6.784110     -4.496763
  H      -9.988416      6.660536     -5.121549
  H      -8.907500      7.878594     -4.357565
  H      -9.293897      6.352055     -3.491875
  C      -0.130863     -2.526942     -0.627760
  H       0.613750     -1.699723     -0.693561
  H      -0.882123     -2.340299     -1.432733
  C       0.579306     -3.881039     -0.889214
  H      -0.152043     -4.716542     -0.750604
  H       1.376506     -4.029893     -0.123124
  C       1.208311     -3.979229     -2.301788
  H       1.873854     -3.095969     -2.459613
  H       0.406809     -3.898879     -3.078778
  C       2.009796     -5.289198     -2.523628
  H       2.869145     -5.317558     -1.808514
  H       1.359778     -6.158359     -2.257133
  C       2.541166     -5.493066     -3.967918
  H       2.997756     -6.509444     -4.049584
  H       1.682423     -5.487461     -4.683248
  C       3.590388     -4.433431     -4.430149
  H       4.435249     -4.427491     -3.696130
  H       3.141368     -3.416598     -4.393496
  C       4.146390     -4.727864     -5.814085
  H       4.719714     -5.675763     -5.891292
  C       3.993849     -4.001610     -6.948837
  H       4.473691     -4.393234     -7.870972
  C       3.270435     -2.677357     -7.131124
  H       2.787045     -2.349713     -6.184409
  H       2.437777     -2.816701     -7.865669
  C       4.202504     -1.547663     -7.676211
  H       3.590434     -0.623028     -7.820768
  H       4.561099     -1.840116     -8.693176
  C       5.436325     -1.230883     -6.786563
  H       6.066878     -2.148215     -6.705811
  H       6.068608     -0.473766     -7.312194
  C       5.094374     -0.696718     -5.370862
  H       4.474106      0.227604     -5.476418
  H       4.454050     -1.431807     -4.829803
  C       6.335841     -0.378487     -4.491817
  H       6.008280      0.191065     -3.587303
  H       7.012719      0.309279     -5.054722
  C       7.121598     -1.634212     -4.022228
  H       6.416449     -2.309838     -3.477651
  H       7.474152     -2.217032     -4.907682
  C       8.340233     -1.333886     -3.105578
  H       8.000944     -0.746053     -2.216737
  H       8.725552     -2.300485     -2.699300
  C       9.502995     -0.585686     -3.807559
  H      10.372870     -0.454269     -3.123292
  H       9.860611     -1.148778     -4.702255
  H       9.198653      0.428709     -4.153937
138
Coordinates from ORCA-job /wrk/rja7/qm_final_3_replicates/qm_final_1.1/qm/2/freq E -2722.574523878949
  N       2.039178      0.441972     11.743621
  C       2.047848      1.778211     10.897839
  H       2.450636      2.561287     11.576712
  H       0.991869      2.027344     10.674290
  C       0.613148      0.245640     12.269550
  H      -0.041638      0.100321     11.380801
  H       0.596971     -0.649052     12.927121
  H       0.319787      1.147776     12.845695
  C       3.009450      0.588042     12.905880
  H       3.004560     -0.346941     13.502660
  H       4.027683      0.769734     12.504201
  H       2.699241      1.441798     13.543291
  C       2.412798     -0.824509     10.951117
  H       3.432158     -0.704859     10.535897
  H       1.660865     -0.956272     10.147583
  H       2.395378     -1.669097     11.672470
  C       2.831530      1.782237      9.557991
  H       2.764350      2.852272      9.223050
  H       3.917087      1.565584      9.728208
  P       0.614478      0.914971      8.263580
  O       0.155041      2.355607      8.399670
  O       0.040306     -0.241121      9.114521
  O       2.350374      0.880455      8.580249
  O       0.686756      0.473537      6.653137
  C       0.686005     -0.912583      6.266640
  H       0.110182     -1.530025      6.996246
  H       1.734668     -1.309067      6.228682
  C       0.067808     -1.018920      4.858344
  H       0.587225     -0.322467      4.165075
  O      -1.343533     -0.629833      4.967266
  C      -1.884156      0.123082      3.952277
  O      -1.254570      0.523999      2.979468
  C      -3.384629      0.354554      4.183304
  H      -3.558355      1.456003      4.236333
  H      -3.671301     -0.075911      5.166862
  C       0.132436     -2.465277      4.306044
  H      -0.381457     -3.168428      4.999501
  H       1.194001     -2.774960      4.177772
  O      -0.586900     -2.581425      3.043227
  C       0.109604     -2.270848      1.887513
  O       1.311188     -2.048320      1.857900
  C      -0.845111     -2.244046      0.686764
  H      -1.595843     -3.060266      0.808419
  H      -1.418229     -1.289536      0.775953
  C      -4.253539     -0.267933      3.044122
  H      -5.311813     -0.306905      3.399267
  H      -3.943346     -1.330919      2.894890
  C      -4.195098      0.487159      1.691560
  H      -3.132871      0.616615      1.384943
  H      -4.598121      1.521258      1.831435
  C      -4.976642     -0.224480      0.557814
  H      -6.057050     -0.309958      0.836568
  H      -4.607066     -1.276346      0.460890
  C      -4.841816      0.482154     -0.815086
  H      -3.760983      0.541041     -1.089261
  H      -5.189990      1.541462     -0.723740
  C      -5.624930     -0.212175     -1.956810
  H      -6.717131     -0.200013     -1.720527
  H      -5.335405     -1.291374     -2.006921
  C      -5.401329      0.440543     -3.359445
  H      -5.660633      1.523283     -3.307426
  H      -6.122237     -0.019852     -4.079200
  C      -3.991630      0.232183     -3.889058
  H      -3.745104     -0.821009     -4.140399
  C      -3.012525      1.157066     -4.048814
  H      -2.036056      0.805194     -4.442956
  C      -3.091430      2.650575     -3.780280
  H      -2.293684      2.929072     -3.045293
  H      -4.057955      2.914636     -3.298051
  C      -2.892275      3.502666     -5.070923
  H      -3.692538      3.240873     -5.803590
  H      -1.932211      3.202758     -5.557309
  C      -2.864808      5.038037     -4.827576
  H      -2.687720      5.547571     -5.806663
  H      -1.980925      5.285988     -4.190001
  C      -4.135457      5.643897     -4.166121
  H      -3.974462      6.741624     -4.031524
  H      -4.254413      5.236249     -3.132580
  C      -5.451596      5.424074     -4.954960
  H      -5.642055      4.331409     -5.082119
  H      -5.336811      5.831726     -5.991111
  C      -6.689284      6.068404     -4.279393
  H      -6.518567      7.167180     -4.156261
  H      -6.793955      5.662290     -3.241683
  C      -8.014398      5.838948     -5.049271
  H      -8.179005      4.740203     -5.176122
  H      -7.915868      6.250876     -6.084200
  C      -9.246380      6.470278     -4.355603
  H     -10.182152      6.288776     -4.932878
  H      -9.128735      7.574161     -4.245124
  H      -9.395079      6.050074     -3.332942
  C      -0.132978     -2.318018     -0.683834
  H       0.633287     -1.510199     -0.738106
  H      -0.885537     -2.094381     -1.478333
  C       0.540557     -3.680488     -0.988687
  H      -0.212020     -4.500753     -0.874056
  H       1.335905     -3.877285     -0.232202
  C       1.153855     -3.737772     -2.411568
  H       1.869910     -2.889130     -2.529569
  H       0.347727     -3.562902     -3.167288
  C       1.865568     -5.077470     -2.734778
  H       2.735782     -5.208969     -2.043977
  H       1.168709     -5.921499     -2.509919
  C       2.347933     -5.209437     -4.205284
  H       2.731344     -6.245214     -4.372700
  H       1.479809     -5.090942     -4.898995
  C       3.456700     -4.191650     -4.610826
  H       4.312288     -4.302024     -3.895743
  H       3.080192     -3.153454     -4.484147
  C       3.961451     -4.414942     -6.025515
  H       4.425598     -5.408551     -6.202172
  C       3.881592     -3.565251     -7.079834
  H       4.293319     -3.915905     -8.049839
  C       3.333771     -2.147273     -7.100447
  H       2.900220     -1.869535     -6.113683
  H       2.488059     -2.094241     -7.830231
  C       4.408534     -1.094374     -7.533990
  H       3.938862     -0.081260     -7.548152
  H       4.706848     -1.309538     -8.589270
  C       5.689138     -1.074814     -6.656242
  H       6.155757     -2.086039     -6.689375
  H       6.431686     -0.379697     -7.120690
  C       5.463116     -0.639886     -5.184027
  H       5.019882      0.386159     -5.174538
  H       4.707377     -1.302513     -4.699896
  C       6.751369     -0.646244     -4.315201
  H       6.539833     -0.130560     -3.346349
  H       7.535988     -0.031400     -4.820418
  C       7.301730     -2.065503     -4.009132
  H       6.493260     -2.659704     -3.517155
  H       7.531947     -2.601009     -4.962874
  C       8.565235     -2.089345     -3.104883
  H       8.349108     -1.544181     -2.152508
  H       8.771174     -3.146718     -2.809428
  C       9.837920     -1.497380     -3.763548
  H      10.724561     -1.602591     -3.096742
  H      10.074195     -2.019647     -4.721064
  H       9.725633     -0.413471     -3.994776
138
Coordinates from ORCA-job /wrk/rja7/qm_final_3_replicates/qm_final_1.1/qm/2/freq E -2722.575471358989
  N       2.121952      0.382568     11.727767
  C       2.129360      1.725471     10.892621
  H       2.560777      2.499260     11.564191
  H       1.071695      1.990035     10.693573
  C       0.697378      0.171116     12.254599
  H       0.041325      0.030392     11.366564
  H       0.689166     -0.730834     12.902745
  H       0.399563      1.064556     12.841839
  C       3.093986      0.519185     12.889973
  H       3.087324     -0.419581     13.481198
  H       4.111827      0.700613     12.486953
  H       2.784138      1.369442     13.531729
  C       2.502331     -0.872164     10.916821
  H       3.517571     -0.740212     10.496789
  H       1.743039     -1.000732     10.118141
  H       2.497014     -1.726089     11.627616
  C       2.881539      1.728409      9.535874
  H       2.815917      2.801757      9.210212
  H       3.968291      1.498938      9.679278
  P       0.627510      0.891346      8.285919
  O       0.178859      2.332163      8.456956
  O       0.066600     -0.279382      9.126556
  O       2.368307      0.841418      8.563070
  O       0.663177      0.480470      6.666017
  C       0.659622     -0.897459      6.252405
  H       0.088892     -1.528792      6.974442
  H       1.708407     -1.291577      6.200753
  C       0.036933     -0.979080      4.845778
  H       0.546549     -0.262949      4.165590
  O      -1.379566     -0.612424      4.962622
  C      -1.929030      0.159840      3.966805
  O      -1.300836      0.609728      3.014683
  C      -3.439255      0.332631      4.181589
  H      -3.657775      1.425616      4.238629
  H      -3.721877     -0.117372      5.157423
  C       0.114596     -2.411902      4.264096
  H      -0.393193     -3.132602      4.943916
  H       1.178831     -2.709709      4.128532
  O      -0.605850     -2.509481      2.999287
  C       0.086641     -2.174924      1.847915
  O       1.284685     -1.933918      1.823146
  C      -0.869313     -2.131269      0.647445
  H      -1.639931     -2.927522      0.773940
  H      -1.418562     -1.162139      0.734020
  C      -4.265016     -0.316885      3.024662
  H      -5.325566     -0.404940      3.363861
  H      -3.906062     -1.363933      2.871213
  C      -4.218623      0.453731      1.680577
  H      -3.158588      0.639841      1.395562
  H      -4.674772      1.465188      1.822850
  C      -4.940939     -0.280630      0.522814
  H      -6.022637     -0.418402      0.774145
  H      -4.520883     -1.313118      0.423185
  C      -4.805028      0.450594     -0.836968
  H      -3.721431      0.561204     -1.082125
  H      -5.202040      1.492045     -0.740373
  C      -5.525241     -0.259834     -2.009629
  H      -6.624684     -0.288584     -1.811877
  H      -5.195220     -1.327302     -2.060255
  C      -5.275274      0.416233     -3.396417
  H      -5.572928      1.488841     -3.340733
  H      -5.953975     -0.059144     -4.146704
  C      -3.840237      0.263094     -3.875227
  H      -3.549279     -0.776930     -4.133879
  C      -2.886300      1.221571     -3.978496
  H      -1.884232      0.908788     -4.340264
  C      -3.023383      2.706943     -3.689507
  H      -2.269139      2.997323     -2.914417
  H      -4.018671      2.934328     -3.249071
  C      -2.790745      3.585052     -4.957319
  H      -3.550541      3.313439     -5.728322
  H      -1.802996      3.316062     -5.404415
  C      -2.812270      5.117373     -4.691583
  H      -2.606549      5.645149     -5.655162
  H      -1.962249      5.376720     -4.013836
  C      -4.123608      5.683951     -4.075616
  H      -3.993305      6.782791     -3.920000
  H      -4.276317      5.258111     -3.054106
  C      -5.400668      5.447226     -4.922575
  H      -5.570193      4.352137     -5.060518
  H      -5.245029      5.859416     -5.951320
  C      -6.676098      6.074257     -4.304061
  H      -6.523867      7.174463     -4.169570
  H      -6.825787      5.663056     -3.274107
  C      -7.960494      5.832354     -5.137859
  H      -8.108933      4.732176     -5.271088
  H      -7.814740      6.244016     -6.167264
  C      -9.230629      6.453463     -4.506685
  H     -10.135468      6.262185     -5.128491
  H      -9.128504      7.558627     -4.393204
  H      -9.425842      6.033798     -3.491599
  C      -0.158597     -2.230482     -0.723401
  H       0.618874     -1.434072     -0.788558
  H      -0.906859     -2.007507     -1.522150
  C       0.495757     -3.609220     -1.001660
  H      -0.270327     -4.414703     -0.873112
  H       1.284605     -3.802011     -0.237113
  C       1.122081     -3.712948     -2.416051
  H       1.847488     -2.874732     -2.551056
  H       0.327728     -3.555167     -3.188133
  C       1.825602     -5.070472     -2.681117
  H       2.681740     -5.185106     -1.970465
  H       1.114313     -5.897301     -2.437686
  C       2.335506     -5.268081     -4.135100
  H       2.718966     -6.311345     -4.247630
  H       1.479344     -5.180980     -4.848171
  C       3.457071     -4.275157     -4.569570
  H       4.295496     -4.345872     -3.830121
  H       3.080737     -3.230983     -4.510984
  C       3.997999     -4.578741     -5.956924
  H       4.478115     -5.575040     -6.058883
  C       3.934582     -3.802040     -7.067238
  H       4.384144     -4.207485     -7.998390
  C       3.354034     -2.403980     -7.206166
  H       2.874498     -2.070951     -6.258980
  H       2.537089     -2.424388     -7.970000
  C       4.416327     -1.352945     -7.669836
  H       3.911783     -0.363587     -7.792240
  H       4.779783     -1.640617     -8.686709
  C       5.644039     -1.206891     -6.729530
  H       6.153580     -2.195516     -6.651641
  H       6.382851     -0.519115     -7.210200
  C       5.314897     -0.666193     -5.312440
  H       4.830658      0.336100     -5.413950
  H       4.557839     -1.320841     -4.819487
  C       6.548128     -0.544447     -4.373954
  H       6.259766      0.041968     -3.467166
  H       7.338410      0.057390     -4.885477
  C       7.130716     -1.908216     -3.911616
  H       6.314543     -2.492487     -3.420163
  H       7.441609     -2.511800     -4.798878
  C       8.332574     -1.802581     -2.932060
  H       8.034739     -1.189939     -2.045029
  H       8.558120     -2.821746     -2.534256
  C       9.622440     -1.212759     -3.558517
  H      10.466007     -1.219483     -2.830245
  H       9.942747     -1.804228     -4.449026
  H       9.482821     -0.158987     -3.892167
138
Coordinates from ORCA-job /wrk/rja7/qm_final_3_replicates/qm_final_1.1/qm/2/freq E -2722.575554122049
  N       2.167618      0.334167     11.732006
  C       2.157062      1.675851     10.893454
  H       2.605501      2.452102     11.550829
  H       1.094742      1.938451     10.715851
  C       0.753666      0.113416     12.284316
  H       0.082268     -0.034778     11.409365
  H       0.764898     -0.786871     12.935123
  H       0.461384      1.005958     12.875247
  C       3.158625      0.476071     12.877036
  H       3.164140     -0.461362     13.470972
  H       4.169063      0.658727     12.456220
  H       2.857569      1.327084     13.522146
  C       2.544049     -0.916950     10.913534
  H       3.548406     -0.775139     10.472286
  H       1.768953     -1.055507     10.130686
  H       2.562769     -1.770956     11.624294
  C       2.881602      1.675029      9.521756
  H       2.808247      2.748342      9.196708
  H       3.970895      1.446113      9.644319
  P       0.603951      0.837963      8.317346
  O       0.153200      2.271362      8.537634
  O       0.065609     -0.360040      9.133635
  O       2.349613      0.788617      8.559737
  O       0.610496      0.475579      6.685589
  C       0.612926     -0.889915      6.235092
  H       0.046105     -1.542206      6.941901
  H       1.663285     -1.278019      6.171325
  C      -0.011356     -0.940022      4.829100
  H       0.496809     -0.206390      4.166551
  O      -1.429492     -0.581375      4.953862
  C      -1.980611      0.220746      3.982001
  O      -1.351981      0.712952      3.051519
  C      -3.496483      0.355591      4.183955
  H      -3.744766      1.442022      4.239353
  H      -3.777499     -0.105850      5.154806
  C       0.068899     -2.359543      4.217360
  H      -0.435824     -3.095723      4.882774
  H       1.133769     -2.651436      4.073239
  O      -0.651979     -2.433074      2.950753
  C       0.045367     -2.083097      1.807159
  O       1.242045     -1.834978      1.792913
  C      -0.902227     -2.023774      0.600891
  H      -1.694064     -2.798776      0.725072
  H      -1.426070     -1.040354      0.676545
  C      -4.290667     -0.315083      3.015735
  H      -5.352857     -0.430502      3.341300
  H      -3.901523     -1.352380      2.869131
  C      -4.246579      0.454651      1.670725
  H      -3.189357      0.675816      1.401201
  H      -4.736353      1.451729      1.804124
  C      -4.928408     -0.303727      0.503957
  H      -6.010710     -0.467777      0.735831
  H      -4.479451     -1.325195      0.418174
  C      -4.787232      0.422093     -0.858458
  H      -3.702659      0.553474     -1.087821
  H      -5.206319      1.456017     -0.774900
  C      -5.476226     -0.312422     -2.035229
  H      -6.578372     -0.354379     -1.856651
  H      -5.129725     -1.375464     -2.066374
  C      -5.212344      0.347112     -3.427718
  H      -5.515784      1.418814     -3.390076
  H      -5.880359     -0.141106     -4.179309
  C      -3.771179      0.194502     -3.888779
  H      -3.475074     -0.846050     -4.139509
  C      -2.819591      1.155695     -3.991723
  H      -1.814720      0.844581     -4.347126
  C      -2.962595      2.642144     -3.711691
  H      -2.205952      2.941607     -2.942498
  H      -3.956713      2.868036     -3.267433
  C      -2.741208      3.511577     -4.987869
  H      -3.516331      3.244602     -5.744896
  H      -1.763938      3.228837     -5.449260
  C      -2.738603      5.045596     -4.730741
  H      -2.545879      5.565881     -5.701095
  H      -1.871042      5.296324     -4.072534
  C      -4.027450      5.634693     -4.089189
  H      -3.872832      6.730681     -3.936299
  H      -4.166905      5.211768     -3.064320
  C      -5.327450      5.426268     -4.909342
  H      -5.527053      4.335618     -5.044041
  H      -5.184818      5.836530     -5.940557
  C      -6.572498      6.084446     -4.261969
  H      -6.387725      7.179777     -4.127867
  H      -6.709548      5.674088     -3.229998
  C      -7.881538      5.880819     -5.067706
  H      -8.062191      4.785629     -5.202536
  H      -7.748515      6.294132     -6.098154
  C      -9.119993      6.531061     -4.403761
  H     -10.043786      6.367243     -5.005217
  H      -8.986164      7.632516     -4.286470
  H      -9.302316      6.110248     -3.386732
  C      -0.181463     -2.149225     -0.762878
  H       0.610535     -1.367092     -0.828924
  H      -0.917781     -1.921802     -1.571466
  C       0.449550     -3.544393     -1.014394
  H      -0.332637     -4.333213     -0.881300
  H       1.226012     -3.739253     -0.237148
  C       1.092881     -3.689011     -2.417019
  H       1.826926     -2.860316     -2.564278
  H       0.311350     -3.546645     -3.205370
  C       1.792576     -5.058409     -2.628993
  H       2.635159     -5.154319     -1.899851
  H       1.071943     -5.872980     -2.371712
  C       2.327083     -5.308741     -4.065493
  H       2.716982     -6.353737     -4.130115
  H       1.480538     -5.255702     -4.793325
  C       3.449443     -4.327469     -4.524723
  H       4.273847     -4.353767     -3.767021
  H       3.063915     -3.284811     -4.523481
  C       4.022308     -4.691409     -5.884905
  H       4.514110     -5.686150     -5.927830
  C       3.975676     -3.971318     -7.033474
  H       4.450751     -4.417088     -7.933020
  C       3.376011     -2.593036     -7.258613
  H       2.868536     -2.219042     -6.342048
  H       2.576511     -2.670515     -8.037507
  C       4.426805     -1.547568     -7.756612
  H       3.901657     -0.581333     -7.954461
  H       4.827305     -1.887524     -8.742850
  C       5.621099     -1.305262     -6.792095
  H       6.152594     -2.271958     -6.625212
  H       6.357763     -0.635104     -7.299348
  C       5.230120     -0.668800     -5.431241
  H       4.719953      0.306204     -5.628094
  H       4.476187     -1.306107     -4.911897
  C       6.425406     -0.429961     -4.466172
  H       6.087628      0.228996     -3.628806
  H       7.219125      0.143834     -5.003273
  C       7.020393     -1.728399     -3.855235
  H       6.196277     -2.290897     -3.351862
  H       7.391718     -2.400141     -4.667294
  C       8.166813     -1.497735     -2.831278
  H       7.803965     -0.823982     -2.015865
  H       8.403420     -2.470738     -2.336290
  C       9.467851     -0.915541     -3.441386
  H      10.272834     -0.833143     -2.674996
  H       9.852063     -1.565454     -4.263293
  H       9.313622      0.102529     -3.867144
138
Coordinates from ORCA-job /wrk/rja7/qm_final_3_replicates/qm_final_1.1/qm/2/freq E -2722.575979323217
  N       2.178367      0.281902     11.718852
  C       2.173968      1.639007     10.904532
  H       2.624388      2.400810     11.577280
  H       1.113157      1.909321     10.730034
  C       0.757191      0.048511     12.246367
  H       0.100735     -0.091098     11.358562
  H       0.761295     -0.860434     12.885006
  H       0.450298      0.931829     12.843895
  C       3.153268      0.407908     12.878663
  H       3.156982     -0.540088     13.455555
  H       4.167821      0.603749     12.473948
  H       2.840463      1.245202     13.536203
  C       2.567690     -0.956392     10.887180
  H       3.577825     -0.806956     10.461354
  H       1.803766     -1.086382     10.092022
  H       2.578643     -1.820228     11.586045
  C       2.900283      1.660966      9.533805
  H       2.831257      2.740341      9.229105
  H       3.988444      1.424929      9.653284
  P       0.617061      0.850855      8.325587
  O       0.170794      2.281016      8.577310
  O       0.082063     -0.361059      9.123283
  O       2.363748      0.794166      8.556783
  O       0.610012      0.519131      6.687257
  C       0.601572     -0.838872      6.212913
  H       0.035798     -1.500788      6.911202
  H       1.649250     -1.231897      6.135875
  C      -0.030764     -0.860933      4.809453
  H       0.472935     -0.113298      4.159147
  O      -1.448336     -0.507620      4.947974
  C      -2.005732      0.309721      3.992773
  O      -1.382030      0.823959      3.070944
  C      -3.522878      0.424699      4.196196
  H      -3.787565      1.507776      4.237111
  H      -3.797110     -0.029031      5.172595
  C       0.047957     -2.266900      4.167921
  H      -0.456388     -3.016918      4.818057
  H       1.112441     -2.555656      4.015989
  O      -0.674382     -2.312929      2.900498
  C       0.022755     -1.947618      1.761509
  O       1.218730     -1.695323      1.750654
  C      -0.921720     -1.880676      0.552650
  H      -1.724194     -2.644456      0.677265
  H      -1.432589     -0.889465      0.619973
  C      -4.305974     -0.273274      3.036059
  H      -5.367738     -0.397492      3.359592
  H      -3.903307     -1.307546      2.905737
  C      -4.264518      0.479256      1.681478
  H      -3.208813      0.714825      1.417775
  H      -4.770839      1.470026      1.799164
  C      -4.923869     -0.302974      0.517808
  H      -6.006617     -0.478793      0.738755
  H      -4.460092     -1.319088      0.448937
  C      -4.775741      0.409184     -0.850824
  H      -3.689771      0.554371     -1.065563
  H      -5.212085      1.437254     -0.785200
  C      -5.434991     -0.349407     -2.028623
  H      -6.539027     -0.407418     -1.866384
  H      -5.071216     -1.406972     -2.042582
  C      -5.158913      0.300129     -3.423416
  H      -5.480626      1.366943     -3.402113
  H      -5.805598     -0.206577     -4.181303
  C      -3.707350      0.168671     -3.857425
  H      -3.389343     -0.867606     -4.098771
  C      -2.770436      1.145685     -3.944773
  H      -1.753726      0.851846     -4.280510
  C      -2.946830      2.630237     -3.673710
  H      -2.204933      2.947837     -2.897488
  H      -3.950089      2.837923     -3.241219
  C      -2.728511      3.499314     -4.950437
  H      -3.493354      3.218750     -5.712979
  H      -1.743148      3.231285     -5.403198
  C      -2.753246      5.033565     -4.696636
  H      -2.559027      5.554715     -5.666293
  H      -1.896504      5.299863     -4.030379
  C      -4.058136      5.602698     -4.069991
  H      -3.921935      6.701149     -3.916631
  H      -4.203884      5.178152     -3.046724
  C      -5.344980      5.373786     -4.904765
  H      -5.526353      4.279872     -5.039343
  H      -5.196666      5.784414     -5.935004
  C      -6.607545      6.013368     -4.273019
  H      -6.444295      7.112931     -4.146097
  H      -6.746787      5.608447     -3.239204
  C      -7.904796      5.779295     -5.089290
  H      -8.063710      4.679866     -5.216791
  H      -7.769435      6.186884     -6.121738
  C      -9.161432      6.412154     -4.442898
  H     -10.076105      6.225734     -5.051641
  H      -9.049172      7.516879     -4.334314
  H      -9.345308      5.997312     -3.423739
  C      -0.196572     -2.027313     -0.807360
  H       0.607266     -1.257557     -0.877507
  H      -0.925199     -1.799314     -1.622607
  C       0.418195     -3.433452     -1.038175
  H      -0.375406     -4.210930     -0.905673
  H       1.182754     -3.630946     -0.249789
  C       1.075255     -3.601692     -2.431310
  H       1.821121     -2.783927     -2.579125
  H       0.303757     -3.458151     -3.229234
  C       1.759455     -4.982018     -2.622114
  H       2.595045     -5.081773     -1.885548
  H       1.026607     -5.784700     -2.361885
  C       2.297582     -5.253302     -4.053604
  H       2.673028     -6.304164     -4.107987
  H       1.454502     -5.194968     -4.785028
  C       3.433905     -4.291085     -4.517276
  H       4.263417     -4.333794     -3.765748
  H       3.066632     -3.241925     -4.509679
  C       3.987194     -4.658562     -5.884352
  H       4.462433     -5.660813     -5.937487
  C       3.935317     -3.932016     -7.028550
  H       4.394181     -4.377230     -7.936622
  C       3.351656     -2.544214     -7.234450
  H       2.849349     -2.177429     -6.312196
  H       2.551267     -2.601151     -8.014141
  C       4.415131     -1.505629     -7.719075
  H       3.905685     -0.525720     -7.888009
  H       4.798626     -1.828807     -8.717763
  C       5.624398     -1.308437     -6.763610
  H       6.137497     -2.289219     -6.625119
  H       6.367995     -0.640829     -7.264048
  C       5.261889     -0.697811     -5.383205
  H       4.764589      0.289237     -5.549866
  H       4.506155     -1.335578     -4.866605
  C       6.476052     -0.498335     -4.432210
  H       6.159483      0.139531     -3.570708
  H       7.265738      0.082652     -4.967439
  C       7.069420     -1.819659     -3.870826
  H       6.248318     -2.392440     -3.373990
  H       7.425449     -2.466920     -4.709016
  C       8.230561     -1.628255     -2.855264
  H       7.879479     -0.983830     -2.011436
  H       8.472048     -2.618705     -2.398765
  C       9.524037     -1.025439     -3.460912
  H      10.339489     -0.972938     -2.702960
  H       9.896221     -1.644074     -4.312054
  H       9.366501      0.008377     -3.845572
138
Coordinates from ORCA-job /wrk/rja7/qm_final_3_replicates/qm_final_1.1/qm/2/freq E -2722.576143200992
  N       2.176252      0.238299     11.713011
  C       2.161733      1.620675     10.940942
  H       2.611281      2.360519     11.638264
  H       1.099599      1.892891     10.780687
  C       0.757270     -0.010677     12.238747
  H       0.099124     -0.130206     11.348673
  H       0.763737     -0.935444     12.853886
  H       0.447369      0.856540     12.858005
  C       3.156442      0.334494     12.869569
  H       3.169644     -0.629610     13.418605
  H       4.167579      0.547720     12.465176
  H       2.846933      1.150387     13.555196
  C       2.559934     -0.977979     10.848649
  H       3.571283     -0.820240     10.426719
  H       1.798115     -1.085272     10.049633
  H       2.567794     -1.859465     11.524758
  C       2.880726      1.689182      9.566788
  H       2.802188      2.775608      9.292791
  H       3.971327      1.459199      9.675525
  P       0.597464      0.889204      8.349227
  O       0.142122      2.310768      8.634254
  O       0.077945     -0.340666      9.128145
  O       2.347244      0.842104      8.569382
  O       0.576203      0.589070      6.705087
  C       0.572015     -0.762640      6.209403
  H       0.012550     -1.439316      6.897906
  H       1.620671     -1.150872      6.121112
  C      -0.067547     -0.761923      4.807597
  H       0.429096      0.000251      4.168611
  O      -1.484950     -0.416982      4.959883
  C      -2.047730      0.415417      4.021578
  O      -1.427133      0.954721      3.112199
  C      -3.564765      0.520305      4.231399
  H      -3.840949      1.600871      4.249509
  H      -3.831670      0.082705      5.217192
  C       0.014057     -2.153785      4.136919
  H      -0.496846     -2.918513      4.764590
  H       1.079321     -2.439968      3.987416
  O      -0.695907     -2.165965      2.861348
  C       0.016605     -1.790050      1.735536
  O       1.216112     -1.553864      1.738982
  C      -0.912044     -1.693573      0.515896
  H      -1.738008     -2.434180      0.625424
  H      -1.394141     -0.687322      0.576892
  C      -4.341660     -0.213441      3.088897
  H      -5.401794     -0.343357      3.415239
  H      -3.927155     -1.245499      2.981702
  C      -4.305888      0.510048      1.718594
  H      -3.252241      0.755464      1.456002
  H      -4.826308      1.495853      1.812748
  C      -4.945374     -0.306769      0.567593
  H      -6.027958     -0.491730      0.782054
  H      -4.468274     -1.317969      0.524526
  C      -4.790567      0.376399     -0.814771
  H      -3.703189      0.530295     -1.017343
  H      -5.240956      1.399689     -0.778193
  C      -5.422844     -0.417647     -1.983296
  H      -6.527853     -0.490247     -1.833157
  H      -5.043066     -1.469441     -1.968557
  C      -5.136591      0.206382     -3.387491
  H      -5.478386      1.267179     -3.395556
  H      -5.760692     -0.328314     -4.144928
  C      -3.675236      0.095391     -3.793257
  H      -3.332449     -0.937885     -4.012071
  C      -2.757044      1.090341     -3.878257
  H      -1.727824      0.813914     -4.189180
  C      -2.973080      2.574330     -3.632504
  H      -2.245676      2.920593     -2.854821
  H      -3.984272      2.762571     -3.210459
  C      -2.765024      3.432279     -4.918072
  H      -3.522995      3.132070     -5.680413
  H      -1.773985      3.175840     -5.364925
  C      -2.815324      4.968429     -4.680296
  H      -2.621060      5.481878     -5.654100
  H      -1.967293      5.255946     -4.011364
  C      -4.133480      5.525977     -4.071485
  H      -4.009643      6.626585     -3.921760
  H      -4.288811      5.105481     -3.048309
  C      -5.407624      5.281667     -4.920231
  H      -5.577511      4.185722     -5.052089
  H      -5.251705      5.690094     -5.950251
  C      -6.683258      5.911719     -4.304882
  H      -6.534291      7.014269     -4.188093
  H      -6.826457      5.515591     -3.268237
  C      -7.969837      5.654540     -5.130007
  H      -8.115301      4.552251     -5.248336
  H      -7.829900      6.054275     -6.164865
  C      -9.239044      6.280346     -4.501338
  H     -10.146420      6.076414     -5.115276
  H      -9.140269      7.387330     -4.404571
  H      -9.425646      5.875384     -3.478811
  C      -0.173735     -1.860387     -0.835604
  H       0.661113     -1.123327     -0.889458
  H      -0.882034     -1.600249     -1.658988
  C       0.391331     -3.286573     -1.068999
  H      -0.431890     -4.036333     -0.958463
  H       1.134467     -3.521483     -0.270640
  C       1.059522     -3.461427     -2.455955
  H       1.838577     -2.671972     -2.583229
  H       0.301768     -3.273952     -3.257755
  C       1.688903     -4.864197     -2.669514
  H       2.516904     -5.013542     -1.932621
  H       0.924380     -5.642624     -2.427290
  C       2.211638     -5.124201     -4.109252
  H       2.542574     -6.188072     -4.192098
  H       1.368927     -5.012028     -4.834806
  C       3.381496     -4.196249     -4.555032
  H       4.220768     -4.302969     -3.820528
  H       3.059586     -3.134122     -4.498488
  C       3.889517     -4.528555     -5.947979
  H       4.307440     -5.551267     -6.059949
  C       3.848313     -3.742903     -7.053620
  H       4.257469     -4.162842     -7.996473
  C       3.338248     -2.315443     -7.164005
  H       2.882301     -1.977948     -6.207157
  H       2.515031     -2.282876     -7.920694
  C       4.445164     -1.309592     -7.621759
  H       3.991580     -0.292567     -7.710526
  H       4.774984     -1.589031     -8.652544
  C       5.696618     -1.245405     -6.703933
  H       6.150533     -2.261981     -6.647421
  H       6.461739     -0.591996     -7.190502
  C       5.425598     -0.707461     -5.273453
  H       4.982501      0.315449     -5.352838
  H       4.655943     -1.334789     -4.764686
  C       6.690382     -0.642980     -4.369949
  H       6.448645     -0.058158     -3.448836
  H       7.484656     -0.063640     -4.900113
  C       7.237818     -2.032878     -3.944711
  H       6.411843     -2.604564     -3.454830
  H       7.521643     -2.624062     -4.849016
  C       8.452117     -1.979999     -2.975618
  H       8.170370     -1.393120     -2.066116
  H       8.665833     -3.014965     -2.613886
  C       9.744776     -1.387802     -3.592355
  H      10.594909     -1.436440     -2.873164
  H      10.048579     -1.948923     -4.508162
  H       9.622363     -0.319219     -3.882898
138
Coordinates from ORCA-job /wrk/rja7/qm_final_3_replicates/qm_final_1.1/qm/2/freq E -2722.576578067793
  N       2.192646      0.156107     11.719850
  C       2.184768      1.552089     10.971375
  H       2.648786      2.276724     11.675159
  H       1.123705      1.836118     10.823862
  C       0.774477     -0.094581     12.247477
  H       0.111519     -0.197166     11.359143
  H       0.779337     -1.028389     12.849127
  H       0.472372      0.764728     12.881225
  C       3.178517      0.225379     12.873488
  H       3.188427     -0.748526     13.405374
  H       4.189164      0.439605     12.468263
  H       2.876895      1.030435     13.575372
  C       2.567806     -1.046071     10.831941
  H       3.577693     -0.885325     10.408632
  H       1.802654     -1.136851     10.033355
  H       2.574269     -1.939768     11.491963
  C       2.893707      1.636119      9.593197
  H       2.821523      2.727946      9.338301
  H       3.982892      1.395154      9.690273
  P       0.594109      0.875026      8.382350
  O       0.150289      2.292188      8.706048
  O       0.074282     -0.371120      9.134872
  O       2.345052      0.811558      8.586112
  O       0.557522      0.616140      6.731511
  C       0.547276     -0.723811      6.206152
  H      -0.015363     -1.412333      6.880470
  H       1.594157     -1.115113      6.110020
  C      -0.091301     -0.691872      4.805217
  H       0.409280      0.081280      4.182666
  O      -1.507782     -0.346543      4.962528
  C      -2.066630      0.509992      4.043316
  O      -1.443481      1.072530      3.150084
  C      -3.585945      0.596689      4.241384
  H      -3.878049      1.672980      4.245269
  H      -3.855892      0.163441      5.228271
  C      -0.015737     -2.070668      4.108488
  H      -0.536314     -2.843027      4.718400
  H       1.048148     -2.362185      3.959284
  O      -0.718880     -2.050813      2.828652
  C       0.006815     -1.668727      1.713751
  O       1.208981     -1.447206      1.729728
  C      -0.908834     -1.544066      0.487096
  H      -1.758976     -2.257915      0.586769
  H      -1.359239     -0.522812      0.544111
  C      -4.339950     -0.160358      3.098073
  H      -5.401541     -0.302463      3.414439
  H      -3.908467     -1.187002      3.006541
  C      -4.299062      0.549102      1.720792
  H      -3.247270      0.815282      1.470267
  H      -4.841402      1.524758      1.796628
  C      -4.903427     -0.293623      0.569739
  H      -5.985829     -0.496694      0.767616
  H      -4.405925     -1.295548      0.547397
  C      -4.738275      0.375768     -0.818238
  H      -3.650939      0.549608     -1.003123
  H      -5.210072      1.389892     -0.802797
  C      -5.332576     -0.446519     -1.987087
  H      -6.438371     -0.540065     -1.856370
  H      -4.931500     -1.489910     -1.950602
  C      -5.033671      0.164155     -3.394504
  H      -5.398061      1.217037     -3.423610
  H      -5.632415     -0.393941     -4.155438
  C      -3.563135      0.080731     -3.773531
  H      -3.194208     -0.946547     -3.977761
  C      -2.665697      1.095055     -3.851301
  H      -1.625802      0.839567     -4.144177
  C      -2.918626      2.575683     -3.621310
  H      -2.205207      2.946567     -2.842069
  H      -3.937181      2.744256     -3.207909
  C      -2.722918      3.426014     -4.913850
  H      -3.475373      3.107151     -5.673950
  H      -1.727400      3.182149     -5.357878
  C      -2.798467      4.962875     -4.688587
  H      -2.612495      5.472073     -5.666282
  H      -1.955390      5.268777     -4.021722
  C      -4.124675      5.503032     -4.082041
  H      -4.016711      6.605801     -3.936324
  H      -4.273767      5.083444     -3.057254
  C      -5.396040      5.237655     -4.928849
  H      -5.551219      4.138962     -5.056832
  H      -5.247366      5.645110     -5.960276
  C      -6.679165      5.852064     -4.312992
  H      -6.545636      6.957219     -4.201772
  H      -6.813304      5.458879     -3.274055
  C      -7.964718      5.572771     -5.132995
  H      -8.094135      4.467974     -5.246814
  H      -7.834072      5.970660     -6.169797
  C      -9.241019      6.182000     -4.502373
  H     -10.147205      5.962574     -5.112749
  H      -9.158170      7.290709     -4.409749
  H      -9.418412      5.777978     -3.477811
  C      -0.161672     -1.732864     -0.857017
  H       0.696788     -1.022682     -0.900864
  H      -0.852194     -1.450572     -1.688111
  C       0.359719     -3.177111     -1.080688
  H      -0.487689     -3.899765     -0.973884
  H       1.088562     -3.431814     -0.274763
  C       1.035648     -3.383610     -2.459602
  H       1.834233     -2.614122     -2.588966
  H       0.290592     -3.189035     -3.271725
  C       1.635661     -4.803448     -2.644226
  H       2.454806     -4.955971     -1.898217
  H       0.852623     -5.560377     -2.392961
  C       2.164297     -5.105781     -4.073317
  H       2.479589     -6.176274     -4.126573
  H       1.327475     -4.999825     -4.806611
  C       3.351100     -4.207442     -4.535392
  H       4.182443     -4.303382     -3.790621
  H       3.044320     -3.139325     -4.514236
  C       3.869938     -4.590742     -5.911441
  H       4.281444     -5.619626     -5.983195
  C       3.846553     -3.845525     -7.044973
  H       4.266007     -4.301895     -7.966207
  C       3.341282     -2.422772     -7.217187
  H       2.867889     -2.049344     -6.282489
  H       2.532028     -2.418459     -7.989602
  C       4.456260     -1.434699     -7.691480
  H       4.002484     -0.422789     -7.827938
  H       4.806552     -1.752197     -8.704242
  C       5.687873     -1.330491     -6.750472
  H       6.144944     -2.342114     -6.643083
  H       6.460928     -0.693325     -7.245658
  C       5.380941     -0.737610     -5.349063
  H       4.928966      0.276098     -5.480804
  H       4.606586     -1.351828     -4.831864
  C       6.623677     -0.620170     -4.420710
  H       6.352441     -0.002496     -3.529662
  H       7.422129     -0.051668     -4.956060
  C       7.178987     -1.983862     -3.926028
  H       6.347112     -2.549679     -3.439052
  H       7.499668     -2.604691     -4.797628
  C       8.361604     -1.873478     -2.923134
  H       8.040636     -1.261041     -2.044084
  H       8.582908     -2.890785     -2.518371
  C       9.661467     -1.277323     -3.520566
  H      10.489599     -1.284285     -2.774549
  H      10.004189     -1.862997     -4.406778
  H       9.528231     -0.221807     -3.851543
138
Coordinates from ORCA-job /wrk/rja7/qm_final_3_replicates/qm_final_1.1/qm/2/freq E -2722.576810084062
  N       2.210522      0.125266     11.724902
  C       2.190661      1.523128     10.979406
  H       2.661012      2.246642     11.680040
  H       1.127426      1.804946     10.843071
  C       0.801006     -0.131848     12.273368
  H       0.125038     -0.235978     11.395363
  H       0.819533     -1.066127     12.874107
  H       0.506234      0.725379     12.913144
  C       3.212926      0.195893     12.863770
  H       3.236021     -0.778699     13.394368
  H       4.216553      0.415334     12.443890
  H       2.918682      0.998556     13.571435
  C       2.578137     -1.072312     10.827742
  H       3.580379     -0.906603     10.389330
  H       1.801237     -1.165937     10.040381
  H       2.598812     -1.967808     11.485272
  C       2.885140      1.611241      9.594465
  H       2.811150      2.704193      9.344499
  H       3.975084      1.368480      9.679218
  P       0.572561      0.854007      8.402272
  O       0.128004      2.265033      8.750174
  O       0.064897     -0.403334      9.143985
  O       2.325685      0.793176      8.588283
  O       0.519902      0.617411      6.748161
  C       0.507692     -0.716088      6.206389
  H      -0.057839     -1.411155      6.871850
  H       1.553979     -1.107974      6.107962
  C      -0.127197     -0.666721      4.804398
  H       0.379925      0.108370      4.189756
  O      -1.542084     -0.310195      4.961559
  C      -2.092358      0.568453      4.056486
  O      -1.463672      1.142385      3.174603
  C      -3.611928      0.660284      4.252088
  H      -3.902845      1.736271      4.238284
  H      -3.883975      0.239786      5.244017
  C      -0.055283     -2.041200      4.098172
  H      -0.584342     -2.813570      4.700341
  H       1.008102     -2.337536      3.954559
  O      -0.748242     -2.012814      2.811986
  C      -0.010843     -1.630050      1.705319
  O       1.192172     -1.414149      1.732881
  C      -0.912965     -1.496534      0.469590
  H      -1.771583     -2.201275      0.557830
  H      -1.352389     -0.470951      0.521400
  C      -4.365335     -0.113442      3.118935
  H      -5.428519     -0.246380      3.434079
  H      -3.937029     -1.142840      3.046018
  C      -4.318013      0.571794      1.729228
  H      -3.264604      0.825914      1.474504
  H      -4.854187      1.551983      1.785533
  C      -4.927164     -0.289869      0.594501
  H      -6.010408     -0.483035      0.797570
  H      -4.434851     -1.294264      0.592564
  C      -4.758409      0.348524     -0.808112
  H      -3.670145      0.511857     -0.996541
  H      -5.223765      1.365462     -0.815719
  C      -5.358391     -0.497713     -1.957877
  H      -6.464614     -0.580946     -1.824177
  H      -4.963760     -1.542337     -1.895150
  C      -5.055502      0.074189     -3.380392
  H      -5.410999      1.128960     -3.436437
  H      -5.659063     -0.498056     -4.126772
  C      -3.585575     -0.030337     -3.757899
  H      -3.227145     -1.064264     -3.946480
  C      -2.676454      0.972757     -3.848028
  H      -1.639641      0.701351     -4.137592
  C      -2.908919      2.458768     -3.630341
  H      -2.181997      2.827924     -2.863105
  H      -3.920133      2.644858     -3.206628
  C      -2.716060      3.294252     -4.933327
  H      -3.488840      2.987471     -5.678119
  H      -1.734480      3.022555     -5.391896
  C      -2.748649      4.834164     -4.718679
  H      -2.563966      5.332597     -5.702083
  H      -1.887107      5.121516     -4.067236
  C      -4.049608      5.414932     -4.095545
  H      -3.903782      6.513177     -3.948974
  H      -4.199916      4.998706     -3.069641
  C      -5.338862      5.195718     -4.929361
  H      -5.538066      4.103832     -5.055847
  H      -5.184366      5.597573     -5.962067
  C      -6.591157      5.860993     -4.302769
  H      -6.410879      6.959548     -4.191881
  H      -6.733131      5.472694     -3.263052
  C      -7.893431      5.637175     -5.113573
  H      -8.071694      4.539161     -5.226356
  H      -7.752901      6.029160     -6.151299
  C      -9.137601      6.300847     -4.473878
  H     -10.056991      6.120538     -5.077269
  H      -9.006424      7.404997     -4.382487
  H      -9.324904      5.904761     -3.447907
  C      -0.154667     -1.690587     -0.868399
  H       0.714801     -0.993344     -0.897564
  H      -0.832435     -1.393091     -1.704216
  C       0.348112     -3.140971     -1.094279
  H      -0.509669     -3.852848     -0.999409
  H       1.065676     -3.409092     -0.282439
  C       1.033982     -3.352610     -2.468464
  H       1.841544     -2.591319     -2.590877
  H       0.297605     -3.150077     -3.286657
  C       1.621178     -4.778978     -2.646631
  H       2.433709     -4.936187     -1.894420
  H       0.829522     -5.527338     -2.396351
  C       2.155155     -5.095517     -4.070690
  H       2.460890     -6.169237     -4.113345
  H       1.323227     -4.987282     -4.809202
  C       3.352589     -4.211805     -4.534882
  H       4.177903     -4.305040     -3.783158
  H       3.053497     -3.141223     -4.528120
  C       3.879266     -4.617419     -5.902110
  H       4.291694     -5.647092     -5.953735
  C       3.863945     -3.893223     -7.049612
  H       4.289659     -4.367699     -7.958895
  C       3.355889     -2.476169     -7.256374
  H       2.868248     -2.087141     -6.335343
  H       2.556539     -2.492132     -8.039013
  C       4.469270     -1.490997     -7.737920
  H       4.008048     -0.486789     -7.904790
  H       4.837237     -1.828612     -8.737760
  C       5.684945     -1.349697     -6.781340
  H       6.152041     -2.352754     -6.638520
  H       6.458527     -0.717462     -7.282002
  C       5.348158     -0.720347     -5.402691
  H       4.881003      0.280962     -5.572347
  H       4.576063     -1.331929     -4.879250
  C       6.573222     -0.552231     -4.458895
  H       6.274330      0.085314     -3.590886
  H       7.368812      0.016800     -4.998029
  C       7.146652     -1.889314     -3.915300
  H       6.317719     -2.458988     -3.427734
  H       7.496553     -2.527628     -4.762933
  C       8.308696     -1.727084     -2.895540
  H       7.960514     -1.098636     -2.038531
  H       8.543629     -2.728727     -2.460428
  C       9.606385     -1.121107     -3.487809
  H      10.422400     -1.092079     -2.729076
  H       9.974529     -1.723220     -4.352431
  H       9.457912     -0.077652     -3.849152
138
Coordinates from ORCA-job /wrk/rja7/qm_final_3_replicates/qm_final_1.1/qm/2/freq E -2722.577103414472
  N       2.207673      0.053930     11.733279
  C       2.193782      1.465604     11.012497
  H       2.669970      2.173738     11.724593
  H       1.131951      1.756130     10.882565
  C       0.797713     -0.206868     12.279051
  H       0.120389     -0.292969     11.400050
  H       0.813390     -1.150984     12.864386
  H       0.508632      0.640975     12.933500
  C       3.212230      0.099929     12.871294
  H       3.233293     -0.883676     13.385169
  H       4.216398      0.322939     12.454448
  H       2.923522      0.891178     13.593989
  C       2.570548     -1.127944     10.814427
  H       3.572133     -0.956591     10.377075
  H       1.792914     -1.208092     10.026319
  H       2.590454     -2.034816     11.456177
  C       2.884304      1.572898      9.627393
  H       2.818011      2.670826      9.397012
  H       3.972650      1.320355      9.703211
  P       0.559002      0.845274      8.439084
  O       0.117686      2.246605      8.827741
  O       0.057547     -0.430082      9.152686
  O       2.314066      0.777108      8.609673
  O       0.490282      0.652655      6.780022
  C       0.480131     -0.667531      6.206227
  H      -0.089627     -1.378015      6.851683
  H       1.526288     -1.058459      6.103737
  C      -0.148516     -0.582008      4.803228
  H       0.365628      0.203658      4.208082
  O      -1.561326     -0.220213      4.963283
  C      -2.102148      0.690918      4.084645
  O      -1.466828      1.293911      3.227692
  C      -3.623357      0.769325      4.268405
  H      -3.927770      1.840649      4.236279
  H      -3.899327      0.355179      5.262003
  C      -0.085464     -1.940371      4.066455
  H      -0.630275     -2.719162      4.645537
  H       0.975279     -2.247313      3.926022
  O      -0.765745     -1.870683      2.774353
  C      -0.007022     -1.486910      1.683210
  O       1.201564     -1.307687      1.726115
  C      -0.890294     -1.296620      0.441602
  H      -1.783144     -1.959557      0.509085
  H      -1.279547     -0.251020      0.500762
  C      -4.353747     -0.031449      3.138362
  H      -5.418529     -0.175892      3.442947
  H      -3.908592     -1.054621      3.084294
  C      -4.299303      0.633965      1.739365
  H      -3.247381      0.909184      1.498822
  H      -4.860694      1.600854      1.768953
  C      -4.863651     -0.263957      0.609411
  H      -5.945573     -0.480791      0.794514
  H      -4.346328     -1.254975      0.639200
  C      -4.681829      0.349583     -0.802661
  H      -3.594917      0.541427     -0.969569
  H      -5.176845      1.351417     -0.844185
  C      -5.228399     -0.540465     -1.946573
  H      -6.334282     -0.655432     -1.836018
  H      -4.803810     -1.570651     -1.848924
  C      -4.911856      0.008623     -3.374642
  H      -5.304123      1.048031     -3.464318
  H      -5.476223     -0.602131     -4.121050
  C      -3.430852     -0.047056     -3.718157
  H      -3.028756     -1.068972     -3.882318
  C      -2.560124      0.989936     -3.804918
  H      -1.507308      0.756289     -4.068484
  C      -2.856768      2.468162     -3.611010
  H      -2.154775      2.876257     -2.840392
  H      -3.879558      2.617633     -3.200857
  C      -2.685602      3.296912     -4.921247
  H      -3.442634      2.955678     -5.667357
  H      -1.692272      3.056817     -5.372088
  C      -2.775425      4.836345     -4.720235
  H      -2.607167      5.333773     -5.707114
  H      -1.926092      5.160509     -4.069962
  C      -4.096688      5.373999     -4.100816
  H      -3.987523      6.476482     -3.954265
  H      -4.234449      4.953896     -3.074629
  C      -5.377618      5.112701     -4.935500
  H      -5.541025      4.015239     -5.064363
  H      -5.237144      5.521722     -5.967395
  C      -6.651406      5.734175     -4.306515
  H      -6.508049      6.837986     -4.193777
  H      -6.778327      5.339532     -3.267262
  C      -7.946585      5.468750     -5.115761
  H      -8.087744      4.365803     -5.232632
  H      -7.821642      5.869369     -6.152204
  C      -9.211165      6.087329     -4.470877
  H     -10.125426      5.877996     -5.072683
  H      -9.117406      7.194973     -4.375781
  H      -9.382148      5.681244     -3.445963
  C      -0.126316     -1.511481     -0.890773
  H       0.782229     -0.864800     -0.896886
  H      -0.775136     -1.163823     -1.729874
  C       0.296348     -2.984473     -1.129956
  H      -0.600956     -3.648366     -1.055944
  H       0.987309     -3.303038     -0.313017
  C       0.986835     -3.217953     -2.498532
  H       1.833836     -2.498230     -2.604858
  H       0.271121     -2.970261     -3.322676
  C       1.500711     -4.671489     -2.682108
  H       2.296412     -4.875159     -1.922962
  H       0.669570     -5.380048     -2.444027
  C       2.032390     -5.006379     -4.102230
  H       2.285211     -6.093589     -4.147827
  H       1.215284     -4.852562     -4.849088
  C       3.276607     -4.178939     -4.546694
  H       4.085292     -4.312056     -3.783087
  H       3.026877     -3.095747     -4.541447
  C       3.806019     -4.606810     -5.905536
  H       4.185016     -5.649583     -5.949183
  C       3.825134     -3.887295     -7.055655
  H       4.241837     -4.380048     -7.959394
  C       3.363332     -2.455859     -7.272469
  H       2.884577     -2.046408     -6.355375
  H       2.565565     -2.452455     -8.056894
  C       4.507854     -1.509333     -7.756934
  H       4.078529     -0.493182     -7.937027
  H       4.871067     -1.867528     -8.751287
  C       5.720555     -1.394983     -6.792913
  H       6.154927     -2.410310     -6.633633
  H       6.517604     -0.794617     -7.296156
  C       5.395789     -0.734767     -5.426138
  H       4.962373      0.278678     -5.613107
  H       4.600965     -1.313348     -4.899561
  C       6.618694     -0.593762     -4.475429
  H       6.334540      0.066770     -3.619689
  H       7.437197     -0.060412     -5.016802
  C       7.141331     -1.941272     -3.907152
  H       6.289572     -2.474159     -3.417408
  H       7.474347     -2.604448     -4.742496
  C       8.302211     -1.805143     -2.882261
  H       7.972660     -1.150828     -2.037349
  H       8.497340     -2.807957     -2.430448
  C       9.625215     -1.258573     -3.476353
  H      10.438039     -1.249553     -2.713730
  H       9.973987     -1.887870     -4.329527
  H       9.518817     -0.215965     -3.854520
138
Coordinates from ORCA-job /wrk/rja7/qm_final_3_replicates/qm_final_1.1/qm/2/freq E -2722.577516577057
  N       2.219422     -0.009859     11.726663
  C       2.207366      1.414557     11.030636
  H       2.688384      2.108637     11.753199
  H       1.145970      1.710635     10.909151
  C       0.811636     -0.274864     12.275481
  H       0.129340     -0.343166     11.398778
  H       0.827224     -1.228246     12.845618
  H       0.530128      0.563531     12.945258
  C       3.230973      0.011488     12.859001
  H       3.254095     -0.981766     13.354021
  H       4.233334      0.240702     12.441031
  H       2.948819      0.789178     13.598836
  C       2.573384     -1.174966     10.784176
  H       3.573110     -0.998752     10.344891
  H       1.792624     -1.237798      9.997363
  H       2.592406     -2.094175     11.408251
  C       2.891627      1.541688      9.644357
  H       2.831647      2.644004      9.433233
  H       3.978814      1.281371      9.709632
  P       0.555401      0.837820      8.457046
  O       0.115261      2.231702      8.873041
  O       0.059272     -0.449397      9.152112
  O       2.312009      0.766081      8.615924
  O       0.474481      0.676428      6.795254
  C       0.460289     -0.632537      6.195968
  H      -0.113532     -1.353141      6.826416
  H       1.504700     -1.026271      6.086649
  C      -0.168169     -0.512738      4.795199
  H       0.354645      0.277801      4.213742
  O      -1.574600     -0.134241      4.967014
  C      -2.098833      0.817579      4.121626
  O      -1.454812      1.431004      3.279344
  C      -3.616651      0.922873      4.317921
  H      -3.907496      1.996289      4.256686
  H      -3.890336      0.537699      5.323796
  C      -0.123933     -1.856995      4.032185
  H      -0.688638     -2.636140      4.591236
  H       0.931998     -2.180870      3.894558
  O      -0.791046     -1.747374      2.735258
  C      -0.013632     -1.363653      1.657420
  O       1.198978     -1.217018      1.712113
  C      -0.879705     -1.129770      0.411496
  H      -1.792591     -1.766241      0.459852
  H      -1.236676     -0.073430      0.482053
  C      -4.363805      0.099068      3.215654
  H      -5.428641     -0.025193      3.528727
  H      -3.929108     -0.929163      3.185943
  C      -4.304936      0.724885      1.798955
  H      -3.251075      0.990310      1.555574
  H      -4.865929      1.692133      1.795503
  C      -4.860634     -0.209808      0.694560
  H      -5.944112     -0.420218      0.877314
  H      -4.344031     -1.198953      0.765097
  C      -4.660587      0.350742     -0.736548
  H      -3.572982      0.547811     -0.890695
  H      -5.165545      1.344262     -0.828713
  C      -5.173204     -0.592410     -1.853328
  H      -6.278901     -0.720761     -1.756805
  H      -4.734657     -1.611029     -1.706151
  C      -4.838546     -0.096925     -3.296112
  H      -5.251831      0.928479     -3.438626
  H      -5.372338     -0.751264     -4.027740
  C      -3.349415     -0.131295     -3.607611
  H      -2.921632     -1.148248     -3.732630
  C      -2.499693      0.921870     -3.707988
  H      -1.436869      0.703591     -3.943112
  C      -2.831552      2.398503     -3.565656
  H      -2.143266      2.846629     -2.805086
  H      -3.859851      2.538936     -3.166254
  C      -2.671327      3.189400     -4.900615
  H      -3.424588      2.816424     -5.635306
  H      -1.675476      2.948281     -5.345340
  C      -2.780556      4.732840     -4.744967
  H      -2.616951      5.203938     -5.745452
  H      -1.936171      5.086687     -4.103707
  C      -4.109139      5.270718     -4.142313
  H      -4.011646      6.376946     -4.017130
  H      -4.247277      4.869753     -3.108550
  C      -5.383104      4.979064     -4.977145
  H      -5.532278      3.877532     -5.087960
  H      -5.243660      5.371868     -6.015481
  C      -6.667629      5.594071     -4.363371
  H      -6.539254      6.701430     -4.268204
  H      -6.793555      5.214927     -3.318261
  C      -7.955981      5.298520     -5.172767
  H      -8.081757      4.192010     -5.272833
  H      -7.832651      5.684473     -6.214954
  C      -9.231117      5.909856     -4.541793
  H     -10.140306      5.679176     -5.143449
  H      -9.152332      7.019978     -4.463383
  H      -9.400377      5.517191     -3.511399
  C      -0.112523     -1.346460     -0.919345
  H       0.824418     -0.742231     -0.900193
  H      -0.737406     -0.949997     -1.754846
  C       0.244586     -2.830469     -1.191906
  H      -0.683270     -3.453771     -1.147364
  H       0.909123     -3.203359     -0.375713
  C       0.940409     -3.059161     -2.559189
  H       1.825690     -2.383021     -2.634092
  H       0.248154     -2.748811     -3.382142
  C       1.374216     -4.532799     -2.782054
  H       2.149950     -4.803303     -2.022946
  H       0.502839     -5.200489     -2.571077
  C       1.900052     -4.856064     -4.206829
  H       2.085549     -5.954984     -4.283913
  H       1.103782     -4.627855     -4.957151
  C       3.200066     -4.095800     -4.611277
  H       3.987190     -4.302019     -3.841539
  H       3.018340     -2.999632     -4.578159
  C       3.721174     -4.518813     -5.974731
  H       4.052316     -5.576748     -6.038323
  C       3.780553     -3.777099     -7.109108
  H       4.181033     -4.269507     -8.020429
  C       3.381750     -2.322861     -7.298404
  H       2.912361     -1.914153     -6.375953
  H       2.591338     -2.269469     -8.088490
  C       4.568437     -1.414455     -7.753754
  H       4.182079     -0.378934     -7.920375
  H       4.927319     -1.769351     -8.750835
  C       5.774806     -1.367112     -6.776200
  H       6.168025     -2.401564     -6.634206
  H       6.600241     -0.789200     -7.260023
  C       5.463779     -0.722212     -5.399165
  H       5.069246      0.310092     -5.567754
  H       4.643745     -1.281797     -4.890656
  C       6.681748     -0.647813     -4.434827
  H       6.411342     -0.002065     -3.563521
  H       7.522842     -0.127748     -4.954065
  C       7.153794     -2.027508     -3.900396
  H       6.277809     -2.548240     -3.441215
  H       7.479614     -2.674591     -4.750941
  C       8.301093     -1.960395     -2.853646
  H       7.976558     -1.326232     -1.991653
  H       8.459904     -2.983476     -2.434153
  C       9.648594     -1.431945     -3.407874
  H      10.449034     -1.473029     -2.633363
  H       9.992839     -2.040889     -4.277552
  H       9.577047     -0.374353     -3.751028
138
Coordinates from ORCA-job /wrk/rja7/qm_final_3_replicates/qm_final_1.1/qm/2/freq E -2722.577685621527
  N       2.188439     -0.134313     11.744985
  C       2.213815      1.317545     11.108042
  H       2.686822      1.973660     11.870313
  H       1.159902      1.635496     10.974986
  C       0.764418     -0.399135     12.248913
  H       0.102795     -0.417385     11.353895
  H       0.752228     -1.375435     12.778708
  H       0.481754      0.415763     12.947169
  C       3.172099     -0.175175     12.901542
  H       3.171030     -1.188288     13.355154
  H       4.187979      0.057418     12.519378
  H       2.880850      0.575326     13.665493
  C       2.549337     -1.262923     10.763132
  H       3.560940     -1.081193     10.354862
  H       1.786907     -1.281903      9.955937
  H       2.541455     -2.208447     11.347074
  C       2.926396      1.489489      9.741322
  H       2.896168      2.601045      9.576660
  H       4.006635      1.202582      9.811397
  P       0.596169      0.863709      8.488600
  O       0.158817      2.247161      8.941235
  O       0.080347     -0.439669      9.137221
  O       2.349575      0.769998      8.670094
  O       0.531886      0.758827      6.821521
  C       0.519336     -0.526675      6.172660
  H      -0.068726     -1.266409      6.766695
  H       1.562604     -0.923092      6.063056
  C      -0.092465     -0.342258      4.769911
  H       0.446927      0.462066      4.222882
  O      -1.491236      0.053434      4.944398
  C      -1.973958      1.069616      4.150933
  O      -1.306323      1.690736      3.334167
  C      -3.481154      1.237445      4.372186
  H      -3.737447      2.313706      4.248537
  H      -3.746641      0.921575      5.404299
  C      -0.073357     -1.649186      3.947660
  H      -0.681100     -2.432316      4.453088
  H       0.972870     -2.005890      3.818576
  O      -0.710020     -1.438778      2.647625
  C       0.101195     -1.037720      1.602477
  O       1.320810     -0.978017      1.670817
  C      -0.736030     -0.661969      0.372591
  H      -1.695757     -1.227033      0.379817
  H      -1.009987      0.413964      0.508532
  C      -4.277633      0.369237      3.339452
  H      -5.340115      0.305441      3.677311
  H      -3.876549     -0.671671      3.368023
  C      -4.220305      0.889798      1.880346
  H      -3.160582      1.103123      1.605737
  H      -4.755559      1.868116      1.807204
  C      -4.817301     -0.115701      0.861193
  H      -5.903576     -0.276089      1.074258
  H      -4.328872     -1.110012      1.014855
  C      -4.622377      0.308002     -0.615889
  H      -3.534508      0.473885     -0.798578
  H      -5.114378      1.296060     -0.798052
  C      -5.158835     -0.729987     -1.633915
  H      -6.262209     -0.845683     -1.501022
  H      -4.717240     -1.732810     -1.406304
  C      -4.864233     -0.364624     -3.122413
  H      -5.286670      0.642920     -3.344954
  H      -5.412558     -1.083401     -3.778628
  C      -3.384854     -0.417908     -3.475624
  H      -2.955838     -1.438647     -3.556503
  C      -2.543042      0.631216     -3.650010
  H      -1.484723      0.405102     -3.897829
  C      -2.880307      2.111151     -3.574083
  H      -2.165828      2.599174     -2.864118
  H      -3.893999      2.269474     -3.145124
  C      -2.773377      2.835679     -4.951645
  H      -3.557394      2.430300     -5.635064
  H      -1.797631      2.569403     -5.425701
  C      -2.876822      4.384512     -4.864271
  H      -2.747227      4.808783     -5.890335
  H      -2.011795      4.767860     -4.269018
  C      -4.187447      4.946617     -4.245243
  H      -4.087956      6.056426     -4.159955
  H      -4.298500      4.579486     -3.195876
  C      -5.479531      4.622834     -5.039282
  H      -5.626739      3.517096     -5.107672
  H      -5.362761      4.976581     -6.094417
  C      -6.754389      5.255155     -4.422785
  H      -6.625345      6.364908     -4.360989
  H      -6.865834      4.905706     -3.365674
  C      -8.054025      4.936681     -5.204853
  H      -8.183097      3.827631     -5.266749
  H      -7.943329      5.287476     -6.260736
  C      -9.319901      5.571067     -4.577535
  H     -10.237145      5.323040     -5.159660
  H      -9.237974      6.682955     -4.536257
  H      -9.477413      5.212069     -3.533056
  C       0.018527     -0.855908     -0.969000
  H       1.016208     -0.361239     -0.901300
  H      -0.550394     -0.332392     -1.772722
  C       0.204428     -2.346165     -1.351967
  H      -0.792492     -2.854121     -1.361620
  H       0.807867     -2.858756     -0.563996
  C       0.888063     -2.554599     -2.729093
  H       1.865092     -2.014852     -2.737344
  H       0.264986     -2.073422     -3.524441
  C       1.086450     -4.052575     -3.081087
  H       1.795069     -4.511256     -2.346830
  H       0.115366     -4.586436     -2.934405
  C       1.588465     -4.332181     -4.522919
  H       1.583005     -5.434890     -4.701807
  H       0.871658     -3.899376     -5.263233
  C       3.019206     -3.787839     -4.823610
  H       3.718942     -4.197869     -4.051529
  H       3.033562     -2.683042     -4.700805
  C       3.516472     -4.188505     -6.202138
  H       3.700297     -5.275752     -6.333307
  C       3.708282     -3.389137     -7.280142
  H       4.062194     -3.871712     -8.215912
  C       3.523192     -1.883630     -7.372998
  H       3.079656     -1.476904     -6.436596
  H       2.780462     -1.663660     -8.180266
  C       4.845540     -1.128787     -7.724192
  H       4.617063     -0.042162     -7.850302
  H       5.201039     -1.481925     -8.723178
  C       5.993955     -1.309234     -6.694197
  H       6.224495     -2.396515     -6.597692
  H       6.919815     -0.837907     -7.108166
  C       5.713734     -0.696702     -5.296321
  H       5.486402      0.390887     -5.417361
  H       4.793468     -1.151228     -4.858195
  C       6.873795     -0.864251     -4.274404
  H       6.649882     -0.244382     -3.371754
  H       7.810052     -0.441263     -4.713075
  C       7.112140     -2.330922     -3.822079
  H       6.143134     -2.748943     -3.453885
  H       7.396845     -2.958092     -4.701661
  C       8.187114     -2.506097     -2.713294
  H       7.901023     -1.894893     -1.821619
  H       8.172664     -3.568912     -2.369445
  C       9.628016     -2.138709     -3.151459
  H      10.364242     -2.347025     -2.341198
  H       9.938159     -2.728721     -4.046724
  H       9.722281     -1.060777     -3.416834
138
Coordinates from ORCA-job /wrk/rja7/qm_final_3_replicates/qm_final_1.1/qm/2/freq E -2722.578131812576
  N       2.257713      0.033257     11.723461
  C       2.272072      1.445876     11.005678
  H       2.757575      2.145065     11.720291
  H       1.215449      1.756002     10.874254
  C       0.840580     -0.205916     12.259850
  H       0.167591     -0.271596     11.375626
  H       0.837555     -1.153114     12.839872
  H       0.566410      0.644153     12.918424
  C       3.254794      0.059300     12.869935
  H       3.257794     -0.926388     13.380167
  H       4.266173      0.269116     12.463621
  H       2.969464      0.852776     13.591283
  C       2.609930     -1.146805     10.799668
  H       3.615883     -0.984720     10.369601
  H       1.836488     -1.208896     10.005477
  H       2.612749     -2.059438     11.433589
  C       2.959074      1.540541      9.618648
  H       2.929460      2.641828      9.395389
  H       4.039370      1.253034      9.683661
  P       0.606999      0.850767      8.437949
  O       0.173749      2.255235      8.824520
  O       0.100283     -0.419511      9.156770
  O       2.362211      0.767435      8.596994
  O       0.525035      0.663778      6.779046
  C       0.496828     -0.647010      6.183370
  H      -0.092641     -1.358336      6.810106
  H       1.536153     -1.055596      6.081939
  C      -0.121981     -0.508514      4.778451
  H       0.422189      0.270991      4.201611
  O      -1.517279     -0.089565      4.946992
  C      -1.995091      0.919683      4.139180
  O      -1.322773      1.526710      3.315334
  C      -3.500988      1.108613      4.363238
  H      -3.741853      2.187426      4.228599
  H      -3.762812      0.810977      5.401750
  C      -0.110025     -1.845252      4.000977
  H      -0.707414     -2.611521      4.543437
  H       0.935941     -2.202348      3.869628
  O      -0.763894     -1.692649      2.702793
  C       0.028149     -1.309271      1.635858
  O       1.247430     -1.229539      1.685480
  C      -0.837327     -0.972821      0.414951
  H      -1.778326     -1.567600      0.449179
  H      -1.139999      0.094299      0.549014
  C      -4.322456      0.249514      3.342322
  H      -5.385776      0.214142      3.681512
  H      -3.948312     -0.801319      3.377073
  C      -4.254302      0.771620      1.883204
  H      -3.191697      0.965525      1.613824
  H      -4.769562      1.761330      1.817241
  C      -4.869463     -0.205251      0.846590
  H      -5.959887     -0.344629      1.053188
  H      -4.405605     -1.214147      0.984298
  C      -4.659197      0.245673     -0.621540
  H      -3.567540      0.392415     -0.797682
  H      -5.128893      1.248517     -0.780859
  C      -5.216734     -0.750775     -1.669270
  H      -6.320909     -0.853798     -1.531833
  H      -4.788625     -1.766874     -1.479510
  C      -4.930028     -0.341732     -3.149690
  H      -5.331275      0.681970     -3.334228
  H      -5.504086     -1.025799     -3.820937
  C      -3.457040     -0.425478     -3.524054
  H      -3.061954     -1.456249     -3.642568
  C      -2.580831      0.598930     -3.680462
  H      -1.535805      0.339636     -3.949980
  C      -2.854903      2.089588     -3.564904
  H      -2.122623      2.528473     -2.840881
  H      -3.862439      2.280967     -3.135619
  C      -2.705318      2.841375     -4.924856
  H      -3.492671      2.476849     -5.626919
  H      -1.732337      2.552297     -5.390968
  C      -2.757051      4.391272     -4.805907
  H      -2.599836      4.831406     -5.821306
  H      -1.887472      4.731048     -4.191281
  C      -4.057919      4.986392     -4.197190
  H      -3.926793      6.091285     -4.093728
  H      -4.196782      4.606883     -3.155581
  C      -5.344112      4.714980     -5.019567
  H      -5.518479      3.615654     -5.111719
  H      -5.197247      5.084311     -6.065591
  C      -6.612784      5.370039     -4.414976
  H      -6.453000      6.473622     -4.322443
  H      -6.758237      4.998166     -3.369718
  C      -7.903308      5.108920     -5.233104
  H      -8.063203      4.005969     -5.324709
  H      -7.758032      5.480872     -6.277460
  C      -9.164328      5.765284     -4.618989
  H     -10.074434      5.559188     -5.228146
  H      -9.050972      6.872868     -4.547731
  H      -9.357409      5.385483     -3.587927
  C      -0.107922     -1.144001     -0.941629
  H       0.865955     -0.606000     -0.894915
  H      -0.719530     -0.644006     -1.727680
  C       0.141919     -2.618147     -1.348245
  H      -0.829889     -3.172655     -1.361707
  H       0.773512     -3.117664     -0.574115
  C       0.822504     -2.755927     -2.736554
  H       1.775386     -2.174115     -2.732378
  H       0.172136     -2.275588     -3.510457
  C       1.091411     -4.226985     -3.147951
  H       1.818989     -4.682968     -2.430634
  H       0.146323     -4.811884     -3.029546
  C       1.609926     -4.417087     -4.599368
  H       1.647119     -5.509643     -4.829777
  H       0.880375     -3.977633     -5.322897
  C       3.018911     -3.801666     -4.871176
  H       3.730248     -4.207337     -4.107752
  H       2.986265     -2.701766     -4.712083
  C       3.540400     -4.135886     -6.259353
  H       3.768896     -5.210195     -6.423228
  C       3.714201     -3.295409     -7.310383
  H       4.090100     -3.737158     -8.257663
  C       3.489538     -1.792375     -7.358865
  H       3.025166     -1.427473     -6.415501
  H       2.750739     -1.567292     -8.168109
  C       4.794944     -0.988258     -7.671424
  H       4.535139      0.093818     -7.772467
  H       5.173343     -1.305255     -8.674121
  C       5.938637     -1.160495     -6.635151
  H       6.195143     -2.242569     -6.559788
  H       6.856250     -0.657999     -7.030644
  C       5.631310     -0.584332     -5.227514
  H       5.384605      0.500991     -5.328028
  H       4.715062     -1.065236     -4.809198
  C       6.783353     -0.752803     -4.197156
  H       6.538909     -0.157616     -3.283292
  H       7.716684     -0.302708     -4.614999
  C       7.044615     -2.224486     -3.774304
  H       6.080742     -2.668118     -3.422851
  H       7.347572     -2.827466     -4.664649
  C       8.114729     -2.403432     -2.661696
  H       7.814151     -1.813102     -1.760636
  H       8.114476     -3.472411     -2.337371
  C       9.552666     -2.006156     -3.083860
  H      10.286905     -2.218191     -2.272814
  H       9.876875     -2.575081     -3.987784
  H       9.632188     -0.922101     -3.328365
138
Coordinates from ORCA-job /wrk/rja7/qm_final_3_replicates/qm_final_1.1/qm/2/freq E -2722.578299160832
  N       2.307966     -0.008856     11.721463
  C       2.312009      1.406491     11.008126
  H       2.809535      2.103423     11.716966
  H       1.252976      1.715075     10.894333
  C       0.893166     -0.263043     12.259177
  H       0.220986     -0.341291     11.375854
  H       0.901799     -1.209536     12.840485
  H       0.606444      0.583594     12.916583
  C       3.306245      0.025096     12.866273
  H       3.316044     -0.961508     13.375135
  H       4.313985      0.242377     12.455242
  H       3.015179      0.815546     13.588860
  C       2.669109     -1.187071     10.796821
  H       3.673726     -1.017173     10.365637
  H       1.893261     -1.257129     10.005111
  H       2.683116     -2.098469     11.432342
  C       2.985676      1.513100      9.614258
  H       2.946971      2.616013      9.401435
  H       4.067455      1.229456      9.669598
  P       0.626841      0.844345      8.454653
  O       0.210442      2.243388      8.878279
  O       0.120267     -0.441104      9.148477
  O       2.380882      0.750249      8.591980
  O       0.530270      0.690805      6.793067
  C       0.480173     -0.610988      6.181769
  H      -0.109967     -1.321731      6.808996
  H       1.514814     -1.028799      6.069111
  C      -0.144756     -0.467456      4.781738
  H       0.397572      0.316784      4.210326
  O      -1.545182     -0.058868      4.947205
  C      -2.042860      0.930342      4.126500
  O      -1.382892      1.547709      3.299061
  C      -3.557918      1.069569      4.327641
  H      -3.827387      2.142685      4.198353
  H      -3.824243      0.761791      5.362089
  C      -0.125211     -1.802321      4.000102
  H      -0.710028     -2.578159      4.543467
  H       0.923696     -2.147711      3.859503
  O      -0.788089     -1.656485      2.706397
  C      -0.010581     -1.248734      1.636815
  O       1.204468     -1.122342      1.688316
  C      -0.889000     -0.948919      0.414297
  H      -1.809078     -1.574704      0.457094
  H      -1.228823      0.106645      0.542942
  C      -4.344440      0.195276      3.291861
  H      -5.412051      0.143485      3.614719
  H      -3.954476     -0.850376      3.341497
  C      -4.267092      0.714646      1.831679
  H      -3.207873      0.929342      1.568017
  H      -4.793493      1.699622      1.766255
  C      -4.867319     -0.260585      0.786425
  H      -5.959766     -0.404139      0.980185
  H      -4.402143     -1.269897      0.917539
  C      -4.654908      0.209256     -0.675783
  H      -3.562330      0.354212     -0.852188
  H      -5.119250      1.217349     -0.814435
  C      -5.224359     -0.764916     -1.736130
  H      -6.329037     -0.862240     -1.597666
  H      -4.801872     -1.786312     -1.568629
  C      -4.940508     -0.331130     -3.211289
  H      -5.316092      0.706404     -3.367517
  H      -5.541562     -0.985038     -3.889206
  C      -3.474693     -0.448384     -3.602411
  H      -3.109446     -1.487875     -3.740845
  C      -2.574856      0.554666     -3.760938
  H      -1.542678      0.274694     -4.057159
  C      -2.810800      2.048709     -3.621855
  H      -2.064558      2.463985     -2.898024
  H      -3.811062      2.256756     -3.183035
  C      -2.653498      2.807100     -4.976520
  H      -3.450287      2.460308     -5.676705
  H      -1.687818      2.503619     -5.448218
  C      -2.677322      4.356699     -4.848717
  H      -2.522648      4.798503     -5.863752
  H      -1.795603      4.676386     -4.241016
  C      -3.960156      4.972548     -4.221446
  H      -3.808707      6.075478     -4.126297
  H      -4.090048      4.600181     -3.176054
  C      -5.266398      4.720160     -5.018638
  H      -5.460148      3.623015     -5.103420
  H      -5.133593      5.086213     -6.067440
  C      -6.509098      5.400910     -4.390831
  H      -6.326486      6.501587     -4.307666
  H      -6.637779      5.036980     -3.340733
  C      -7.822331      5.160040     -5.180073
  H      -8.004363      4.059919     -5.262835
  H      -7.692652      5.525049     -6.228871
  C      -9.057500      5.841739     -4.542128
  H      -9.983774      5.650450     -5.131560
  H      -8.922319      6.947279     -4.477253
  H      -9.235669      5.469539     -3.505647
  C      -0.151276     -1.107953     -0.938715
  H       0.791126     -0.512208     -0.909561
  H      -0.788942     -0.662006     -1.736515
  C       0.175275     -2.580140     -1.301655
  H      -0.766078     -3.184202     -1.277002
  H       0.843858     -3.016565     -0.520379
  C       0.843717     -2.745917     -2.691061
  H       1.763446     -2.113480     -2.727827
  H       0.161643     -2.340157     -3.481021
  C       1.194750     -4.220302     -3.026466
  H       1.957592     -4.593021     -2.298193
  H       0.285637     -4.849013     -2.859908
  C       1.699878     -4.468196     -4.474159
  H       1.799978     -5.569001     -4.636857
  H       0.927282     -4.124071     -5.204374
  C       3.059898     -3.787749     -4.823232
  H       3.815360     -4.098152     -4.057352
  H       2.966066     -2.683456     -4.731336
  C       3.567178     -4.178637     -6.202401
  H       3.824816     -5.253211     -6.311937
  C       3.709332     -3.392358     -7.298843
  H       4.098503     -3.871931     -8.221955
  C       3.440428     -1.903206     -7.430302
  H       2.935715     -1.505040     -6.522674
  H       2.725536     -1.738600     -8.274787
  C       4.734929     -1.081674     -7.732508
  H       4.456035     -0.007010     -7.859262
  H       5.143124     -1.410699     -8.719615
  C       5.855430     -1.207645     -6.664447
  H       6.126459     -2.283741     -6.550213
  H       6.773053     -0.697020     -7.047105
  C       5.490618     -0.602982     -5.281484
  H       5.217198      0.471134     -5.424812
  H       4.576729     -1.097016     -4.873975
  C       6.620729     -0.698904     -4.217468
  H       6.331036     -0.083078     -3.330833
  H       7.547102     -0.228096     -4.627583
  C       6.924139     -2.144359     -3.735838
  H       5.968451     -2.615605     -3.397270
  H       7.281893     -2.765357     -4.593044
  C       7.962982     -2.235759     -2.583502
  H       7.603785     -1.630484     -1.714321
  H       8.001297     -3.291584     -2.221071
  C       9.394745     -1.784616     -2.969889
  H      10.108213     -1.936888     -2.127248
  H       9.778061     -2.365101     -3.842832
  H       9.437078     -0.705242     -3.243290
138
Coordinates from ORCA-job /wrk/rja7/qm_final_3_replicates/qm_final_1.1/qm/2/freq E -2722.578663808083
  N       2.335187     -0.018329     11.699313
  C       2.347598      1.401829     10.995800
  H       2.856552      2.090449     11.704579
  H       1.290988      1.721684     10.890949
  C       0.925874     -0.255070     12.258419
  H       0.236665     -0.309998     11.386143
  H       0.928245     -1.208738     12.828236
  H       0.667069      0.588537     12.930788
  C       3.353866     -0.011125     12.827107
  H       3.354043     -1.001367     13.328830
  H       4.358918      0.190592     12.401881
  H       3.091233      0.779088     13.560883
  C       2.664454     -1.192614     10.759356
  H       3.667454     -1.034745     10.320169
  H       1.880970     -1.242273      9.974206
  H       2.669720     -2.110650     11.385261
  C       3.010322      1.505747      9.597308
  H       2.981488      2.609364      9.385447
  H       4.089850      1.212354      9.642200
  P       0.634637      0.857250      8.455184
  O       0.232706      2.265294      8.860869
  O       0.119503     -0.412737      9.169708
  O       2.389540      0.746620      8.581442
  O       0.528287      0.682504      6.797131
  C       0.471098     -0.626372      6.203118
  H      -0.126573     -1.325081      6.836977
  H       1.502218     -1.054568      6.097511
  C      -0.151011     -0.490612      4.801435
  H       0.404123      0.278259      4.220863
  O      -1.542865     -0.055562      4.962027
  C      -2.011743      0.935222      4.127035
  O      -1.333813      1.515969      3.288374
  C      -3.518380      1.137540      4.334292
  H      -3.747171      2.216605      4.180303
  H      -3.790058      0.864858      5.377456
  C      -0.156360     -1.833664      4.034509
  H      -0.763299     -2.590737      4.579801
  H       0.885071     -2.205251      3.905397
  O      -0.808433     -1.679871      2.736967
  C      -0.014257     -1.302318      1.669036
  O       1.205633     -1.237813      1.716865
  C      -0.882274     -0.949550      0.454787
  H      -1.824100     -1.542976      0.486542
  H      -1.183710      0.114348      0.608282
  C      -4.340984      0.269629      3.322963
  H      -5.409029      0.265822      3.648568
  H      -3.990951     -0.788579      3.394194
  C      -4.241611      0.755913      1.853300
  H      -3.173552      0.928035      1.591990
  H      -4.734789      1.755928      1.764097
  C      -4.865395     -0.220251      0.823435
  H      -5.962035     -0.329296      1.015612
  H      -4.431068     -1.240154      0.975158
  C      -4.631455      0.218532     -0.644983
  H      -3.534890      0.335315     -0.815209
  H      -5.070976      1.234756     -0.804239
  C      -5.214324     -0.759313     -1.694768
  H      -6.320587     -0.837351     -1.558094
  H      -4.808956     -1.785743     -1.514800
  C      -4.919279     -0.346020     -3.173417
  H      -5.284301      0.693431     -3.342703
  H      -5.524210     -1.001157     -3.846637
  C      -3.453281     -0.482807     -3.557746
  H      -3.097647     -1.527616     -3.679494
  C      -2.542778      0.508576     -3.729765
  H      -1.512292      0.212945     -4.016820
  C      -2.763379      2.006782     -3.610069
  H      -2.025400      2.421065     -2.877257
  H      -3.768811      2.228870     -3.190126
  C      -2.577729      2.752597     -4.967903
  H      -3.356734      2.395004     -5.682562
  H      -1.600025      2.450806     -5.415510
  C      -2.614590      4.302937     -4.854892
  H      -2.447906      4.737382     -5.871261
  H      -1.745476      4.635915     -4.236274
  C      -3.911882      4.911357     -4.250957
  H      -3.775695      6.017012     -4.165839
  H      -4.048676      4.549640     -3.202471
  C      -5.205469      4.631329     -5.059366
  H      -5.377193      3.530569     -5.140585
  H      -5.070339      4.994466     -6.108964
  C      -6.466435      5.290786     -4.444630
  H      -6.304375      6.394486     -4.358874
  H      -6.597936      4.924047     -3.395806
  C      -7.768066      5.027296     -5.245257
  H      -7.928916      3.924245     -5.332916
  H      -7.637292      5.398076     -6.291888
  C      -9.020504      5.683509     -4.614098
  H      -9.939039      5.476887     -5.210430
  H      -8.906863      6.791215     -4.544612
  H      -9.198570      5.304167     -3.580191
  C      -0.153651     -1.098418     -0.903165
  H       0.812622     -0.544254     -0.855529
  H      -0.774023     -0.598922     -1.682709
  C       0.108886     -2.567221     -1.322244
  H      -0.856890     -3.132097     -1.316390
  H       0.763066     -3.062892     -0.564234
  C       0.761139     -2.699491     -2.723249
  H       1.709858     -2.110262     -2.737803
  H       0.094964     -2.224120     -3.487407
  C       1.041069     -4.169905     -3.131751
  H       1.782102     -4.613939     -2.421004
  H       0.102892     -4.763394     -3.001125
  C       1.547641     -4.367027     -4.586230
  H       1.600104     -5.461648     -4.803202
  H       0.800575     -3.950802     -5.305418
  C       2.940669     -3.730463     -4.886027
  H       3.665316     -4.092903     -4.113488
  H       2.887100     -2.626587     -4.761675
  C       3.466117     -4.102583     -6.262815
  H       3.686842     -5.182815     -6.395704
  C       3.660501     -3.294728     -7.335119
  H       4.048878     -3.766529     -8.262566
  C       3.450661     -1.793032     -7.433718
  H       2.957257     -1.396036     -6.518918
  H       2.744717     -1.583291     -8.275513
  C       4.775683     -1.012437     -7.716469
  H       4.531752      0.069987     -7.850069
  H       5.188941     -1.355966     -8.696450
  C       5.875180     -1.167838     -6.630358
  H       6.110735     -2.250925     -6.507360
  H       6.814549     -0.689094     -7.001281
  C       5.510026     -0.540614     -5.257814
  H       5.270393      0.539835     -5.414816
  H       4.576096     -1.002694     -4.859674
  C       6.620101     -0.658118     -4.175698
  H       6.337046     -0.019351     -3.303082
  H       7.567591     -0.223308     -4.577420
  C       6.869935     -2.104221     -3.666777
  H       5.896255     -2.537125     -3.329268
  H       7.213741     -2.752618     -4.509536
  C       7.896431     -2.210280     -2.504687
  H       7.554237     -1.574983     -1.650229
  H       7.893481     -3.259402     -2.121214
  C       9.346731     -1.821074     -2.889585
  H      10.048295     -1.982855     -2.038745
  H       9.713596     -2.433648     -3.747475
  H       9.431220     -0.750047     -3.184682
138
Coordinates from ORCA-job /wrk/rja7/qm_final_3_replicates/qm_final_1.1/qm/2/freq E -2722.578791355319
  N       2.291821      0.017654     11.741413
  C       2.322979      1.421660     11.006624
  H       2.827158      2.120924     11.708144
  H       1.271009      1.748566     10.880700
  C       0.869499     -0.204024     12.273375
  H       0.199647     -0.274378     11.386645
  H       0.856500     -1.145903     12.862253
  H       0.599017      0.653904     12.922865
  C       3.282368      0.051019     12.893419
  H       3.269455     -0.926527     13.419070
  H       4.298162      0.242581     12.489312
  H       3.002097      0.858824     13.600662
  C       2.640629     -1.178763     10.838109
  H       3.652982     -1.032020     10.416465
  H       1.872727     -1.248927     10.040038
  H       2.632913     -2.081349     11.486178
  C       3.004356      1.493362      9.614634
  H       2.985338      2.592758      9.381278
  H       4.081869      1.195489      9.679429
  P       0.640368      0.827000      8.454505
  O       0.230574      2.235380      8.850571
  O       0.119729     -0.440257      9.169131
  O       2.393555      0.719837      8.602152
  O       0.547055      0.645017      6.796117
  C       0.481739     -0.664701      6.203320
  H      -0.130265     -1.356016      6.831124
  H       1.508650     -1.105105      6.107107
  C      -0.124874     -0.519756      4.794892
  H       0.448867      0.237696      4.217278
  O      -1.509088     -0.057973      4.945421
  C      -1.953706      0.944640      4.111433
  O      -1.260355      1.516453      3.279273
  C      -3.457079      1.175445      4.313756
  H      -3.665422      2.257071      4.150606
  H      -3.735140      0.916413      5.358880
  C      -0.150949     -1.862861      4.028467
  H      -0.773505     -2.608234      4.572099
  H       0.884073     -2.253080      3.903141
  O      -0.795765     -1.697521      2.728747
  C       0.007845     -1.333982      1.662373
  O       1.229212     -1.308435      1.707582
  C      -0.853278     -0.945643      0.453842
  H      -1.806728     -1.520792      0.479192
  H      -1.133048      0.121505      0.625912
  C      -4.296260      0.314678      3.309889
  H      -5.364540      0.338371      3.634127
  H      -3.969831     -0.749855      3.393483
  C      -4.186013      0.782274      1.835377
  H      -3.114126      0.923409      1.572138
  H      -4.653292      1.793141      1.733720
  C      -4.833339     -0.191944      0.818080
  H      -5.931003     -0.277808      1.016026
  H      -4.418571     -1.218464      0.979717
  C      -4.597114      0.224308     -0.656395
  H      -3.499829      0.321114     -0.832374
  H      -5.020821      1.245540     -0.827254
  C      -5.199579     -0.758536     -1.690645
  H      -6.305981     -0.818781     -1.546464
  H      -4.807842     -1.788744     -1.500433
  C      -4.907882     -0.368267     -3.176117
  H      -5.257306      0.675395     -3.354147
  H      -5.528741     -1.020735     -3.837195
  C      -3.447758     -0.534238     -3.570650
  H      -3.112901     -1.585916     -3.691297
  C      -2.519926      0.439254     -3.751215
  H      -1.496869      0.123798     -4.044387
  C      -2.711551      1.940554     -3.621027
  H      -1.961601      2.336881     -2.890559
  H      -3.709306      2.176099     -3.191015
  C      -2.525973      2.695093     -4.973876
  H      -3.310657      2.349354     -5.688264
  H      -1.552323      2.390333     -5.428437
  C      -2.553472      4.244727     -4.847102
  H      -2.393868      4.687955     -5.860695
  H      -1.678192      4.569170     -4.232459
  C      -3.844724      4.850417     -4.228097
  H      -3.708587      5.955748     -4.137810
  H      -3.971755      4.482213     -3.180962
  C      -5.143249      4.572003     -5.029275
  H      -5.312343      3.471021     -5.114561
  H      -5.014671      4.939534     -6.078211
  C      -6.403552      5.223634     -4.405252
  H      -6.244242      6.327112     -4.311231
  H      -6.532803      4.847977     -3.359219
  C      -7.705729      4.962978     -5.205104
  H      -7.862549      3.860094     -5.301578
  H      -7.578370      5.342933     -6.248887
  C      -8.959237      5.609403     -4.566129
  H      -9.878061      5.404807     -5.162576
  H      -8.849133      6.716832     -4.487240
  H      -9.134091      5.220362     -3.535258
  C      -0.133250     -1.087997     -0.909111
  H       0.844399     -0.554469     -0.859361
  H      -0.747151     -0.566504     -1.679341
  C       0.096807     -2.555505     -1.349108
  H      -0.879975     -3.101769     -1.343758
  H       0.746913     -3.074234     -0.603497
  C       0.736523     -2.679175     -2.756512
  H       1.696371     -2.108288     -2.768538
  H       0.074369     -2.179288     -3.508037
  C       0.983214     -4.147755     -3.189456
  H       1.713717     -4.620460     -2.486346
  H       0.032301     -4.723249     -3.071114
  C       1.490076     -4.328070     -4.645616
  H       1.523576     -5.418913     -4.884135
  H       0.754412     -3.883356     -5.359655
  C       2.896000     -3.711140     -4.925238
  H       3.610894     -4.103599     -4.158198
  H       2.861460     -2.609639     -4.776980
  C       3.418081     -4.060569     -6.308467
  H       3.630460     -5.139732     -6.462594
  C       3.606042     -3.234917     -7.367796
  H       3.983283     -3.692350     -8.307010
  C       3.403296     -1.730515     -7.436966
  H       2.915860     -1.347300     -6.512728
  H       2.695590     -1.501955     -8.272236
  C       4.731422     -0.952805     -7.714096
  H       4.491939      0.131048     -7.844922
  H       5.144982     -1.295042     -8.694372
  C       5.827294     -1.117830     -6.626278
  H       6.048209     -2.203360     -6.500472
  H       6.773108     -0.652086     -6.998033
  C       5.471583     -0.481862     -5.255652
  H       5.250382      0.602507     -5.412932
  H       4.529104     -0.927650     -4.858327
  C       6.577820     -0.619692     -4.172341
  H       6.306490      0.023014     -3.298847
  H       7.533443     -0.202121     -4.573195
  C       6.802010     -2.071039     -3.667080
  H       5.823094     -2.482198     -3.318171
  H       7.119566     -2.725423     -4.515458
  C       7.841165     -2.203397     -2.518849
  H       7.526189     -1.561899     -1.658655
  H       7.818310     -3.253086     -2.137307
  C       9.295142     -1.848760     -2.922755
  H      10.004186     -2.030293     -2.082147
  H       9.634809     -2.467144     -3.787539
  H       9.401053     -0.779316     -3.216473
138
Coordinates from ORCA-job /wrk/rja7/qm_final_3_replicates/qm_final_1.1/qm/2/freq E -2722.578850425014
  N       2.304800     -0.001472     11.721971
  C       2.335597      1.414019     11.009940
  H       2.846207      2.100735     11.719281
  H       1.283831      1.745488     10.894413
  C       0.884809     -0.226622     12.258233
  H       0.209287     -0.281317     11.374575
  H       0.871656     -1.177537     12.832429
  H       0.620600      0.622106     12.922313
  C       3.301006      0.010385     12.869239
  H       3.285292     -0.974186     13.381660
  H       4.315951      0.202429     12.463270
  H       3.028715      0.809426     13.589565
  C       2.644217     -1.185123     10.798413
  H       3.656047     -1.036983     10.375204
  H       1.873095     -1.239033     10.002275
  H       2.633983     -2.098226     11.431651
  C       3.012062      1.505563      9.616389
  H       2.987565      2.607424      9.395847
  H       4.090922      1.211562      9.674859
  P       0.648575      0.854046      8.452033
  O       0.244953      2.263972      8.849608
  O       0.123902     -0.411699      9.166583
  O       2.401220      0.740303      8.598060
  O       0.551110      0.671351      6.794093
  C       0.477514     -0.640385      6.207479
  H      -0.144130     -1.323019      6.835165
  H       1.500539     -1.091637      6.119083
  C      -0.119183     -0.498199      4.794989
  H       0.463285      0.252386      4.216977
  O      -1.501431     -0.028872      4.934644
  C      -1.939684      0.965365      4.088687
  O      -1.241364      1.531445      3.256640
  C      -3.444552      1.195324      4.278966
  H      -3.651984      2.276140      4.109188
  H      -3.730589      0.941828      5.323353
  C      -0.153290     -1.843544      4.034678
  H      -0.783083     -2.582157      4.579393
  H       0.878554     -2.243306      3.912815
  O      -0.793656     -1.672455      2.733894
  C       0.016002     -1.315742      1.668947
  O       1.237497     -1.309014      1.714818
  C      -0.839157     -0.900833      0.465467
  H      -1.800013     -1.463893      0.482539
  H      -1.105655      0.167537      0.654006
  C      -4.275349      0.327159      3.274686
  H      -5.346638      0.357812      3.588595
  H      -3.952960     -0.737277      3.374003
  C      -4.149970      0.777623      1.797014
  H      -3.075437      0.914963      1.541756
  H      -4.613371      1.788668      1.679683
  C      -4.788091     -0.207496      0.784731
  H      -5.886772     -0.295351      0.976084
  H      -4.370796     -1.231394      0.955896
  C      -4.546387      0.199997     -0.691208
  H      -3.448714      0.296450     -0.864053
  H      -4.969964      1.220476     -0.867213
  C      -5.145918     -0.787281     -1.722666
  H      -6.252529     -0.847166     -1.580928
  H      -4.754925     -1.817132     -1.528479
  C      -4.851492     -0.399972     -3.208544
  H      -5.191087      0.647669     -3.383539
  H      -5.481346     -1.044540     -3.868815
  C      -3.395037     -0.581813     -3.609038
  H      -3.072250     -1.636918     -3.732537
  C      -2.459284      0.382647     -3.795586
  H      -1.440870      0.059057     -4.096304
  C      -2.640887      1.884218     -3.657466
  H      -1.886963      2.272730     -2.926894
  H      -3.635648      2.120336     -3.220966
  C      -2.460913      2.647905     -5.004867
  H      -3.248101      2.307248     -5.718827
  H      -1.488876      2.347550     -5.466100
  C      -2.488706      4.196601     -4.866084
  H      -2.337734      4.646897     -5.877842
  H      -1.609156      4.518545     -4.256216
  C      -3.775153      4.796250     -4.230844
  H      -3.640302      5.901604     -4.138769
  H      -3.890001      4.424475     -3.183641
  C      -5.082565      4.516089     -5.016905
  H      -5.248837      3.414515     -5.103038
  H      -4.968403      4.887671     -6.066081
  C      -6.336791      5.162162     -4.375129
  H      -6.178734      6.265481     -4.277559
  H      -6.453262      4.780892     -3.329614
  C      -7.647718      4.902775     -5.161201
  H      -7.803022      3.800007     -5.261738
  H      -7.533465      5.288751     -6.204277
  C      -8.895204      5.542827     -4.504050
  H      -9.820582      5.338807     -5.090436
  H      -8.787072      6.650151     -4.420852
  H      -9.056458      5.148178     -3.473101
  C      -0.121350     -1.034898     -0.898949
  H       0.860593     -0.507975     -0.848245
  H      -0.732754     -0.503703     -1.664619
  C       0.093425     -2.502555     -1.346573
  H      -0.887916     -3.040659     -1.334716
  H       0.745196     -3.028489     -0.607608
  C       0.720495     -2.631819     -2.758794
  H       1.681285     -2.062881     -2.781202
  H       0.053573     -2.133659     -3.507134
  C       0.959837     -4.103596     -3.184635
  H       1.691599     -4.574117     -2.481417
  H       0.007515     -4.675344     -3.059850
  C       1.459116     -4.295302     -4.641987
  H       1.496726     -5.388090     -4.870686
  H       0.716297     -3.860897     -5.355224
  C       2.859060     -3.673971     -4.936308
  H       3.583085     -4.054277     -4.171286
  H       2.819189     -2.571484     -4.797302
  C       3.371871     -4.030749     -6.320839
  H       3.578716     -5.111304     -6.473113
  C       3.559762     -3.207608     -7.381645
  H       3.935644     -3.666438     -8.320690
  C       3.359172     -1.703045     -7.450599
  H       2.865792     -1.319610     -6.529714
  H       2.658788     -1.471752     -8.291297
  C       4.691932     -0.930013     -7.713784
  H       4.457731      0.153892     -7.853619
  H       5.119083     -1.278666     -8.685878
  C       5.767905     -1.093443     -6.606124
  H       5.975924     -2.180125     -6.465673
  H       6.724149     -0.639307     -6.965054
  C       5.392296     -0.441600     -5.248138
  H       5.188040      0.644278     -5.418080
  H       4.435675     -0.872121     -4.867371
  C       6.473465     -0.585553     -4.140665
  H       6.193533      0.069818     -3.279340
  H       7.443526     -0.187337     -4.525716
  C       6.663413     -2.035406     -3.617853
  H       5.670386     -2.427725     -3.287749
  H       6.989080     -2.702345     -4.453475
  C       7.673379     -2.173841     -2.444312
  H       7.347490     -1.520981     -1.596915
  H       7.625927     -3.219909     -2.055071
  C       9.141603     -1.843857     -2.815735
  H       9.827479     -2.030157     -1.957117
  H       9.492784     -2.472720     -3.668269
  H       9.271209     -0.778088     -3.113310
138
Coordinates from ORCA-job /wrk/rja7/qm_final_3_replicates/qm_final_1.1/qm/2/freq E -2722.578987215725
  N       2.325881      0.043222     11.710767
  C       2.331894      1.446465     10.974085
  H       2.839280      2.151742     11.667362
  H       1.274895      1.761726     10.861553
  C       0.912443     -0.192380     12.259817
  H       0.232511     -0.274436     11.381748
  H       0.916445     -1.132723     12.851367
  H       0.639043      0.664257     12.909775
  C       3.329083      0.088663     12.850717
  H       3.331423     -0.887448     13.379283
  H       4.338312      0.289038     12.434650
  H       3.050414      0.895344     13.560097
  C       2.674798     -1.151732     10.805873
  H       3.682165     -0.998537     10.373481
  H       1.898898     -1.229482     10.016381
  H       2.680819     -2.053604     11.455135
  C       2.997510      1.522884      9.574394
  H       2.954982      2.620116      9.334796
  H       4.080911      1.245698      9.631018
  P       0.635742      0.823720      8.438404
  O       0.220178      2.232327      8.827873
  O       0.129372     -0.441737      9.166276
  O       2.390734      0.731370      8.574197
  O       0.530263      0.625848      6.782585
  C       0.451167     -0.691920      6.210197
  H      -0.170108     -1.365905      6.847286
  H       1.472544     -1.147278      6.123266
  C      -0.149026     -0.564680      4.797502
  H       0.434706      0.176602      4.208785
  O      -1.529473     -0.087943      4.935949
  C      -1.968206      0.895769      4.078757
  O      -1.271477      1.446621      3.235019
  C      -3.471846      1.136556      4.271952
  H      -3.669411      2.221342      4.115366
  H      -3.759440      0.873759      5.313532
  C      -0.187695     -1.920552      4.055619
  H      -0.814014     -2.651841      4.614237
  H       0.843888     -2.321404      3.934880
  O      -0.830600     -1.772214      2.753388
  C      -0.021906     -1.429976      1.681826
  O       1.199304     -1.411894      1.729676
  C      -0.879206     -1.045774      0.469830
  H      -1.826697     -1.631168      0.488415
  H      -1.171522      0.017292      0.647111
  C      -4.311145      0.288210      3.258289
  H      -5.381374      0.321346      3.575932
  H      -3.996493     -0.779940      3.342952
  C      -4.186559      0.758846      1.787219
  H      -3.112258      0.894211      1.532648
  H      -4.643411      1.774645      1.685447
  C      -4.829753     -0.207611      0.760628
  H      -5.929013     -0.293488      0.949914
  H      -4.417633     -1.236290      0.914920
  C      -4.581137      0.220607     -0.708435
  H      -3.481854      0.308511     -0.876257
  H      -4.994091      1.247991     -0.868640
  C      -5.187873     -0.743083     -1.757551
  H      -6.296180     -0.788733     -1.624186
  H      -4.813716     -1.781373     -1.575604
  C      -4.872724     -0.340662     -3.235428
  H      -5.187961      0.716676     -3.397390
  H      -5.511232     -0.961370     -3.910147
  C      -3.417501     -0.553487     -3.625024
  H      -3.121884     -1.615356     -3.757767
  C      -2.454692      0.387276     -3.795399
  H      -1.442566      0.038700     -4.089102
  C      -2.598294      1.891863     -3.646752
  H      -1.845804      2.254502     -2.901546
  H      -3.592825      2.149098     -3.222036
  C      -2.379075      2.662273     -4.984035
  H      -3.159766      2.343460     -5.714982
  H      -1.405052      2.346394     -5.430566
  C      -2.378860      4.210198     -4.833313
  H      -2.206663      4.665153     -5.839595
  H      -1.501206      4.511428     -4.210264
  C      -3.661718      4.828803     -4.209201
  H      -3.511538      5.932078     -4.115792
  H      -3.790999      4.459393     -3.162864
  C      -4.966278      4.566460     -5.005656
  H      -5.143728      3.467000     -5.096521
  H      -4.840953      4.940707     -6.052598
  C      -6.217628      5.223492     -4.369540
  H      -6.049623      6.325028     -4.268653
  H      -6.343075      4.841049     -3.325497
  C      -7.526794      4.977996     -5.162723
  H      -7.689285      3.876980     -5.270643
  H      -7.405641      5.369625     -6.202923
  C      -8.772600      5.622553     -4.506824
  H      -9.696915      5.428686     -5.098313
  H      -8.657255      6.728563     -4.416071
  H      -8.940578      5.222549     -3.479039
  C      -0.153918     -1.176616     -0.890535
  H       0.810149     -0.617244     -0.846200
  H      -0.780293     -0.675618     -1.664832
  C       0.110173     -2.643018     -1.316699
  H      -0.851709     -3.214765     -1.294191
  H       0.780867     -3.134007     -0.570951
  C       0.738127     -2.772290     -2.728459
  H       1.674444     -2.164663     -2.764958
  H       0.049308     -2.315681     -3.483183
  C       1.038878     -4.240015     -3.129240
  H       1.792268     -4.665795     -2.420453
  H       0.112624     -4.850209     -2.990857
  C       1.537828     -4.434809     -4.586532
  H       1.628715     -5.528467     -4.795192
  H       0.768221     -4.052177     -5.301151
  C       2.900710     -3.747803     -4.905799
  H       3.654567     -4.083671     -4.148695
  H       2.807249     -2.647813     -4.774176
  C       3.408791     -4.087425     -6.296329
  H       3.662510     -5.158000     -6.448089
  C       3.543023     -3.259617     -7.361995
  H       3.925774     -3.702721     -8.305730
  C       3.269291     -1.766483     -7.431095
  H       2.770138     -1.405162     -6.504648
  H       2.547552     -1.571360     -8.262880
  C       4.559096     -0.929857     -7.713225
  H       4.270599      0.140743     -7.853782
  H       4.991078     -1.261365     -8.689146
  C       5.654951     -1.035363     -6.617904
  H       5.910206     -2.110813     -6.468932
  H       6.586265     -0.544801     -6.993582
  C       5.268981     -0.385009     -5.261880
  H       5.022384      0.690761     -5.439909
  H       4.333002     -0.847067     -4.866729
  C       6.366811     -0.477306     -4.165055
  H       6.074475      0.180916     -3.310068
  H       7.318587     -0.052798     -4.567030
  C       6.609412     -1.912348     -3.623768
  H       5.633586     -2.330529     -3.274938
  H       6.944972     -2.581388     -4.453812
  C       7.637413     -2.001571     -2.461203
  H       7.301883     -1.345860     -1.619832
  H       7.626979     -3.042447     -2.055710
  C       9.090231     -1.633247     -2.856205
  H       9.791977     -1.785949     -2.003783
  H       9.449841     -2.264181     -3.703672
  H       9.184209     -0.568782     -3.171261
138
Coordinates from ORCA-job /wrk/rja7/qm_final_3_replicates/qm_final_1.1/qm/2/freq E -2722.578956376193
  N       2.352463      0.088267     11.697262
  C       2.331175      1.483676     10.945896
  H       2.829689      2.205038     11.629012
  H       1.268151      1.779011     10.835474
  C       0.942928     -0.171881     12.245677
  H       0.267776     -0.280086     11.366938
  H       0.965830     -1.104602     12.848644
  H       0.647855      0.686210     12.884328
  C       3.352323      0.165551     12.838361
  H       3.374873     -0.805526     13.375564
  H       4.357668      0.383469     12.421643
  H       3.055011      0.972500     13.539855
  C       2.726834     -1.108134     10.803751
  H       3.730800     -0.939014     10.369844
  H       1.952643     -1.208521     10.014717
  H       2.750378     -2.003568     11.461438
  C       2.987045      1.556525      9.541550
  H       2.926723      2.650620      9.292132
  H       4.074567      1.294858      9.593428
  P       0.629125      0.806600      8.428870
  O       0.191655      2.208518      8.820118
  O       0.150482     -0.466790      9.162009
  O       2.385998      0.746500      8.552826
  O       0.515207      0.606227      6.773583
  C       0.444756     -0.711576      6.198612
  H      -0.167687     -1.392717      6.836491
  H       1.469642     -1.157574      6.106133
  C      -0.162339     -0.583117      4.788422
  H       0.410072      0.168411      4.201674
  O      -1.547423     -0.121967      4.931795
  C      -1.990755      0.866690      4.082344
  O      -1.293588      1.430679      3.247733
  C      -3.495963      1.098080      4.272056
  H      -3.702254      2.180442      4.110029
  H      -3.784633      0.835250      5.313121
  C      -0.186579     -1.934582      4.037750
  H      -0.799850     -2.677329      4.595648
  H       0.849656     -2.320487      3.909047
  O      -0.842619     -1.789723      2.741348
  C      -0.051170     -1.432147      1.662568
  O       1.170030     -1.389515      1.698101
  C      -0.927034     -1.066404      0.458237
  H      -1.867522     -1.662472      0.491816
  H      -1.229305     -0.004503      0.629015
  C      -4.323300      0.239806      3.255987
  H      -5.396253      0.264733      3.564922
  H      -4.000194     -0.825376      3.344549
  C      -4.188957      0.709657      1.784573
  H      -3.112744      0.859703      1.543375
  H      -4.659724      1.718245      1.675976
  C      -4.805868     -0.265669      0.749625
  H      -5.906791     -0.364309      0.921982
  H      -4.383395     -1.288793      0.913070
  C      -4.539569      0.163524     -0.716486
  H      -3.438436      0.263817     -0.866876
  H      -4.962274      1.185539     -0.885568
  C      -5.117842     -0.808160     -1.774555
  H      -6.227647     -0.866607     -1.658684
  H      -4.734580     -1.841543     -1.584380
  C      -4.785794     -0.402947     -3.248132
  H      -5.110767      0.650252     -3.416453
  H      -5.405893     -1.031848     -3.932358
  C      -3.322109     -0.596339     -3.615090
  H      -3.012548     -1.653693     -3.752138
  C      -2.366773      0.356594     -3.759186
  H      -1.345886      0.020546     -4.036199
  C      -2.528974      1.859685     -3.608662
  H      -1.784934      2.227260     -2.857324
  H      -3.528959      2.106984     -3.190916
  C      -2.304102      2.634914     -4.942861
  H      -3.080945      2.318513     -5.678989
  H      -1.327963      2.319565     -5.384956
  C      -2.302025      4.182924     -4.788528
  H      -2.120043      4.638945     -5.792679
  H      -1.427809      4.479691     -4.158511
  C      -3.587717      4.808524     -4.176605
  H      -3.431623      5.910766     -4.080776
  H      -3.730068      4.438698     -3.132136
  C      -4.885655      4.558131     -4.988071
  H      -5.076778      3.461030     -5.075305
  H      -4.742401      4.924464     -6.035516
  C      -6.136858      5.234615     -4.372413
  H      -5.958623      6.335408     -4.281357
  H      -6.278094      4.864606     -3.325929
  C      -7.439603      4.993295     -5.177611
  H      -7.614091      3.892809     -5.271276
  H      -7.301383      5.367842     -6.221968
  C      -8.685391      5.662340     -4.546597
  H      -9.605035      5.469156     -5.145595
  H      -8.558480      6.768308     -4.472547
  H      -8.869900      5.281331     -3.514449
  C      -0.215045     -1.201466     -0.909152
  H       0.742171     -0.630839     -0.878888
  H      -0.856006     -0.714016     -1.680026
  C       0.067470     -2.666473     -1.330007
  H      -0.886298     -3.251309     -1.305793
  H       0.744217     -3.145763     -0.582053
  C       0.698781     -2.788707     -2.741678
  H       1.627242     -2.169497     -2.777332
  H       0.004002     -2.340452     -3.495988
  C       1.016569     -4.251848     -3.147656
  H       1.775664     -4.671682     -2.441429
  H       0.097516     -4.872762     -3.009055
  C       1.512965     -4.434977     -4.608195
  H       1.612983     -5.526768     -4.822632
  H       0.737918     -4.055374     -5.318380
  C       2.869943     -3.735868     -4.928795
  H       3.631097     -4.080683     -4.183581
  H       2.771771     -2.638867     -4.778747
  C       3.366824     -4.048845     -6.330386
  H       3.630512     -5.113824     -6.502580
  C       3.484218     -3.200033     -7.382196
  H       3.863120     -3.621121     -8.337427
  C       3.198186     -1.707758     -7.419583
  H       2.691132     -1.372437     -6.487914
  H       2.479234     -1.500786     -8.250831
  C       4.482171     -0.851372     -7.677038
  H       4.183185      0.218248     -7.799981
  H       4.922878     -1.160718     -8.656343
  C       5.575458     -0.965598     -6.579953
  H       5.835932     -2.041259     -6.444961
  H       6.505602     -0.466209     -6.947164
  C       5.185854     -0.334852     -5.215427
  H       4.942288      0.743841     -5.377362
  H       4.247665     -0.800869     -4.830188
  C       6.280694     -0.448375     -4.116891
  H       5.988178      0.195294     -3.251205
  H       7.234853     -0.019408     -4.508819
  C       6.518084     -1.893833     -3.600756
  H       5.540508     -2.315182     -3.260724
  H       6.852785     -2.548254     -4.442411
  C       7.543621     -2.007490     -2.438602
  H       7.208192     -1.366398     -1.585968
  H       7.529582     -3.055666     -2.052658
  C       8.997814     -1.634681     -2.824667
  H       9.698073     -1.802341     -1.973925
  H       9.357599     -2.252178     -3.681994
  H       9.092964     -0.565371     -3.122888
138
Coordinates from ORCA-job /wrk/rja7/qm_final_3_replicates/qm_final_1.1/qm/2/freq E -2722.579046057015
  N       2.327680      0.176322     11.708818
  C       2.289190      1.561842     10.940814
  H       2.781628      2.297509     11.613116
  H       1.222374      1.843067     10.829778
  C       0.927977     -0.081589     12.282233
  H       0.238877     -0.203121     11.416327
  H       0.962792     -1.005880     12.897648
  H       0.640532      0.784581     12.913265
  C       3.344570      0.268595     12.833949
  H       3.374536     -0.695398     13.383399
  H       4.343939      0.480428     12.400174
  H       3.056906      1.084584     13.529165
  C       2.694306     -1.029138     10.823049
  H       3.692752     -0.862221     10.375789
  H       1.912391     -1.137677     10.042739
  H       2.725193     -1.917980     11.489130
  C       2.939628      1.624899      9.533453
  H       2.864258      2.714947      9.269738
  H       4.030350      1.377800      9.584749
  P       0.588251      0.838993      8.429836
  O       0.137242      2.244141      8.794432
  O       0.118948     -0.426317      9.183662
  O       2.345624      0.795527      8.556397
  O       0.480115      0.607793      6.778038
  C       0.428637     -0.721090      6.227914
  H      -0.189436     -1.393919      6.869256
  H       1.457636     -1.162575      6.161780
  C      -0.155593     -0.623842      4.806092
  H       0.421980      0.118799      4.213044
  O      -1.545180     -0.167310      4.920008
  C      -1.981138      0.811097      4.055289
  O      -1.276915      1.365066      3.219993
  C      -3.487043      1.047879      4.234170
  H      -3.686612      2.131377      4.070273
  H      -3.784303      0.787995      5.273535
  C      -0.160843     -1.990420      4.081971
  H      -0.776881     -2.725655      4.646914
  H       0.878906     -2.373391      3.974048
  O      -0.799439     -1.870106      2.774991
  C       0.005979     -1.526807      1.700852
  O       1.227109     -1.498813      1.746582
  C      -0.857653     -1.146735      0.493523
  H      -1.798806     -1.742649      0.512703
  H      -1.159888     -0.087840      0.679676
  C      -4.313205      0.194405      3.212867
  H      -5.387501      0.224837      3.516418
  H      -3.995596     -0.872449      3.301353
  C      -4.168837      0.666187      1.742892
  H      -3.090975      0.814972      1.510075
  H      -4.637173      1.675634      1.631764
  C      -4.777194     -0.307059      0.700586
  H      -5.878462     -0.410085      0.867328
  H      -4.351791     -1.329022      0.861941
  C      -4.505833      0.130105     -0.762522
  H      -3.404648      0.233169     -0.909884
  H      -4.930314      1.152159     -0.926702
  C      -5.080967     -0.834224     -1.829358
  H      -6.189553     -0.902257     -1.707699
  H      -4.689682     -1.867087     -1.654032
  C      -4.763445     -0.405679     -3.299705
  H      -5.091287      0.649819     -3.446315
  H      -5.391354     -1.022828     -3.987551
  C      -3.304687     -0.593462     -3.689896
  H      -2.999419     -1.648697     -3.851843
  C      -2.348973      0.359779     -3.829043
  H      -1.334447      0.026447     -4.131031
  C      -2.504424      1.859229     -3.642276
  H      -1.749690      2.206497     -2.891527
  H      -3.498383      2.098260     -3.205291
  C      -2.295234      2.666289     -4.958912
  H      -3.078955      2.366419     -5.694450
  H      -1.323375      2.363781     -5.419299
  C      -2.293891      4.210074     -4.767282
  H      -2.124425      4.689284     -5.762859
  H      -1.413492      4.494508     -4.140397
  C      -3.574075      4.818100     -4.125813
  H      -3.423688      5.919673     -4.015626
  H      -3.698155      4.430945     -3.085088
  C      -4.882385      4.568362     -4.920409
  H      -5.070786      3.471059     -5.010655
  H      -4.754635      4.940786     -5.967766
  C      -6.127380      5.238209     -4.284920
  H      -5.949931      6.338516     -4.187012
  H      -6.256250      4.859428     -3.239974
  C      -7.439164      5.000601     -5.077277
  H      -7.614472      3.900504     -5.174926
  H      -7.312017      5.380231     -6.121217
  C      -8.678492      5.666979     -4.430572
  H      -9.604171      5.476138     -5.021055
  H      -8.551062      6.772678     -4.353317
  H      -8.852936      5.281727     -3.398208
  C      -0.141369     -1.257593     -0.872819
  H       0.817191     -0.689496     -0.830100
  H      -0.780999     -0.752085     -1.632490
  C       0.134687     -2.713348     -1.327615
  H      -0.819032     -3.298047     -1.300969
  H       0.824130     -3.209577     -0.602420
  C       0.740599     -2.802730     -2.753027
  H       1.668639     -2.183028     -2.790461
  H       0.032123     -2.336076     -3.483547
  C       1.047609     -4.255850     -3.200144
  H       1.821101     -4.693192     -2.520563
  H       0.130727     -4.879008     -3.057726
  C       1.514311     -4.404189     -4.674468
  H       1.608413     -5.490545     -4.917048
  H       0.727299     -4.005509     -5.360304
  C       2.867712     -3.700513     -5.000938
  H       3.637692     -4.060676     -4.273096
  H       2.773253     -2.606380     -4.830123
  C       3.349555     -3.988069     -6.413273
  H       3.603933     -5.050718     -6.611483
  C       3.463978     -3.116367     -7.446172
  H       3.832597     -3.517488     -8.413901
  C       3.190145     -1.620757     -7.444863
  H       2.688042     -1.304767     -6.504115
  H       2.472130     -1.386055     -8.269345
  C       4.483628     -0.769376     -7.676273
  H       4.194849      0.305099     -7.780594
  H       4.927813     -1.063357     -8.658532
  C       5.566182     -0.918090     -6.571841
  H       5.810780     -1.999751     -6.454983
  H       6.507600     -0.426633     -6.920418
  C       5.174629     -0.308844     -5.197981
  H       4.962277      0.779579     -5.336253
  H       4.218664     -0.757787     -4.838015
  C       6.249279     -0.483253     -4.087619
  H       5.965715      0.146620     -3.209014
  H       7.222256     -0.075509     -4.455421
  C       6.433434     -1.949225     -3.606443
  H       5.439459     -2.344987     -3.283658
  H       6.751082     -2.592617     -4.462796
  C       7.445863     -2.128426     -2.441393
  H       7.127453     -1.497458     -1.574745
  H       7.391435     -3.184709     -2.082176
  C       8.915260     -1.798198     -2.808764
  H       9.602834     -2.010795     -1.957801
  H       9.259345     -2.407068     -3.678724
  H       9.049931     -0.725857     -3.080372
138
Coordinates from ORCA-job /wrk/rja7/qm_final_3_replicates/qm_final_1.1/qm/2/freq E -2722.579038655319
  N       2.331886      0.124291     11.711689
  C       2.316616      1.514997     10.951209
  H       2.830207      2.236240     11.623190
  H       1.255752      1.820245     10.849397
  C       0.927449     -0.113572     12.282381
  H       0.236326     -0.218912     11.415419
  H       0.946667     -1.042580     12.891546
  H       0.654329      0.752890     12.919023
  C       3.348043      0.194582     12.838762
  H       3.360959     -0.772912     13.382494
  H       4.351448      0.393184     12.407967
  H       3.073166      1.010937     13.538572
  C       2.679384     -1.083508     10.822532
  H       3.682102     -0.932205     10.378795
  H       1.896491     -1.177625     10.042307
  H       2.695260     -1.974858     11.485862
  C       2.958783      1.572486      9.539516
  H       2.897124      2.664237      9.279441
  H       4.046558      1.310900      9.584748
  P       0.590430      0.824319      8.445317
  O       0.162500      2.234353      8.816994
  O       0.106618     -0.436288      9.196781
  O       2.347846      0.754159      8.563333
  O       0.471067      0.598380      6.793818
  C       0.398729     -0.730480      6.246865
  H      -0.229597     -1.391908      6.890307
  H       1.420683     -1.188127      6.181321
  C      -0.182546     -0.633317      4.824521
  H       0.409463      0.095067      4.228290
  O      -1.565773     -0.152952      4.931995
  C      -1.991424      0.820534      4.056012
  O      -1.280601      1.364940      3.219513
  C      -3.499447      1.061192      4.218095
  H      -3.692296      2.146545      4.059898
  H      -3.808480      0.797519      5.253316
  C      -0.207597     -2.006524      4.112783
  H      -0.833684     -2.729398      4.682754
  H       0.827167     -2.403944      4.008857
  O      -0.838869     -1.889803      2.802491
  C      -0.022162     -1.563745      1.731151
  O       1.198636     -1.549698      1.785385
  C      -0.874853     -1.186842      0.514554
  H      -1.819536     -1.776826      0.531647
  H      -1.172787     -0.126592      0.692793
  C      -4.322590      0.218520      3.185331
  H      -5.397252      0.251023      3.487516
  H      -4.010586     -0.850617      3.269643
  C      -4.178859      0.699698      1.718688
  H      -3.102366      0.837387      1.478838
  H      -4.633090      1.717018      1.619309
  C      -4.809740     -0.256081      0.674422
  H      -5.912068     -0.339480      0.846112
  H      -4.403211     -1.287131      0.825569
  C      -4.538158      0.184127     -0.787726
  H      -3.436162      0.260938     -0.942641
  H      -4.937352      1.217847     -0.940974
  C      -5.146343     -0.759958     -1.854242
  H      -6.256522     -0.791341     -1.732607
  H      -4.788673     -1.805197     -1.680194
  C      -4.810497     -0.345665     -3.324839
  H      -5.098254      0.721454     -3.473075
  H      -5.460491     -0.939882     -4.012338
  C      -3.358857     -0.591488     -3.709303
  H      -3.095396     -1.658678     -3.866125
  C      -2.364809      0.321776     -3.847913
  H      -1.362720     -0.052320     -4.144225
  C      -2.458940      1.824516     -3.650323
  H      -1.704812      2.135892     -2.883606
  H      -3.449681      2.099627     -3.227802
  C      -2.196737      2.631704     -4.956973
  H      -2.971020      2.357178     -5.712375
  H      -1.222317      2.307404     -5.396633
  C      -2.163737      4.173289     -4.755450
  H      -1.971795      4.656867     -5.744730
  H      -1.286709      4.435055     -4.114084
  C      -3.439876      4.798009     -4.123927
  H      -3.274498      5.896960     -4.008695
  H      -3.578005      4.410260     -3.085276
  C      -4.745012      4.568737     -4.929670
  H      -4.938635      3.473689     -5.038686
  H      -4.610512      4.958290     -5.969848
  C      -5.988749      5.233740     -4.286843
  H      -5.805507      6.331000     -4.168116
  H      -6.122468      4.836616     -3.249317
  C      -7.299078      5.019060     -5.087398
  H      -7.475344      3.922347     -5.215293
  H      -7.170267      5.427344     -6.120288
  C      -8.538206      5.668400     -4.423670
  H      -9.463374      5.496305     -5.020557
  H      -8.409074      6.771180     -4.314103
  H      -8.713951      5.253349     -3.403148
  C      -0.150161     -1.310251     -0.845988
  H       0.808794     -0.741843     -0.803824
  H      -0.784313     -0.812841     -1.615717
  C       0.125486     -2.771671     -1.280377
  H      -0.827649     -3.356969     -1.242372
  H       0.817279     -3.255927     -0.549751
  C       0.726287     -2.884381     -2.705093
  H       1.649293     -2.257859     -2.758049
  H       0.013033     -2.438831     -3.444013
  C       1.051337     -4.343720     -3.117003
  H       1.827315     -4.754220     -2.423897
  H       0.141956     -4.975390     -2.964311
  C       1.527465     -4.520807     -4.584188
  H       1.644454     -5.610874     -4.798191
  H       0.734493     -4.156481     -5.282406
  C       2.863645     -3.792858     -4.924616
  H       3.638978     -4.105678     -4.180018
  H       2.738780     -2.696565     -4.790791
  C       3.364072     -4.115060     -6.321884
  H       3.654514     -5.175560     -6.477732
  C       3.449112     -3.283443     -7.389837
  H       3.833852     -3.711986     -8.339338
  C       3.116437     -1.801626     -7.455835
  H       2.611463     -1.458552     -6.525868
  H       2.380625     -1.636584     -8.281503
  C       4.368771     -0.912472     -7.748083
  H       4.032068      0.141804     -7.904971
  H       4.816583     -1.238607     -8.718457
  C       5.463853     -0.950520     -6.647225
  H       5.759005     -2.011742     -6.472623
  H       6.377813     -0.434035     -7.030120
  C       5.047154     -0.283869     -5.308085
  H       4.771736      0.780271     -5.511958
  H       4.120966     -0.763377     -4.911188
  C       6.138669     -0.318823     -4.201241
  H       5.827966      0.361278     -3.370152
  H       7.084328      0.111300     -4.611493
  C       6.406036     -1.729665     -3.609339
  H       5.438096     -2.150670     -3.242965
  H       6.751088     -2.422579     -4.415547
  C       7.437309     -1.760024     -2.446747
  H       7.091831     -1.080769     -1.628338
  H       7.444817     -2.785830     -2.004464
  C       8.883229     -1.381613     -2.857042
  H       9.588487     -1.493341     -2.001169
  H       9.252479     -2.034887     -3.683217
  H       8.959427     -0.326996     -3.208034
138
Coordinates from ORCA-job /wrk/rja7/qm_final_3_replicates/qm_final_1.1/qm/2/freq E -2722.579217161196
  N       2.325026      0.154840     11.722377
  C       2.293211      1.544825     10.961550
  H       2.794005      2.273604     11.635158
  H       1.228114      1.833857     10.856059
  C       0.924083     -0.098199     12.294446
  H       0.234158     -0.214005     11.428250
  H       0.954131     -1.025064     12.906244
  H       0.640414      0.766866     12.928557
  C       3.342043      0.235790     12.848084
  H       3.367348     -0.732248     13.390379
  H       4.342353      0.446473     12.415863
  H       3.058321      1.048073     13.549216
  C       2.684037     -1.048788     10.831554
  H       3.683501     -0.886209     10.384931
  H       1.900872     -1.149399     10.051825
  H       2.709803     -1.940474     11.494063
  C       2.938347      1.610145      9.551796
  H       2.866736      2.701442      9.292522
  H       4.028258      1.357809      9.598042
  P       0.578153      0.840993      8.455616
  O       0.137498      2.247514      8.826862
  O       0.104792     -0.424135      9.206656
  O       2.335998      0.786834      8.574856
  O       0.463116      0.614908      6.803590
  C       0.408556     -0.714223      6.254559
  H      -0.213264     -1.384219      6.895343
  H       1.436170     -1.159341      6.191602
  C      -0.170674     -0.620561      4.830982
  H       0.411360      0.118336      4.237746
  O      -1.560288     -0.160348      4.936863
  C      -1.993051      0.813921      4.065431
  O      -1.285631      1.365525      3.230982
  C      -3.501850      1.044819      4.229831
  H      -3.702979      2.128368      4.068681
  H      -3.808308      0.780224      5.265397
  C      -0.174983     -1.990935      4.113587
  H      -0.790697     -2.724515      4.681097
  H       0.865224     -2.373393      4.008384
  O      -0.810333     -1.877338      2.804821
  C      -0.001234     -1.540932      1.731154
  O       1.219744     -1.515812      1.779829
  C      -0.861983     -1.165719      0.520186
  H      -1.802105     -1.763023      0.538317
  H      -1.167122     -0.107645      0.703166
  C      -4.317629      0.193537      3.198042
  H      -5.393619      0.219016      3.496072
  H      -3.997363     -0.872755      3.284869
  C      -4.169519      0.671364      1.730373
  H      -3.091935      0.821358      1.499213
  H      -4.636596      1.681939      1.623099
  C      -4.779400     -0.296936      0.684523
  H      -5.882569     -0.390465      0.844536
  H      -4.363642     -1.322535      0.848053
  C      -4.496333      0.136122     -0.777668
  H      -3.393328      0.222426     -0.921476
  H      -4.904470      1.164540     -0.943233
  C      -5.083763     -0.820701     -1.844619
  H      -6.194303     -0.865981     -1.730230
  H      -4.713964     -1.860257     -1.662364
  C      -4.746073     -0.407306     -3.314994
  H      -5.045532      0.655666     -3.468773
  H      -5.385354     -1.011478     -4.003786
  C      -3.290064     -0.635367     -3.693756
  H      -3.013633     -1.698651     -3.854722
  C      -2.306648      0.290464     -3.824752
  H      -1.299074     -0.071223     -4.117417
  C      -2.421193      1.793022     -3.633894
  H      -1.666188      2.116186     -2.872769
  H      -3.412961      2.058010     -3.207298
  C      -2.174433      2.597860     -4.945234
  H      -2.952197      2.315540     -5.694037
  H      -1.201360      2.277653     -5.390791
  C      -2.148451      4.140829     -4.750146
  H      -1.957297      4.620002     -5.741772
  H      -1.272553      4.408659     -4.109783
  C      -3.427368      4.766821     -4.124532
  H      -3.263600      5.866431     -4.013547
  H      -3.568132      4.382961     -3.084770
  C      -4.730207      4.533928     -4.933104
  H      -4.926512      3.438808     -5.033358
  H      -4.591037      4.913614     -5.976336
  C      -5.975176      5.207181     -4.301154
  H      -5.792020      6.305778     -4.195136
  H      -6.111798      4.822537     -3.259331
  C      -7.283609      4.982448     -5.102335
  H      -7.461088      3.884095     -5.213965
  H      -7.150936      5.374425     -6.141026
  C      -8.524011      5.643723     -4.452787
  H      -9.447515      5.462868     -5.049717
  H      -8.394038      6.748004     -4.360836
  H      -8.703624      5.245718     -3.426180
  C      -0.142201     -1.278650     -0.843969
  H       0.815986     -0.709770     -0.800688
  H      -0.780490     -0.775447     -1.606557
  C       0.134593     -2.735535     -1.293831
  H      -0.817098     -3.322966     -1.256730
  H       0.831133     -3.225805     -0.571515
  C       0.728225     -2.830902     -2.723666
  H       1.652172     -2.205798     -2.773724
  H       0.010946     -2.373597     -3.451365
  C       1.042873     -4.285291     -3.161424
  H       1.826750     -4.709596     -2.485626
  H       0.132842     -4.914910     -3.004391
  C       1.495964     -4.442717     -4.638778
  H       1.601684     -5.530173     -4.871379
  H       0.695907     -4.061645     -5.319630
  C       2.834620     -3.722303     -4.987061
  H       3.617648     -4.062076     -4.262896
  H       2.725429     -2.627966     -4.826986
  C       3.307333     -4.018297     -6.400340
  H       3.581808     -5.078098     -6.586591
  C       3.390578     -3.159785     -7.447350
  H       3.757275     -3.567541     -8.412994
  C       3.080983     -1.671431     -7.467758
  H       2.580592     -1.350139     -6.527780
  H       2.349318     -1.468730     -8.288645
  C       4.349725     -0.793074     -7.728779
  H       4.031683      0.270986     -7.853689
  H       4.793953     -1.096780     -8.708019
  C       5.442247     -0.887137     -6.628546
  H       5.714064     -1.959180     -6.485907
  H       6.368735     -0.380751     -6.994842
  C       5.040510     -0.252444     -5.269191
  H       4.801049      0.826399     -5.436502
  H       4.097020     -0.714707     -4.893186
  C       6.123534     -0.366297     -4.159110
  H       5.831066      0.290037     -3.302930
  H       7.086102      0.047134     -4.546915
  C       6.338706     -1.808488     -3.623192
  H       5.353562     -2.211510     -3.283153
  H       6.668751     -2.478407     -4.454402
  C       7.355582     -1.921055     -2.453402
  H       7.022948     -1.265532     -1.610655
  H       7.325107     -2.964105     -2.054725
  C       8.817155     -1.571867     -2.833638
  H       9.509136     -1.739327     -1.976119
  H       9.175000     -2.203154     -3.681743
  H       8.928749     -0.507095     -3.142284
138
Coordinates from ORCA-job /wrk/rja7/qm_final_3_replicates/qm_final_1.1/qm/2/freq E -2722.579186531783
  N       2.324675      0.208878     11.713665
  C       2.256425      1.591886     10.942960
  H       2.741579      2.336507     11.610540
  H       1.184420      1.854856     10.839420
  C       0.931251     -0.077073     12.289080
  H       0.243679     -0.217629     11.424510
  H       0.986171     -0.999172     12.906261
  H       0.624184      0.783823     12.918098
  C       3.339537      0.324353     12.838171
  H       3.389836     -0.638648     13.387412
  H       4.333808      0.557281     12.403532
  H       3.035526      1.134433     13.533158
  C       2.712883     -0.991203     10.830226
  H       3.708217     -0.806625     10.382554
  H       1.931262     -1.115687     10.052629
  H       2.761159     -1.877719     11.498264
  C       2.893678      1.663023      9.529628
  H       2.792593      2.749832      9.262120
  H       3.990071      1.439649      9.572698
  P       0.550082      0.825736      8.447687
  O       0.076043      2.220869      8.821243
  O       0.112344     -0.450806      9.200736
  O       2.309310      0.816692      8.560890
  O       0.430160      0.596373      6.796102
  C       0.405482     -0.733811      6.245544
  H      -0.202256     -1.418686      6.883849
  H       1.442465     -1.156271      6.182392
  C      -0.173401     -0.648480      4.820886
  H       0.392656      0.104636      4.230071
  O      -1.572642     -0.219258      4.923221
  C      -2.019855      0.747416      4.051522
  O      -1.316912      1.320342      3.227544
  C      -3.533497      0.947581      4.205911
  H      -3.754335      2.029620      4.060954
  H      -3.845266      0.658877      5.233341
  C      -0.148389     -2.015682      4.097875
  H      -0.747168     -2.765103      4.662794
  H       0.899662     -2.375114      3.989932
  O      -0.789907     -1.911556      2.791257
  C       0.006463     -1.556207      1.714517
  O       1.226835     -1.504390      1.757712
  C      -0.867664     -1.197944      0.507433
  H      -1.799232     -1.808271      0.534886
  H      -1.186877     -0.142440      0.685159
  C      -4.319841      0.098049      3.150384
  H      -5.399797      0.096454      3.434891
  H      -3.979011     -0.962846      3.223055
  C      -4.162263      0.604286      1.693264
  H      -3.083967      0.779019      1.479749
  H      -4.648101      1.607029      1.597736
  C      -4.739646     -0.356456      0.622438
  H      -5.842677     -0.474827      0.766678
  H      -4.305425     -1.376447      0.771827
  C      -4.449221      0.111769     -0.827228
  H      -3.346088      0.217818     -0.958269
  H      -4.872220      1.136886     -0.974650
  C      -5.011106     -0.830636     -1.920511
  H      -6.122186     -0.893513     -1.819718
  H      -4.629386     -1.868657     -1.755352
  C      -4.664104     -0.379313     -3.377272
  H      -4.975748      0.682964     -3.509522
  H      -5.288141     -0.975437     -4.086652
  C      -3.201246     -0.577097     -3.746031
  H      -2.908010     -1.631592     -3.932811
  C      -2.231310      0.366691     -3.843772
  H      -1.215557      0.028286     -4.135915
  C      -2.372555      1.862716     -3.619806
  H      -1.625531      2.180161     -2.848393
  H      -3.370043      2.101507     -3.191604
  C      -2.133489      2.700398     -4.911640
  H      -2.903876      2.423152     -5.670021
  H      -1.154189      2.404235     -5.360050
  C      -2.129839      4.239099     -4.683102
  H      -1.940768      4.741234     -5.663721
  H      -1.260201      4.505348     -4.033512
  C      -3.419147      4.836656     -4.050477
  H      -3.270015      5.936423     -3.921469
  H      -3.556688      4.434515     -3.017427
  C      -4.717458      4.600292     -4.865430
  H      -4.905656      3.504770     -4.975762
  H      -4.577380      4.989564     -5.905053
  C      -5.969927      5.259916     -4.234118
  H      -5.796280      6.359517     -4.123107
  H      -6.106877      4.869819     -3.194309
  C      -7.273527      5.027154     -5.040577
  H      -7.443598      3.927861     -5.153855
  H      -7.139294      5.420871     -6.078468
  C      -8.520812      5.680410     -4.396175
  H      -9.440869      5.492821     -4.996348
  H      -8.398737      6.785575     -4.304653
  H      -8.701777      5.281936     -3.369970
  C      -0.153256     -1.314901     -0.859583
  H       0.796402     -0.730657     -0.828583
  H      -0.802803     -0.831955     -1.626204
  C       0.146020     -2.774168     -1.288876
  H      -0.795427     -3.376876     -1.237939
  H       0.853201     -3.239928     -0.561068
  C       0.737825     -2.884054     -2.718351
  H       1.650430     -2.243878     -2.782136
  H       0.010962     -2.452785     -3.452037
  C       1.074685     -4.340872     -3.132192
  H       1.867749     -4.740835     -2.452404
  H       0.175300     -4.981574     -2.959290
  C       1.523624     -4.515830     -4.609001
  H       1.647271     -5.604880     -4.824740
  H       0.714289     -4.159794     -5.292503
  C       2.848585     -3.778542     -4.972617
  H       3.640395     -4.099257     -4.249355
  H       2.722004     -2.684949     -4.822026
  C       3.318486     -4.077178     -6.386325
  H       3.612508     -5.132565     -6.567528
  C       3.378502     -3.222560     -7.438022
  H       3.747014     -3.626296     -8.404590
  C       3.039220     -1.740579     -7.460479
  H       2.534354     -1.427941     -6.519916
  H       2.301994     -1.553913     -8.280145
  C       4.290095     -0.837479     -7.724964
  H       3.950872      0.219216     -7.855432
  H       4.741481     -1.137231     -8.702154
  C       5.383473     -0.903778     -6.623614
  H       5.673408     -1.969898     -6.472585
  H       6.301299     -0.384761     -6.994080
  C       4.972972     -0.264452     -5.269041
  H       4.725008      0.811343     -5.442968
  H       4.032701     -0.732496     -4.892159
  C       6.056244     -0.363607     -4.157522
  H       5.761417      0.298199     -3.306467
  H       7.016824      0.051253     -4.548928
  C       6.278745     -1.800844     -3.611459
  H       5.297425     -2.203716     -3.260650
  H       6.604266     -2.476137     -4.440102
  C       7.304896     -1.902170     -2.448845
  H       6.977206     -1.241325     -1.608297
  H       7.280219     -2.942414     -2.042567
  C       8.762559     -1.552368     -2.843055
  H       9.461872     -1.712364     -1.990078
  H       9.115024     -2.188882     -3.689503
  H       8.869195     -0.489589     -3.160277
138
Coordinates from ORCA-job /wrk/rja7/qm_final_3_replicates/qm_final_1.1/qm/2/freq E -2722.579285260690
  N       2.308262      0.195317     11.725378
  C       2.259649      1.581443     10.958657
  H       2.754214      2.318318     11.628001
  H       1.191350      1.858645     10.854207
  C       0.910783     -0.072863     12.299431
  H       0.221467     -0.201853     11.434553
  H       0.952631     -0.996531     12.915390
  H       0.615918      0.791361     12.929577
  C       3.324413      0.292656     12.850591
  H       3.361469     -0.673347     13.395726
  H       4.321925      0.514156     12.417287
  H       3.030844      1.103662     13.549075
  C       2.681322     -1.007311     10.838479
  H       3.678997     -0.834417     10.391739
  H       1.898870     -1.119176     10.059637
  H       2.716925     -1.896469     11.503832
  C       2.899733      1.647014      9.546455
  H       2.814979      2.736026      9.281731
  H       3.992566      1.407199      9.590357
  P       0.545576      0.844783      8.459207
  O       0.089335      2.246459      8.830627
  O       0.089421     -0.425599      9.211962
  O       2.304291      0.811718      8.575031
  O       0.427652      0.615579      6.807570
  C       0.393633     -0.715457      6.260718
  H      -0.223660     -1.392415      6.898544
  H       1.426936     -1.147948      6.204560
  C      -0.177284     -0.631143      4.833403
  H       0.399835      0.113038      4.241943
  O      -1.572715     -0.186744      4.928193
  C      -2.008461      0.781615      4.051849
  O      -1.299102      1.341702      3.224608
  C      -3.520946      0.996329      4.201005
  H      -3.731794      2.078703      4.044066
  H      -3.836892      0.721840      5.231071
  C      -0.161269     -2.003153      4.118822
  H      -0.769362     -2.743693      4.685517
  H       0.884105     -2.372487      4.018093
  O      -0.794049     -1.900151      2.808077
  C       0.012472     -1.558935      1.734057
  O       1.233092     -1.521719      1.783061
  C      -0.852308     -1.194281      0.522682
  H      -1.787896     -1.798493      0.544586
  H      -1.165541     -0.137894      0.701930
  C      -4.314992      0.142945      3.154087
  H      -5.394490      0.153669      3.440036
  H      -3.983096     -0.920096      3.237244
  C      -4.155924      0.632506      1.691389
  H      -3.077358      0.795803      1.473302
  H      -4.632905      1.638593      1.585936
  C      -4.745023     -0.335135      0.633114
  H      -5.849126     -0.438700      0.780108
  H      -4.322214     -1.358001      0.795249
  C      -4.450069      0.109073     -0.823366
  H      -3.346108      0.198796     -0.957388
  H      -4.859565      1.137531     -0.985061
  C      -5.025928     -0.841653     -1.902122
  H      -6.137339     -0.889538     -1.797530
  H      -4.655867     -1.881722     -1.723671
  C      -4.676456     -0.416590     -3.366379
  H      -4.971512      0.648660     -3.512742
  H      -5.312598     -1.012368     -4.065151
  C      -3.218252     -0.644724     -3.737364
  H      -2.945970     -1.705973     -3.917563
  C      -2.229194      0.278382     -3.842405
  H      -1.221470     -0.082787     -4.135149
  C      -2.337557      1.777851     -3.624365
  H      -1.581331      2.082820     -2.856906
  H      -3.328283      2.039673     -3.193621
  C      -2.085574      2.604333     -4.920907
  H      -2.862359      2.337215     -5.676248
  H      -1.112506      2.288834     -5.369774
  C      -2.055641      4.143739     -4.699862
  H      -1.862072      4.638709     -5.683236
  H      -1.180088      4.398536     -4.053773
  C      -3.333562      4.762674     -4.065213
  H      -3.169962      5.861237     -3.944000
  H      -3.471381      4.368731     -3.028868
  C      -4.638379      4.536981     -4.872506
  H      -4.836697      3.442920     -4.979707
  H      -4.501062      4.923267     -5.913577
  C      -5.881146      5.208127     -4.234025
  H      -5.697523      6.306335     -4.124977
  H      -6.014479      4.819989     -3.193043
  C      -7.192053      4.986007     -5.031860
  H      -7.370933      3.888050     -5.144972
  H      -7.061969      5.379645     -6.070289
  C      -8.430024      5.647652     -4.378115
  H      -9.355431      5.467861     -4.972431
  H      -8.299034      6.751776     -4.285836
  H      -8.607060      5.249035     -3.351278
  C      -0.134634     -1.309054     -0.842401
  H       0.820256     -0.734284     -0.804171
  H      -0.777806     -0.813950     -1.606376
  C       0.150899     -2.766863     -1.284631
  H      -0.795137     -3.362437     -1.235493
  H       0.857398     -3.245538     -0.564254
  C       0.733896     -2.866999     -2.718402
  H       1.650782     -2.232653     -2.780586
  H       0.005903     -2.422857     -3.443376
  C       1.059696     -4.321353     -3.148537
  H       1.855597     -4.731864     -2.478384
  H       0.158228     -4.959216     -2.976073
  C       1.497680     -4.483902     -4.629918
  H       1.614908     -5.571410     -4.856717
  H       0.684872     -4.117796     -5.303893
  C       2.822582     -3.747630     -4.996485
  H       3.617622     -4.075140     -4.279913
  H       2.700501     -2.654488     -4.838632
  C       3.284326     -4.039607     -6.414122
  H       3.578588     -5.093986     -6.600790
  C       3.336609     -3.182021     -7.463860
  H       3.700698     -3.583269     -8.433175
  C       2.996011     -1.700226     -7.482251
  H       2.491413     -1.389717     -6.540867
  H       2.258479     -1.512407     -8.301341
  C       4.245673     -0.794795     -7.745351
  H       3.904255      0.261445     -7.874775
  H       4.697174     -1.092589     -8.723032
  C       5.338781     -0.860137     -6.643739
  H       5.628662     -1.926098     -6.491303
  H       6.256997     -0.342017     -7.014332
  C       4.927453     -0.218619     -5.290403
  H       4.680772      0.857202     -5.466379
  H       3.986222     -0.684799     -4.913819
  C       6.009019     -0.316404     -4.177294
  H       5.714483      0.349024     -3.328877
  H       6.970866      0.094909     -4.569158
  C       6.227888     -1.751977     -3.625170
  H       5.244834     -2.151883     -3.275866
  H       6.555054     -2.431175     -4.450056
  C       7.250134     -1.849715     -2.458754
  H       6.919786     -1.185892     -1.621625
  H       7.223342     -2.888485     -2.048806
  C       8.709377     -1.501911     -2.848820
  H       9.405482     -1.660366     -1.992922
  H       9.064502     -2.140392     -3.692669
  H       8.818052     -0.439821     -3.167670
138
Coordinates from ORCA-job /wrk/rja7/qm_final_3_replicates/qm_final_1.1/qm/2/freq E -2722.579310931577
  N       2.311599      0.185188     11.732201
  C       2.258500      1.575237     10.972991
  H       2.752717      2.309126     11.645818
  H       1.189366      1.850588     10.872582
  C       0.916922     -0.086854     12.310459
  H       0.224205     -0.213190     11.447862
  H       0.962044     -1.013283     12.921975
  H       0.623048      0.774143     12.945513
  C       3.332020      0.277679     12.853939
  H       3.372656     -0.691565     13.392914
  H       4.327340      0.503336     12.417833
  H       3.040195      1.084135     13.558375
  C       2.681015     -1.013017     10.838104
  H       3.677456     -0.838091     10.389461
  H       1.895965     -1.120207     10.061360
  H       2.718311     -1.905576     11.498773
  C       2.895135      1.650144      9.559569
  H       2.807418      2.740293      9.300818
  H       3.988706      1.412813      9.599415
  P       0.540198      0.848781      8.473162
  O       0.082860      2.248542      8.849850
  O       0.088280     -0.424522      9.223073
  O       2.299458      0.818315      8.585211
  O       0.418220      0.624221      6.821099
  C       0.388947     -0.705930      6.271441
  H      -0.228831     -1.385546      6.905914
  H       1.423286     -1.136165      6.217391
  C      -0.177609     -0.620509      4.842281
  H       0.400675      0.124621      4.253143
  O      -1.573753     -0.177196      4.932824
  C      -2.008101      0.791014      4.055582
  O      -1.297241      1.352287      3.230331
  C      -3.521633      1.002124      4.198805
  H      -3.734292      2.084031      4.041005
  H      -3.840399      0.727507      5.228004
  C      -0.157736     -1.992109      4.126483
  H      -0.764318     -2.734897      4.691834
  H       0.888679     -2.358609      4.026313
  O      -0.789205     -1.889856      2.815406
  C       0.017754     -1.548569      1.741892
  O       1.238269     -1.510080      1.791662
  C      -0.847409     -1.186476      0.530067
  H      -1.781185     -1.793435      0.552321
  H      -1.164142     -0.131082      0.708768
  C      -4.311177      0.146707      3.150170
  H      -5.391504      0.156769      3.432960
  H      -3.978769     -0.915947      3.236251
  C      -4.149438      0.633728      1.686799
  H      -3.070284      0.793017      1.468742
  H      -4.623057      1.641254      1.579881
  C      -4.743630     -0.333252      0.630698
  H      -5.848231     -0.429993      0.778818
  H      -4.326828     -1.358282      0.794879
  C      -4.448552      0.105644     -0.827309
  H      -3.344278      0.183231     -0.965719
  H      -4.847752      1.138124     -0.989096
  C      -5.039210     -0.840926     -1.901826
  H      -6.150654     -0.875828     -1.792294
  H      -4.680102     -1.884619     -1.722451
  C      -4.691407     -0.423924     -3.368958
  H      -4.970509      0.645596     -3.515888
  H      -5.340820     -1.011066     -4.062682
  C      -3.239180     -0.675663     -3.748223
  H      -2.986455     -1.740454     -3.935754
  C      -2.234829      0.230563     -3.854295
  H      -1.234851     -0.146726     -4.153211
  C      -2.316294      1.730915     -3.630576
  H      -1.550970      2.020132     -2.866078
  H      -3.300133      2.008222     -3.194078
  C      -2.056218      2.556334     -4.926225
  H      -2.836406      2.298547     -5.681261
  H      -1.086959      2.230863     -5.376172
  C      -2.010867      4.095109     -4.703424
  H      -1.810635      4.589086     -5.685929
  H      -1.134288      4.340493     -4.055090
  C      -3.284639      4.725392     -4.071537
  H      -3.113655      5.823238     -3.953946
  H      -3.425799      4.336064     -3.033983
  C      -4.590117      4.505720     -4.879340
  H      -4.795380      3.412587     -4.982809
  H      -4.449049      4.887008     -5.921769
  C      -5.829481      5.186854     -4.245029
  H      -5.639880      6.284549     -4.141201
  H      -5.966128      4.804593     -3.202278
  C      -7.140520      4.968161     -5.043265
  H      -7.325030      3.870668     -5.151575
  H      -7.007135      5.356381     -6.083321
  C      -8.375724      5.639268     -4.394101
  H      -9.301328      5.461615     -4.988729
  H      -8.239027      6.743089     -4.306721
  H      -8.556146      5.246283     -3.365674
  C      -0.129676     -1.300771     -0.834803
  H       0.825093     -0.725656     -0.796682
  H      -0.773092     -0.806500     -1.599055
  C       0.156314     -2.758596     -1.276644
  H      -0.788765     -3.355437     -1.223894
  H       0.865500     -3.235847     -0.557986
  C       0.733960     -2.858915     -2.712425
  H       1.650698     -2.224706     -2.778118
  H       0.003016     -2.414436     -3.434100
  C       1.057534     -4.313151     -3.144492
  H       1.858062     -4.723673     -2.479873
  H       0.157322     -4.951073     -2.965727
  C       1.484958     -4.474613     -4.628977
  H       1.600244     -5.561848     -4.858023
  H       0.667377     -4.107635     -5.296722
  C       2.807090     -3.737665     -5.003493
  H       3.606970     -4.067318     -4.293242
  H       2.686310     -2.644987     -4.842071
  C       3.258175     -4.025021     -6.425284
  H       3.551022     -5.078725     -6.617932
  C       3.301650     -3.163744     -7.472372
  H       3.657436     -3.561472     -8.446180
  C       2.961440     -1.681727     -7.482426
  H       2.461234     -1.374798     -6.537415
  H       2.220593     -1.489890     -8.297510
  C       4.210205     -0.775632     -7.747624
  H       3.867704      0.280155     -7.877696
  H       4.660728     -1.074192     -8.725515
  C       5.304458     -0.838423     -6.647196
  H       5.591750     -1.904268     -6.489959
  H       6.223496     -0.324482     -7.021583
  C       4.897137     -0.188368     -5.296728
  H       4.656092      0.887823     -5.478104
  H       3.953505     -0.647412     -4.917046
  C       5.979549     -0.285305     -4.184371
  H       5.690501      0.387594     -3.339984
  H       6.943163      0.117718     -4.580505
  C       6.191610     -1.718223     -3.622962
  H       5.206993     -2.110866     -3.270183
  H       6.514792     -2.404636     -4.443436
  C       7.214113     -1.812950     -2.456454
  H       6.886370     -1.143322     -1.622936
  H       7.183839     -2.849317     -2.040682
  C       8.674528     -1.472590     -2.848510
  H       9.370225     -1.630849     -1.992223
  H       9.026944     -2.115622     -3.690046
  H       8.787766     -0.412117     -3.171012
138
Coordinates from ORCA-job /wrk/rja7/qm_final_3_replicates/qm_final_1.1/qm/2/freq E -2722.579339704547
  N       2.298015      0.211426     11.721242
  C       2.236089      1.600382     10.960682
  H       2.727042      2.337695     11.632125
  H       1.165375      1.869691     10.861312
  C       0.906128     -0.066875     12.302954
  H       0.212074     -0.198230     11.442221
  H       0.957037     -0.991903     12.916138
  H       0.609062      0.793783     12.936899
  C       3.320827      0.310407     12.840431
  H       3.368780     -0.658599     13.379200
  H       4.313513      0.542243     12.401533
  H       3.025857      1.115134     13.545524
  C       2.671543     -0.985983     10.827744
  H       3.666414     -0.806418     10.377555
  H       1.885468     -1.097601     10.052669
  H       2.714022     -1.877567     11.489363
  C       2.869761      1.676661      9.546194
  H       2.777457      2.766214      9.286371
  H       3.964372      1.443621      9.583905
  P       0.515619      0.862213      8.467654
  O       0.052158      2.259205      8.847103
  O       0.073447     -0.414447      9.217596
  O       2.275525      0.840995      8.574251
  O       0.388692      0.638435      6.815778
  C       0.373336     -0.692120      6.266623
  H      -0.241499     -1.376753      6.898712
  H       1.411457     -1.113592      6.217307
  C      -0.187931     -0.612640      4.835285
  H       0.386952      0.136313      4.247702
  O      -1.587910     -0.180261      4.920670
  C      -2.027862      0.785958      4.044009
  O      -1.319380      1.355506      3.222334
  C      -3.543965      0.982245      4.181813
  H      -3.765702      2.063069      4.029200
  H      -3.864971      0.699241      5.208086
  C      -0.153949     -1.985054      4.121103
  H      -0.756296     -2.732316      4.685053
  H       0.895950     -2.342744      4.025341
  O      -0.780189     -1.889624      2.807115
  C       0.028777     -1.548462      1.734953
  O       1.248784     -1.502394      1.788795
  C      -0.835021     -1.196028      0.519159
  H      -1.764912     -1.808885      0.541259
  H      -1.159224     -0.142435      0.693465
  C      -4.321423      0.125658      3.125314
  H      -5.402926      0.124271      3.403767
  H      -3.979823     -0.934453      3.207158
  C      -4.158389      0.621388      1.665176
  H      -3.080071      0.790347      1.451786
  H      -4.639462      1.625755      1.561625
  C      -4.742200     -0.345079      0.603012
  H      -5.847263     -0.446166      0.744828
  H      -4.322642     -1.369146      0.766030
  C      -4.439906      0.099193     -0.851763
  H      -3.334971      0.175034     -0.985031
  H      -4.836475      1.133071     -1.010887
  C      -5.027667     -0.841722     -1.932821
  H      -6.139879     -0.872137     -1.830063
  H      -4.673891     -1.887431     -1.754847
  C      -4.668159     -0.421816     -3.396306
  H      -4.934620      0.651392     -3.539639
  H      -5.320593     -0.998493     -4.095791
  C      -3.216926     -0.688140     -3.770528
  H      -2.977682     -1.753094     -3.973961
  C      -2.199524      0.205459     -3.856308
  H      -1.203334     -0.180298     -4.157250
  C      -2.261665      1.702912     -3.608321
  H      -1.491156      1.970356     -2.841149
  H      -3.241158      1.985269     -3.165428
  C      -1.995084      2.544726     -4.891918
  H      -2.774776      2.299908     -5.651683
  H      -1.026118      2.222080     -5.344438
  C      -1.946896      4.080007     -4.647227
  H      -1.743021      4.587881     -5.621793
  H      -1.072247      4.314066     -3.992202
  C      -3.221680      4.701692     -4.008506
  H      -3.051699      5.798122     -3.877138
  H      -3.363054      4.299606     -2.975848
  C      -4.526772      4.490537     -4.818994
  H      -4.731280      3.398401     -4.934292
  H      -4.385902      4.883133     -5.857245
  C      -5.766766      5.163540     -4.177346
  H      -5.579273      6.260659     -4.064031
  H      -5.901389      4.771851     -3.137851
  C      -7.078097      4.949392     -4.976348
  H      -7.261043      3.852540     -5.093350
  H      -6.946006      5.346089     -6.013362
  C      -8.313822      5.613255     -4.320920
  H      -9.239661      5.438461     -4.916051
  H      -8.179075      6.716627     -4.225273
  H      -8.492648      5.212074     -3.295382
  C      -0.114479     -1.310850     -0.844159
  H       0.839177     -0.733632     -0.805606
  H      -0.757732     -0.819943     -1.610785
  C       0.174911     -2.769194     -1.282033
  H      -0.767992     -3.368999     -1.224113
  H       0.887945     -3.241907     -0.564088
  C       0.746642     -2.871933     -2.719797
  H       1.662440     -2.236849     -2.790610
  H       0.012063     -2.429324     -3.438759
  C       1.069842     -4.326382     -3.151499
  H       1.877062     -4.734035     -2.493254
  H       0.172493     -4.965725     -2.963652
  C       1.484387     -4.488070     -4.639418
  H       1.598405     -5.575134     -4.869869
  H       0.660464     -4.121702     -5.299699
  C       2.802115     -3.748842     -5.024346
  H       3.608474     -4.080887     -4.322547
  H       2.682053     -2.656854     -4.858104
  C       3.240125     -4.029795     -6.451117
  H       3.536349     -5.081364     -6.650237
  C       3.267438     -3.165042     -7.495864
  H       3.613955     -3.557914     -8.474949
  C       2.922620     -1.683960     -7.497029
  H       2.424154     -1.382552     -6.549201
  H       2.179479     -1.490090     -8.309413
  C       4.168195     -0.773146     -7.761566
  H       3.821610      0.281155     -7.893204
  H       4.620695     -1.071102     -8.738691
  C       5.260831     -0.829793     -6.659465
  H       5.545317     -1.895016     -6.492927
  H       6.181713     -0.321577     -7.037105
  C       4.854496     -0.165831     -5.315461
  H       4.623088      0.910847     -5.506522
  H       3.905630     -0.613361     -4.934831
  C       5.933183     -0.262086     -4.199493
  H       5.649074      0.421973     -3.362443
  H       6.901420      0.127546     -4.597685
  C       6.130830     -1.691163     -3.623409
  H       5.141730     -2.071846     -3.270364
  H       6.451244     -2.388465     -4.435767
  C       7.148061     -1.782673     -2.451950
  H       6.821754     -1.103305     -1.625798
  H       7.108454     -2.815032     -2.027058
  C       8.612638     -1.456787     -2.840637
  H       9.303628     -1.615161     -1.980540
  H       8.963186     -2.108118     -3.676532
  H       8.736226     -0.399362     -3.169229
138
Coordinates from ORCA-job /wrk/rja7/qm_final_3_replicates/qm_final_1.1/qm/2/freq E -2722.579354281519
  N       2.244169      0.217084     11.757887
  C       2.191509      1.606670     10.997966
  H       2.676324      2.343155     11.674814
  H       1.121991      1.876450     10.888239
  C       0.848563     -0.055341     12.332841
  H       0.157930     -0.184936     11.469278
  H       0.892344     -0.979702     12.947659
  H       0.551630      0.807389     12.963888
  C       3.262224      0.310703     12.882090
  H       3.304973     -0.659819     13.418601
  H       4.257537      0.540913     12.448303
  H       2.966169      1.114603     13.587739
  C       2.618100     -0.981432     10.865320
  H       3.616183     -0.805116     10.421613
  H       1.836955     -1.089100     10.084457
  H       2.652300     -1.873685     11.526511
  C       2.838850      1.683077      9.589955
  H       2.754680      2.773870      9.332181
  H       3.931880      1.444079      9.636369
  P       0.488238      0.883067      8.495246
  O       0.029388      2.282001      8.872758
  O       0.036896     -0.392570      9.241256
  O       2.247800      0.852919      8.611683
  O       0.368776      0.661460      6.842517
  C       0.368085     -0.669274      6.294344
  H      -0.250132     -1.356907      6.919957
  H       1.409156     -1.084835      6.257513
  C      -0.177875     -0.595521      4.857145
  H       0.396634      0.157939      4.274860
  O      -1.582331     -0.176714      4.927186
  C      -2.021853      0.779779      4.040191
  O      -1.310488      1.349037      3.220873
  C      -3.539947      0.967532      4.164356
  H      -3.766205      2.047837      4.013641
  H      -3.869759      0.679829      5.186504
  C      -0.125210     -1.968224      4.144953
  H      -0.721919     -2.721155      4.707322
  H       0.928952     -2.314706      4.054332
  O      -0.748185     -1.879307      2.829043
  C       0.059911     -1.539070      1.755910
  O       1.279808     -1.491302      1.808581
  C      -0.806311     -1.194970      0.539231
  H      -1.733270     -1.812283      0.564246
  H      -1.136065     -0.142339      0.710317
  C      -4.301608      0.110021      3.097558
  H      -5.385715      0.101344      3.365573
  H      -3.954614     -0.948392      3.179575
  C      -4.127016      0.609911      1.640337
  H      -3.047093      0.781810      1.436495
  H      -4.609545      1.613495      1.535470
  C      -4.701695     -0.355001      0.571886
  H      -5.807785     -0.455857      0.705594
  H      -4.283739     -1.379533      0.735717
  C      -4.389628      0.092597     -0.879657
  H      -3.283716      0.159387     -1.009008
  H      -4.777061      1.130431     -1.035749
  C      -4.982328     -0.838193     -1.966747
  H      -6.094956     -0.858924     -1.866844
  H      -4.638582     -1.887942     -1.792931
  C      -4.615407     -0.414555     -3.427414
  H      -4.865715      0.663179     -3.564707
  H      -5.275712     -0.977339     -4.130680
  C      -3.168025     -0.699210     -3.804144
  H      -2.945397     -1.764692     -4.022871
  C      -2.137367      0.179900     -3.879208
  H      -1.147551     -0.215866     -4.188169
  C      -2.178324      1.675262     -3.614802
  H      -1.395082      1.925691     -2.854880
  H      -3.149199      1.964685     -3.157511
  C      -1.918727      2.525545     -4.894133
  H      -2.703353      2.286024     -5.650294
  H      -0.952946      2.205158     -5.354967
  C      -1.869021      4.059077     -4.639387
  H      -1.669256      4.572842     -5.611682
  H      -0.992236      4.288698     -3.985844
  C      -3.141365      4.676125     -3.990555
  H      -2.974672      5.773350     -3.861780
  H      -3.272027      4.274837     -2.956034
  C      -4.453006      4.458108     -4.788431
  H      -4.656018      3.364937     -4.896757
  H      -4.322486      4.846248     -5.829728
  C      -5.688916      5.131127     -4.138977
  H      -5.504068      6.229588     -4.034471
  H      -5.812230      4.745746     -3.095707
  C      -7.007004      4.907702     -4.924246
  H      -7.186651      3.809446     -5.033556
  H      -6.886199      5.299108     -5.964639
  C      -8.239217      5.570338     -4.261046
  H      -9.169657      5.389019     -4.846992
  H      -8.107810      6.674707     -4.172255
  H      -8.407446      5.173822     -3.231891
  C      -0.087169     -1.311559     -0.824554
  H       0.863898     -0.729754     -0.790389
  H      -0.733861     -0.827171     -1.592560
  C       0.207625     -2.771044     -1.255825
  H      -0.730783     -3.376314     -1.183911
  H       0.931051     -3.234537     -0.542075
  C       0.763956     -2.880107     -2.699087
  H       1.675315     -2.240395     -2.784519
  H       0.018606     -2.446137     -3.411951
  C       1.090011     -4.335443     -3.125825
  H       1.914066     -4.731735     -2.481693
  H       0.201592     -4.979788     -2.914235
  C       1.474209     -4.504499     -4.621025
  H       1.592259     -5.592043     -4.847161
  H       0.632815     -4.149676     -5.265374
  C       2.776924     -3.756359     -5.038501
  H       3.601635     -4.082164     -4.355413
  H       2.653247     -2.664872     -4.871449
  C       3.183282     -4.035357     -6.474798
  H       3.480693     -5.085198     -6.681080
  C       3.178828     -3.170803     -7.520012
  H       3.504671     -3.561366     -8.507088
  C       2.823845     -1.692032     -7.513158
  H       2.341339     -1.393691     -6.556035
  H       2.064605     -1.502433     -8.311472
  C       4.058808     -0.772892     -7.799807
  H       3.702202      0.277941     -7.932827
  H       4.499560     -1.073092     -8.781544
  C       5.166606     -0.814461     -6.712083
  H       5.454161     -1.877324     -6.534482
  H       6.082340     -0.312023     -7.109387
  C       4.779528     -0.130254     -5.372579
  H       4.554122      0.945567     -5.575496
  H       3.831226     -0.564807     -4.975338
  C       5.869841     -0.219780     -4.267595
  H       5.603017      0.480358     -3.438212
  H       6.837217      0.153055     -4.683507
  C       6.059995     -1.641488     -3.670869
  H       5.071488     -2.006069     -3.299583
  H       6.363298     -2.355254     -4.475472
  C       7.090227     -1.723924     -2.510164
  H       6.778373     -1.030246     -1.690366
  H       7.047748     -2.749680     -2.069830
  C       8.552637     -1.414496     -2.919815
  H       9.252263     -1.568128     -2.065839
  H       8.888526     -2.078332     -3.751887
  H       8.680919     -0.362036     -3.262318
138
Coordinates from ORCA-job /wrk/rja7/qm_final_3_replicates/qm_final_1.1/qm/2/freq E -2722.579370059940
  N       2.283132      0.223545     11.728901
  C       2.210531      1.612462     10.969617
  H       2.695768      2.352522     11.642196
  H       1.137781      1.873686     10.871636
  C       0.896312     -0.060921     12.318880
  H       0.197482     -0.196617     11.462768
  H       0.954862     -0.985107     12.932742
  H       0.598544      0.798824     12.953753
  C       3.311906      0.326811     12.842607
  H       3.369758     -0.643144     13.378625
  H       4.300279      0.566686     12.398382
  H       3.015176      1.127989     13.550917
  C       2.657557     -0.971558     10.832422
  H       3.649572     -0.786477     10.378639
  H       1.868597     -1.085712     10.060524
  H       2.706912     -1.863457     11.493131
  C       2.842738      1.695033      9.554930
  H       2.746381      2.785028      9.298224
  H       3.938514      1.466923      9.591271
  P       0.491414      0.869701      8.476493
  O       0.019738      2.263020      8.858252
  O       0.060134     -0.411399      9.224750
  O       2.252205      0.859386      8.580402
  O       0.360901      0.648590      6.824503
  C       0.363594     -0.681244      6.273383
  H      -0.250371     -1.372658      6.898893
  H       1.406082     -1.092738      6.232101
  C      -0.187115     -0.604238      4.837695
  H       0.385961      0.149932      4.254868
  O      -1.590746     -0.183685      4.913293
  C      -2.029666      0.776639      4.030304
  O      -1.318143      1.346378      3.211459
  C      -3.547227      0.967866      4.156643
  H      -3.771205      2.049060      4.008846
  H      -3.875948      0.678629      5.178706
  C      -0.137533     -1.975567      4.122423
  H      -0.735608     -2.728581      4.683157
  H       0.916135     -2.323306      4.031081
  O      -0.760356     -1.885037      2.806680
  C       0.048359     -1.548028      1.733260
  O       1.268137     -1.498725      1.787030
  C      -0.817281     -1.209813      0.514466
  H      -1.742244     -1.830210      0.540756
  H      -1.150779     -0.157566      0.681236
  C      -4.312060      0.114409      3.089334
  H      -5.395869      0.106711      3.358670
  H      -3.967495     -0.945036      3.168284
  C      -4.138344      0.618155      1.633371
  H      -3.057821      0.784759      1.428213
  H      -4.616101      1.624338      1.532552
  C      -4.719956     -0.340079      0.562743
  H      -5.825953     -0.437416      0.700260
  H      -4.306076     -1.367247      0.720552
  C      -4.410071      0.112770     -0.887608
  H      -3.304119      0.171836     -1.020267
  H      -4.790276      1.154280     -1.037019
  C      -5.013286     -0.807614     -1.977639
  H      -6.126011     -0.817254     -1.876977
  H      -4.680211     -1.861480     -1.807906
  C      -4.640943     -0.383696     -3.437000
  H      -4.877229      0.697530     -3.571323
  H      -5.307636     -0.936206     -4.142300
  C      -3.196794     -0.685470     -3.813276
  H      -2.988313     -1.752075     -4.039891
  C      -2.153796      0.179708     -3.879006
  H      -1.168515     -0.227323     -4.187700
  C      -2.175179      1.673871     -3.605405
  H      -1.385281      1.911609     -2.848546
  H      -3.140388      1.972030     -3.142224
  C      -1.912010      2.526985     -4.882608
  H      -2.695516      2.289192     -5.640525
  H      -0.945833      2.205824     -5.341964
  C      -1.861134      4.060097     -4.625103
  H      -1.658129      4.574625     -5.596273
  H      -0.985927      4.288173     -3.968816
  C      -3.135079      4.677581     -3.979866
  H      -2.973037      5.776596     -3.860505
  H      -3.263019      4.284679     -2.941949
  C      -4.446022      4.446021     -4.774800
  H      -4.643917      3.350771     -4.870914
  H      -4.316719      4.822768     -5.820475
  C      -5.685196      5.120837     -4.133821
  H      -5.505464      6.221240     -4.041581
  H      -5.808192      4.746788     -3.086387
  C      -7.001218      4.882315     -4.917983
  H      -7.176459      3.782091     -5.013555
  H      -6.880192      5.260893     -5.963083
  C      -8.237099      5.548398     -4.265229
  H      -9.165846      5.356085     -4.850344
  H      -8.110236      6.654296     -4.190090
  H      -8.405724      5.164154     -3.231483
  C      -0.095562     -1.329306     -0.847463
  H       0.849999     -0.739071     -0.815665
  H      -0.745187     -0.855814     -1.619641
  C       0.214710     -2.788138     -1.269789
  H      -0.718247     -3.401982     -1.198672
  H       0.939697     -3.241111     -0.551100
  C       0.778270     -2.897014     -2.710105
  H       1.684904     -2.250281     -2.793577
  H       0.032512     -2.470764     -3.426962
  C       1.117551     -4.350072     -3.133611
  H       1.943873     -4.738684     -2.487715
  H       0.234190     -5.001598     -2.922780
  C       1.505247     -4.515887     -4.628185
  H       1.633748     -5.602176     -4.854695
  H       0.661092     -4.168895     -5.273270
  C       2.801398     -3.755797     -5.044653
  H       3.630356     -4.079070     -4.365406
  H       2.669851     -2.666160     -4.871624
  C       3.203566     -4.024077     -6.484106
  H       3.503200     -5.071596     -6.698955
  C       3.194957     -3.151724     -7.522710
  H       3.519572     -3.534079     -8.513431
  C       2.839398     -1.673180     -7.503512
  H       2.348963     -1.384993     -6.547168
  H       2.087887     -1.473919     -8.306711
  C       4.078399     -0.753761     -7.768678
  H       3.725517      0.298291     -7.901834
  H       4.532672     -1.050903     -8.745186
  C       5.170981     -0.803480     -6.666215
  H       5.441601     -1.868823     -6.478925
  H       6.098401     -0.315359     -7.054387
  C       4.776476     -0.106209     -5.335744
  H       4.572826      0.972354     -5.546935
  H       3.814761     -0.521987     -4.949694
  C       5.849297     -0.210009     -4.215149
  H       5.583635      0.498139     -3.392255
  H       6.829012      0.143848     -4.618833
  C       6.005901     -1.632558     -3.610888
  H       5.006727     -1.977507     -3.249120
  H       6.304415     -2.354857     -4.409545
  C       7.021948     -1.730068     -2.438953
  H       6.715105     -1.027110     -1.625196
  H       6.955282     -2.753104     -1.995287
  C       8.494299     -1.450866     -2.834582
  H       9.182060     -1.614989     -1.972946
  H       8.825470     -2.124512     -3.660621
  H       8.646719     -0.402585     -3.179910
138
Coordinates from ORCA-job /wrk/rja7/qm_final_3_replicates/qm_final_1.1/qm/2/freq E -2722.579389619442
  N       2.260336      0.229379     11.750965
  C       2.198846      1.618516     10.990981
  H       2.685066      2.356074     11.665607
  H       1.128116      1.886077     10.887640
  C       0.869293     -0.045833     12.335180
  H       0.173623     -0.176773     11.475752
  H       0.919079     -0.970137     12.949562
  H       0.574487      0.816207     12.968366
  C       3.285717      0.326773     12.868198
  H       3.335634     -0.642996     13.405343
  H       4.277292      0.560023     12.427584
  H       2.991635      1.130297     13.575030
  C       2.630301     -0.968913     10.857100
  H       3.624904     -0.791071     10.405825
  H       1.843445     -1.078868     10.082463
  H       2.671333     -1.860325     11.519025
  C       2.838503      1.697280      9.579437
  H       2.748320      2.787504      9.321486
  H       3.932944      1.464028      9.621855
  P       0.488672      0.882794      8.489071
  O       0.021421      2.279909      8.862735
  O       0.046293     -0.393194      9.239896
  O       2.248819      0.864089      8.602371
  O       0.366725      0.656290      6.837067
  C       0.372375     -0.675131      6.289501
  H      -0.242419     -1.365583      6.915220
  H       1.415463     -1.085527      6.252489
  C      -0.175061     -0.602660      4.852085
  H       0.396045      0.153168      4.269559
  O      -1.580700     -0.187818      4.924392
  C      -2.023262      0.771183      4.041497
  O      -1.313395      1.346307      3.225002
  C      -3.542116      0.953870      4.166632
  H      -3.771714      2.033783      4.018507
  H      -3.870162      0.662777      5.188374
  C      -0.117737     -1.974960      4.138925
  H      -0.711047     -2.730146      4.701943
  H       0.937724     -2.316874      4.047150
  O      -0.742064     -1.890123      2.823407
  C       0.065106     -1.553084      1.748663
  O       1.284937     -1.502867      1.800868
  C      -0.801672     -1.214245      0.530971
  H      -1.726145     -1.835425      0.556153
  H      -1.135811     -0.162577      0.699832
  C      -4.301976      0.096983      3.098157
  H      -5.385995      0.083886      3.366428
  H      -3.952163     -0.960720      3.176584
  C      -4.129763      0.603061      1.642627
  H      -3.049946      0.775266      1.438331
  H      -4.612034      1.607137      1.542575
  C      -4.705428     -0.356536      0.569710
  H      -5.811414     -0.458234      0.703844
  H      -4.287729     -1.382042      0.728202
  C      -4.392644      0.097995     -0.879640
  H      -3.286373      0.159778     -1.008614
  H      -4.774789      1.138692     -1.029723
  C      -4.990783     -0.822719     -1.972310
  H      -6.104008     -0.832020     -1.877119
  H      -4.659064     -1.876637     -1.800270
  C      -4.611524     -0.399956     -3.430243
  H      -4.846075      0.681361     -3.566679
  H      -5.275389     -0.952316     -4.138393
  C      -3.165908     -0.703313     -3.799579
  H      -2.956423     -1.770801     -4.021093
  C      -2.122333      0.161558     -3.861547
  H      -1.135446     -0.246167     -4.163741
  C      -2.145979      1.656188     -3.590555
  H      -1.358869      1.896189     -2.831607
  H      -3.112853      1.953777     -3.130561
  C      -1.879678      2.508923     -4.867564
  H      -2.659939      2.269925     -5.628447
  H      -0.911107      2.189380     -5.323033
  C      -1.832111      4.042018     -4.609707
  H      -1.623031      4.557010     -5.579358
  H      -0.961433      4.270888     -3.947656
  C      -3.111175      4.658395     -3.973551
  H      -2.947589      5.756202     -3.845556
  H      -3.251124      4.259051     -2.939642
  C      -4.414236      4.436198     -4.784219
  H      -4.614382      3.342273     -4.889797
  H      -4.272644      4.819836     -5.825740
  C      -5.658346      5.109918     -4.151559
  H      -5.476069      6.208879     -4.048064
  H      -5.794492      4.727437     -3.108852
  C      -6.966232      4.882554     -4.952708
  H      -7.143514      3.783776     -5.060410
  H      -6.832208      5.270399     -5.992785
  C      -8.207447      5.546251     -4.307638
  H      -9.130060      5.362381     -4.905050
  H      -8.078113      6.650961     -4.220476
  H      -8.388789      5.152688     -3.279596
  C      -0.080859     -1.329410     -0.831921
  H       0.864642     -0.739056     -0.799346
  H      -0.731740     -0.853191     -1.601217
  C       0.228701     -2.786446     -1.260957
  H      -0.703910     -3.400704     -1.189087
  H       0.956520     -3.242227     -0.547033
  C       0.786070     -2.889141     -2.704414
  H       1.693497     -2.243678     -2.789070
  H       0.037559     -2.458055     -3.415592
  C       1.120037     -4.340759     -3.137055
  H       1.952090     -4.732818     -2.500623
  H       0.238234     -4.992468     -2.920534
  C       1.491748     -4.501549     -4.636423
  H       1.618035     -5.587142     -4.867474
  H       0.640623     -4.152557     -5.271094
  C       2.783100     -3.740459     -5.065895
  H       3.620472     -4.066690     -4.398612
  H       2.654523     -2.651370     -4.887186
  C       3.166567     -4.005023     -6.511276
  H       3.461582     -5.052438     -6.732876
  C       3.146451     -3.129721     -7.547266
  H       3.457491     -3.510135     -8.543063
  C       2.794864     -1.650383     -7.519242
  H       2.313900     -1.364788     -6.557298
  H       2.036530     -1.446485     -8.314729
  C       4.034244     -0.732945     -7.791513
  H       3.683014      0.320118     -7.920383
  H       4.481285     -1.029145     -8.771636
  C       5.133435     -0.787401     -6.695799
  H       5.400000     -1.853910     -6.509980
  H       6.061092     -0.303988     -7.089346
  C       4.748827     -0.088533     -5.363412
  H       4.549501      0.990955     -5.573578
  H       3.786636     -0.499472     -4.972943
  C       5.825242     -0.197947     -4.246606
  H       5.566725      0.513117     -3.424003
  H       6.805985      0.148730     -4.653984
  C       5.973081     -1.620485     -3.639798
  H       4.971729     -1.957911     -3.276863
  H       6.266122     -2.346382     -4.437119
  C       6.988631     -1.722620     -2.467844
  H       6.687167     -1.015129     -1.656017
  H       6.914279     -2.743906     -2.021464
  C       8.462876     -1.455418     -2.864776
  H       9.149799     -1.621167     -2.002845
  H       8.788822     -2.134288     -3.688651
  H       8.622262     -0.409534     -3.214237
138
Coordinates from ORCA-job /wrk/rja7/qm_final_3_replicates/qm_final_1.1/qm/2/freq E -2722.579393138340
  N       2.223934      0.197407     11.783115
  C       2.179477      1.592794     11.033192
  H       2.661329      2.322279     11.719557
  H       1.111769      1.867921     10.918665
  C       0.824270     -0.073707     12.348770
  H       0.138919     -0.193903     11.479703
  H       0.861072     -1.002721     12.956870
  H       0.526921      0.785390     12.984673
  C       3.237594      0.280444     12.911939
  H       3.278102     -0.693997     13.441336
  H       4.234825      0.513155     12.483978
  H       2.939792      1.079168     13.622672
  C       2.597445     -0.996147     10.884760
  H       3.597700     -0.820422     10.445285
  H       1.818845     -1.096900     10.100474
  H       2.626719     -1.892147     11.541023
  C       2.836509      1.677751      9.630432
  H       2.758718      2.770837      9.380484
  H       3.928276      1.434397      9.683541
  P       0.490182      0.889799      8.515020
  O       0.028577      2.286005      8.898778
  O       0.034069     -0.390697      9.249784
  O       2.249503      0.858198      8.640846
  O       0.378689      0.680733      6.860085
  C       0.391007     -0.645956      6.300907
  H      -0.226144     -1.342928      6.917000
  H       1.435393     -1.053206      6.267660
  C      -0.148847     -0.563783      4.861150
  H       0.420965      0.199925      4.287792
  O      -1.556834     -0.156576      4.930044
  C      -2.000534      0.808824      4.054717
  O      -1.290294      1.397061      3.247993
  C      -3.520950      0.979915      4.175195
  H      -3.758864      2.057523      4.024129
  H      -3.850405      0.687365      5.196017
  C      -0.081056     -1.930054      4.137220
  H      -0.672635     -2.692481      4.692318
  H       0.976356     -2.265791      4.046229
  O      -0.701723     -1.837066      2.820191
  C       0.108599     -1.498784      1.748388
  O       1.328508     -1.452642      1.803135
  C      -0.753522     -1.151525      0.529506
  H      -1.682935     -1.765363      0.550404
  H      -1.080043     -0.097376      0.698392
  C      -4.269054      0.113946      3.105651
  H      -5.353934      0.091482      3.369698
  H      -3.909889     -0.940331      3.187662
  C      -4.095927      0.616827      1.648949
  H      -3.016236      0.793001      1.445534
  H      -4.582393      1.618391      1.544763
  C      -4.666138     -0.349074      0.578596
  H      -5.771793     -0.455148      0.712196
  H      -4.244133     -1.372061      0.741434
  C      -4.353782      0.101180     -0.871954
  H      -3.247382      0.163165     -1.000632
  H      -4.736577      1.141009     -1.025868
  C      -4.951420     -0.823164     -1.961833
  H      -6.064655     -0.833070     -1.866728
  H      -4.619404     -1.876333     -1.786237
  C      -4.572222     -0.404296     -3.420583
  H      -4.811141      0.675113     -3.562542
  H      -5.231624     -0.962811     -4.128054
  C      -3.123773     -0.699730     -3.785878
  H      -2.905405     -1.766545     -4.001998
  C      -2.087483      0.173881     -3.848600
  H      -1.096337     -0.225405     -4.147533
  C      -2.128212      1.670048     -3.587843
  H      -1.334188      1.926834     -2.841951
  H      -3.092840      1.958020     -3.117369
  C      -1.891138      2.516991     -4.874725
  H      -2.674308      2.257119     -5.625665
  H      -0.921427      2.211350     -5.337149
  C      -1.868561      4.052491     -4.629222
  H      -1.672312      4.562510     -5.604205
  H      -0.998568      4.301662     -3.973670
  C      -3.154375      4.654152     -3.991790
  H      -3.004578      5.754666     -3.870466
  H      -3.285785      4.259221     -2.955039
  C      -4.457763      4.410900     -4.796050
  H      -4.648412      3.314158     -4.889724
  H      -4.322837      4.785658     -5.841666
  C      -5.706061      5.079952     -4.166726
  H      -5.532600      6.181258     -4.074045
  H      -5.836788      4.706299     -3.120152
  C      -7.013686      4.834450     -4.963063
  H      -7.181735      3.733363     -5.061540
  H      -6.885003      5.215060     -6.006459
  C      -8.259192      5.492758     -4.320818
  H      -9.181219      5.297169     -4.915438
  H      -8.138596      6.599031     -4.241742
  H      -8.435749      5.105090     -3.289717
  C      -0.029137     -1.271604     -0.831539
  H       0.922525     -0.690987     -0.795751
  H      -0.672671     -0.787844     -1.602241
  C       0.265151     -2.732207     -1.260108
  H      -0.674972     -3.334825     -1.188990
  H       0.987110     -3.195946     -0.545475
  C       0.821814     -2.844392     -2.703327
  H       1.740333     -2.214811     -2.788782
  H       0.080763     -2.400837     -3.414799
  C       1.128502     -4.302511     -3.135202
  H       1.963297     -4.705250     -2.509127
  H       0.239904     -4.939404     -2.903089
  C       1.474026     -4.475710     -4.639430
  H       1.578941     -5.564242     -4.867491
  H       0.618495     -4.115758     -5.261759
  C       2.771173     -3.739104     -5.093792
  H       3.615144     -4.083233     -4.444319
  H       2.667929     -2.647989     -4.911249
  C       3.119570     -4.010734     -6.546756
  H       3.387180     -5.064073     -6.774702
  C       3.097983     -3.134385     -7.581797
  H       3.378320     -3.521387     -8.584138
  C       2.784143     -1.646814     -7.545344
  H       2.320274     -1.352383     -6.577584
  H       2.023107     -1.421445     -8.332196
  C       4.044924     -0.760874     -7.825947
  H       3.719334      0.299251     -7.963473
  H       4.484424     -1.075236     -8.803793
  C       5.142197     -0.831685     -6.728679
  H       5.371887     -1.902792     -6.520742
  H       6.086240     -0.389439     -7.131535
  C       4.781617     -0.091847     -5.412113
  H       4.622327      0.989329     -5.646079
  H       3.804145     -0.458166     -5.014319
  C       5.851220     -0.215301     -4.290055
  H       5.618081      0.524959     -3.485905
  H       6.845199      0.084141     -4.702822
  C       5.942928     -1.626799     -3.647293
  H       4.928297     -1.916870     -3.279998
  H       6.210773     -2.383410     -4.424543
  C       6.949605     -1.737182     -2.468534
  H       6.671507     -0.998385     -1.676521
  H       6.835599     -2.743295     -1.996936
  C       8.434167     -1.534638     -2.865440
  H       9.111677     -1.702458     -1.996547
  H       8.737826     -2.246409     -3.669883
  H       8.632475     -0.504976     -3.242034
138
Coordinates from ORCA-job /wrk/rja7/qm_final_3_replicates/qm_final_1.1/qm/2/freq E -2722.579440843807
  N       2.198921      0.226262     11.802330
  C       2.149691      1.616222     11.043104
  H       2.625205      2.353320     11.725809
  H       1.080901      1.884881     10.922598
  C       0.798816     -0.048207     12.365280
  H       0.116889     -0.176501     11.494726
  H       0.838239     -0.973482     12.978922
  H       0.495594      0.813212     12.995260
  C       3.208844      0.321472     12.933459
  H       3.252226     -0.649202     13.469616
  H       4.206285      0.555964     12.506976
  H       2.905166      1.123417     13.638121
  C       2.580455     -0.971181     10.912398
  H       3.580845     -0.794059     10.473767
  H       1.804065     -1.080458     10.126762
  H       2.612315     -1.863062     11.574209
  C       2.812627      1.694781      9.642761
  H       2.730741      2.785741      9.384981
  H       3.905157      1.456633      9.702645
  P       0.474894      0.890331      8.523258
  O       0.006948      2.287043      8.897323
  O       0.019453     -0.387531      9.263340
  O       2.233528      0.865740      8.656743
  O       0.372944      0.671907      6.868949
  C       0.388789     -0.657475      6.316567
  H      -0.231073     -1.351720      6.933068
  H       1.433599     -1.064191      6.290768
  C      -0.143768     -0.583063      4.873910
  H       0.428170      0.178722      4.300035
  O      -1.552637     -0.177516      4.933382
  C      -1.992627      0.781475      4.049240
  O      -1.279045      1.362493      3.240271
  C      -3.513373      0.955355      4.162735
  H      -3.747880      2.033584      4.010359
  H      -3.847805      0.664521      5.182418
  C      -0.070714     -1.952642      4.157046
  H      -0.662702     -2.713640      4.713762
  H       0.987616     -2.286718      4.070971
  O      -0.687062     -1.865695      2.837788
  C       0.126949     -1.532162      1.767069
  O       1.346798     -1.488170      1.824723
  C      -0.731887     -1.185510      0.546118
  H      -1.660115     -1.801307      0.563938
  H      -1.061146     -0.132337      0.715917
  C      -4.259700      0.091895      3.089958
  H      -5.345921      0.074248      3.348927
  H      -3.905560     -0.963968      3.173803
  C      -4.077524      0.594572      1.634506
  H      -2.995843      0.762246      1.434886
  H      -4.555026      1.600499      1.530157
  C      -4.652094     -0.364026      0.560003
  H      -5.758757     -0.462982      0.690512
  H      -4.237371     -1.390469      0.720360
  C      -4.332880      0.089244     -0.888278
  H      -3.225760      0.141135     -1.014805
  H      -4.705233      1.133501     -1.038048
  C      -4.938306     -0.823478     -1.983621
  H      -6.051770     -0.821013     -1.891078
  H      -4.619033     -1.881363     -1.812483
  C      -4.551165     -0.401938     -3.439602
  H      -4.774650      0.681519     -3.575915
  H      -5.217594     -0.947042     -4.150997
  C      -3.106770     -0.716913     -3.804852
  H      -2.903723     -1.786371     -4.023015
  C      -2.057651      0.141641     -3.864567
  H      -1.072237     -0.271628     -4.163361
  C      -2.077581      1.637582     -3.600157
  H      -1.279381      1.882348     -2.854751
  H      -3.037597      1.936980     -3.127411
  C      -1.831562      2.485445     -4.884840
  H      -2.616599      2.235346     -5.637082
  H      -0.864302      2.172252     -5.347463
  C      -1.794554      4.019846     -4.634650
  H      -1.597131      4.531536     -5.608567
  H      -0.920359      4.259384     -3.981123
  C      -3.072779      4.629882     -3.990379
  H      -2.914428      5.729086     -3.868100
  H      -3.202137      4.234040     -2.953668
  C      -4.381831      4.396747     -4.788477
  H      -4.578046      3.301275     -4.885245
  H      -4.251480      4.775266     -5.833277
  C      -5.623187      5.068249     -4.148076
  H      -5.443972      6.168143     -4.049618
  H      -5.749283      4.688719     -3.103079
  C      -6.937051      4.833432     -4.937580
  H      -7.109429      3.733674     -5.043278
  H      -6.814133      5.221634     -5.978873
  C      -8.175944      5.490618     -4.281475
  H      -9.102628      5.303171     -4.871448
  H      -8.050911      6.595777     -4.193918
  H      -8.346631      5.094916     -3.252458
  C      -0.004544     -1.300945     -0.813461
  H       0.942506     -0.713034     -0.777469
  H      -0.651252     -0.821705     -1.584348
  C       0.300251     -2.758757     -1.243853
  H      -0.633852     -3.369837     -1.166182
  H       1.031980     -3.216033     -0.535030
  C       0.846151     -2.864636     -2.691597
  H       1.757064     -2.225074     -2.784817
  H       0.094256     -2.428907     -3.396570
  C       1.165416     -4.318958     -3.127050
  H       2.015569     -4.710008     -2.514425
  H       0.289251     -4.967695     -2.880970
  C       1.487674     -4.487960     -4.636796
  H       1.607217     -5.574756     -4.866013
  H       0.614684     -4.143276     -5.243333
  C       2.763100     -3.729544     -5.116045
  H       3.627309     -4.063403     -4.488175
  H       2.648077     -2.641025     -4.925540
  C       3.080817     -3.989022     -6.578218
  H       3.352804     -5.038417     -6.818789
  C       3.027223     -3.106485     -7.606729
  H       3.289080     -3.484293     -8.617554
  C       2.700867     -1.622146     -7.552635
  H       2.244753     -1.341321     -6.577147
  H       1.930127     -1.395424     -8.329461
  C       3.952210     -0.723454     -7.835576
  H       3.617210      0.334791     -7.964750
  H       4.388456     -1.028292     -8.817829
  C       5.055911     -0.792432     -6.744363
  H       5.286146     -1.863255     -6.535650
  H       5.998158     -0.351988     -7.153292
  C       4.702377     -0.049860     -5.427529
  H       4.545497      1.031431     -5.662597
  H       3.725088     -0.412146     -5.025165
  C       5.775375     -0.174759     -4.308772
  H       5.549620      0.570245     -3.506892
  H       6.769321      0.117603     -4.726561
  C       5.861291     -1.583845     -3.659856
  H       4.847257     -1.863928     -3.283235
  H       6.116812     -2.346570     -4.435203
  C       6.875888     -1.695987     -2.488046
  H       6.611131     -0.948616     -1.699554
  H       6.755382     -2.697407     -2.008219
  C       8.359290     -1.511036     -2.897904
  H       9.041909     -1.676555     -2.032606
  H       8.650182     -2.233203     -3.697797
  H       8.563631     -0.486981     -3.286313
138
Coordinates from ORCA-job /wrk/rja7/qm_final_3_replicates/qm_final_1.1/qm/2/freq E -2722.579466981234
  N       2.152435      0.221982     11.842682
  C       2.098103      1.617767     11.095484
  H       2.561088      2.353091     11.788730
  H       1.027921      1.877701     10.968147
  C       0.752295     -0.065128     12.399044
  H       0.073219     -0.189705     11.525845
  H       0.795232     -0.995331     13.004961
  H       0.442171      0.789217     13.035362
  C       3.157778      0.312675     12.978082
  H       3.202652     -0.661917     13.507100
  H       4.155781      0.553935     12.556832
  H       2.847871      1.107888     13.687644
  C       2.542377     -0.966158     10.942803
  H       3.543416     -0.781429     10.509020
  H       1.769054     -1.070425     10.153162
  H       2.574984     -1.864326     11.596115
  C       2.773669      1.715696      9.701800
  H       2.683706      2.808115      9.453211
  H       3.867714      1.487238      9.770608
  P       0.454630      0.908017      8.549735
  O      -0.022673      2.302812      8.919279
  O      -0.003009     -0.371933      9.285292
  O       2.211622      0.890826      8.702450
  O       0.371576      0.689733      6.894294
  C       0.408441     -0.638520      6.340578
  H      -0.208862     -1.340957      6.950458
  H       1.458348     -1.032465      6.324104
  C      -0.111454     -0.569123      4.893536
  H       0.453848      0.202684      4.326449
  O      -1.527171     -0.186204      4.941319
  C      -1.977224      0.763501      4.052219
  O      -1.268783      1.352453      3.244479
  C      -3.501285      0.913438      4.157069
  H      -3.750616      1.989660      4.013105
  H      -3.837503      0.609375      5.172266
  C      -0.010098     -1.936136      4.175155
  H      -0.588943     -2.709095      4.729299
  H       1.054604     -2.249805      4.091207
  O      -0.623003     -1.858020      2.853944
  C       0.188806     -1.510123      1.785869
  O       1.407580     -1.445242      1.846999
  C      -0.672249     -1.183506      0.561145
  H      -1.590794     -1.813638      0.581186
  H      -1.018655     -0.134889      0.724271
  C      -4.229563      0.049600      3.072408
  H      -5.316899      0.015608      3.325042
  H      -3.862071     -1.002297      3.149146
  C      -4.046420      0.566660      1.622703
  H      -2.965649      0.743061      1.427662
  H      -4.529791      1.570644      1.525732
  C      -4.611673     -0.385873      0.538154
  H      -5.718145     -0.492640      0.663852
  H      -4.190827     -1.411153      0.690962
  C      -4.288793      0.081346     -0.904843
  H      -3.181406      0.132697     -1.028552
  H      -4.659107      1.127671     -1.045301
  C      -4.893765     -0.818753     -2.010821
  H      -6.007578     -0.811587     -1.922922
  H      -4.580816     -1.879981     -1.848408
  C      -4.497784     -0.385446     -3.460803
  H      -4.714219      0.700452     -3.588234
  H      -5.163512     -0.919960     -4.180919
  C      -3.052918     -0.705534     -3.820632
  H      -2.853515     -1.775706     -4.038822
  C      -1.999729      0.148537     -3.874062
  H      -1.015011     -0.268921     -4.169587
  C      -2.015154      1.644572     -3.610063
  H      -1.213302      1.888977     -2.868499
  H      -2.972522      1.946939     -3.133789
  C      -1.772989      2.490516     -4.896865
  H      -2.558220      2.237365     -5.647840
  H      -0.805334      2.178876     -5.359824
  C      -1.738989      4.025245     -4.649438
  H      -1.545964      4.535751     -5.624896
  H      -0.863522      4.268514     -3.999002
  C      -3.016673      4.632401     -4.002066
  H      -2.862989      5.733094     -3.887312
  H      -3.138968      4.241543     -2.962620
  C      -4.328518      4.386885     -4.791915
  H      -4.519804      3.289590     -4.878726
  H      -4.205606      4.757963     -5.840244
  C      -5.570023      5.056841     -4.150148
  H      -5.395090      6.158021     -4.058488
  H      -5.690349      4.682418     -3.102613
  C      -6.886335      4.811478     -4.932698
  H      -7.053334      3.710292     -5.032031
  H      -6.769930      5.195016     -5.976493
  C      -8.125777      5.465560     -4.274480
  H      -9.053821      5.271211     -4.860017
  H      -8.005516      6.571671     -4.192056
  H      -8.290447      5.073458     -3.243084
  C       0.057603     -1.295677     -0.797140
  H       0.989297     -0.683021     -0.770913
  H      -0.602507     -0.842286     -1.572623
  C       0.396633     -2.750891     -1.210800
  H      -0.519194     -3.385594     -1.109090
  H       1.151809     -3.177159     -0.507247
  C       0.920182     -2.865569     -2.665879
  H       1.814148     -2.206585     -2.785758
  H       0.145432     -2.458840     -3.363321
  C       1.264427     -4.319383     -3.084450
  H       2.147451     -4.674740     -2.497282
  H       0.416317     -4.986405     -2.793168
  C       1.531356     -4.509906     -4.602049
  H       1.674395     -5.597181     -4.815249
  H       0.623498     -4.203525     -5.177242
  C       2.762290     -3.724974     -5.148879
  H       3.665237     -4.031041     -4.562592
  H       2.630476     -2.637760     -4.962481
  C       3.013182     -3.990512     -6.623071
  H       3.275395     -5.040458     -6.871773
  C       2.915497     -3.110360     -7.650134
  H       3.135417     -3.489758     -8.670346
  C       2.594423     -1.625333     -7.582526
  H       2.155577     -1.349072     -6.597703
  H       1.812548     -1.390794     -8.345529
  C       3.846341     -0.731194     -7.875215
  H       3.513991      0.327154     -8.010831
  H       4.279790     -1.043652     -8.856185
  C       4.950220     -0.796384     -6.783370
  H       5.161758     -1.866508     -6.550467
  H       5.900435     -0.384228     -7.203172
  C       4.611697     -0.016295     -5.484570
  H       4.483361      1.063119     -5.744479
  H       3.623971     -0.343436     -5.076750
  C       5.678217     -0.142898     -4.359769
  H       5.476147      0.631687     -3.579875
  H       6.681134      0.106252     -4.783940
  C       5.718437     -1.534379     -3.669884
  H       4.699016     -1.763005     -3.273528
  H       5.934367     -2.329665     -4.424160
  C       6.741708     -1.650091     -2.505805
  H       6.520650     -0.863190     -1.742795
  H       6.581776     -2.626847     -1.988239
  C       8.226641     -1.548434     -2.938877
  H       8.912437     -1.707009     -2.074870
  H       8.475196     -2.315776     -3.710438
  H       8.469591     -0.551750     -3.373421
138
Coordinates from ORCA-job /wrk/rja7/qm_final_3_replicates/qm_final_1.1/qm/2/freq E -2722.579509919086
  N       2.154928      0.226002     11.854037
  C       2.089734      1.618158     11.100971
  H       2.551855      2.358573     11.789291
  H       1.017577      1.871563     10.977574
  C       0.759466     -0.066554     12.420155
  H       0.075276     -0.198588     11.551954
  H       0.811623     -0.994224     13.029278
  H       0.448815      0.788361     13.055398
  C       3.165546      0.327416     12.983703
  H       3.217421     -0.644134     13.517691
  H       4.160261      0.570710     12.555868
  H       2.855842      1.125228     13.690300
  C       2.546487     -0.963234     10.956347
  H       3.543680     -0.773634     10.515933
  H       1.768679     -1.075007     10.172434
  H       2.589231     -1.858716     11.612773
  C       2.758181      1.713682      9.703485
  H       2.660571      2.804342      9.450348
  H       3.853887      1.492290      9.768512
  P       0.440449      0.886766      8.559638
  O      -0.044565      2.278994      8.928702
  O      -0.007909     -0.394671      9.297939
  O       2.197953      0.880682      8.709396
  O       0.356717      0.665802      6.904673
  C       0.393507     -0.662522      6.350939
  H      -0.221964     -1.365768      6.961810
  H       1.443735     -1.055437      6.331782
  C      -0.128659     -0.591594      4.904847
  H       0.439019      0.177965      4.337079
  O      -1.542411     -0.201864      4.953761
  C      -1.985111      0.752000      4.064931
  O      -1.271206      1.337335      3.259405
  C      -3.508132      0.912583      4.166253
  H      -3.750679      1.989726      4.018087
  H      -3.848010      0.612946      5.181580
  C      -0.033456     -1.958939      4.186058
  H      -0.618049     -2.729590      4.737224
  H       1.029891     -2.278262      4.105496
  O      -0.641928     -1.877578      2.863014
  C       0.174296     -1.531183      1.798466
  O       1.393078     -1.469791      1.863564
  C      -0.682000     -1.200406      0.571573
  H      -1.606649     -1.821423      0.592315
  H      -1.018362     -0.147929      0.730346
  C      -4.239005      0.050242      3.082087
  H      -5.327218      0.023119      3.331644
  H      -3.877934     -1.003620      3.162155
  C      -4.048809      0.564061      1.631850
  H      -2.966879      0.738080      1.441389
  H      -4.530540      1.568403      1.530714
  C      -4.610257     -0.389977      0.546698
  H      -5.717645     -0.493850      0.666651
  H      -4.192689     -1.415853      0.704775
  C      -4.279022      0.072599     -0.896085
  H      -3.171035      0.124785     -1.013480
  H      -4.649585      1.117985     -1.042671
  C      -4.875884     -0.833281     -2.001905
  H      -5.990058     -0.830096     -1.918051
  H      -4.559191     -1.892608     -1.834393
  C      -4.477512     -0.403623     -3.452432
  H      -4.701241      0.680231     -3.585472
  H      -5.137302     -0.945964     -4.172177
  C      -3.029354     -0.715711     -3.805372
  H      -2.822196     -1.786232     -4.014353
  C      -1.981774      0.144831     -3.865236
  H      -0.994077     -0.270110     -4.154730
  C      -2.003678      1.642879     -3.612912
  H      -1.208306      1.894209     -2.866463
  H      -2.965459      1.946775     -3.146389
  C      -1.751466      2.479389     -4.904070
  H      -2.536398      2.227509     -5.655902
  H      -0.784781      2.157735     -5.362158
  C      -1.706685      4.015683     -4.667037
  H      -1.509404      4.518987     -5.645379
  H      -0.829577      4.256421     -4.017767
  C      -2.980289      4.636669     -4.025368
  H      -2.818033      5.736541     -3.914488
  H      -3.107957      4.250861     -2.984730
  C      -4.291873      4.399991     -4.818382
  H      -4.490314      3.304261     -4.907124
  H      -4.164227      4.771021     -5.866173
  C      -5.530262      5.077742     -4.178553
  H      -5.348144      6.177694     -4.086016
  H      -5.654371      4.703570     -3.131342
  C      -6.846926      4.841511     -4.962954
  H      -7.021734      3.741606     -5.062718
  H      -6.726654      5.224432     -6.006571
  C      -8.082508      5.504453     -4.306299
  H      -9.011360      5.316407     -4.892609
  H      -7.954609      6.609737     -4.224210
  H      -8.250907      5.113865     -3.274921
  C       0.048769     -1.323219     -0.785225
  H       0.985907     -0.719726     -0.756987
  H      -0.605748     -0.864259     -1.562246
  C       0.376767     -2.780901     -1.198357
  H      -0.543180     -3.409879     -1.098043
  H       1.128196     -3.212835     -0.494140
  C       0.900644     -2.896043     -2.653246
  H       1.794318     -2.236593     -2.772489
  H       0.126189     -2.489570     -3.351047
  C       1.248717     -4.348715     -3.072733
  H       2.131370     -4.702161     -2.483916
  H       0.402133     -5.018725     -2.783720
  C       1.520647     -4.535477     -4.589843
  H       1.671945     -5.621446     -4.804054
  H       0.612076     -4.234762     -5.167023
  C       2.745829     -3.738467     -5.132159
  H       3.649344     -4.033286     -4.540843
  H       2.601105     -2.652685     -4.947006
  C       3.007939     -4.001544     -6.605053
  H       3.284695     -5.048313     -6.851397
  C       2.902794     -3.123768     -7.633857
  H       3.131616     -3.501366     -8.652762
  C       2.556514     -1.643966     -7.569540
  H       2.113629     -1.374253     -6.584652
  H       1.768844     -1.425644     -8.331487
  C       3.788689     -0.725259     -7.868072
  H       3.433565      0.326462     -7.998040
  H       4.221542     -1.025833     -8.853030
  C       4.902882     -0.768920     -6.786013
  H       5.150074     -1.834366     -6.567811
  H       5.836067     -0.322459     -7.208904
  C       4.551494     -0.014834     -5.475219
  H       4.381105      1.061859     -5.722082
  H       3.581494     -0.382359     -5.060022
  C       5.636477     -0.113456     -4.365516
  H       5.415016      0.643303     -3.573392
  H       6.623103      0.180441     -4.799175
  C       5.741295     -1.510655     -3.695239
  H       4.738407     -1.782705     -3.284928
  H       5.973944     -2.287742     -4.463529
  C       6.788683     -1.602254     -2.550442
  H       6.554845     -0.831058     -1.775303
  H       6.671489     -2.588995     -2.040328
  C       8.261292     -1.446672     -3.008716
  H       8.967271     -1.589560     -2.158312
  H       8.521428     -2.199097     -3.791012
  H       8.463294     -0.438673     -3.438094
138
Coordinates from ORCA-job /wrk/rja7/qm_final_3_replicates/qm_final_1.1/qm/2/freq E -2722.579467973767
  N       2.092825      0.225575     11.901227
  C       2.038761      1.617999     11.147103
  H       2.487280      2.358449     11.844170
  H       0.968931      1.870986     11.004708
  C       0.687059     -0.069473     12.440553
  H       0.020405     -0.202044     11.558847
  H       0.728979     -0.997429     13.050013
  H       0.363088      0.784491     13.070305
  C       3.082517      0.329752     13.049010
  H       3.128804     -0.641753     13.583515
  H       4.083890      0.577010     12.639240
  H       2.757893      1.126344     13.750177
  C       2.504036     -0.962281     11.011897
  H       3.508208     -0.768546     10.589114
  H       1.740158     -1.077874     10.215305
  H       2.539547     -1.856633     11.670259
  C       2.730689      1.712941      9.761643
  H       2.638966      2.803601      9.506493
  H       3.824939      1.490154      9.844341
  P       0.429099      0.882357      8.590407
  O      -0.063918      2.270247      8.964805
  O      -0.024344     -0.405450      9.313957
  O       2.184925      0.879232      8.760360
  O       0.363035      0.673493      6.933397
  C       0.407369     -0.651927      6.372951
  H      -0.216044     -1.358265      6.972026
  H       1.457850     -1.044412      6.365668
  C      -0.097753     -0.572943      4.920989
  H       0.477509      0.198572      4.363591
  O      -1.510518     -0.180414      4.956595
  C      -1.940336      0.782185      4.071378
  O      -1.216330      1.373543      3.279451
  C      -3.463351      0.945521      4.160110
  H      -3.703674      2.021590      4.002188
  H      -3.811791      0.652171      5.174412
  C      -0.001055     -1.935398      4.193585
  H      -0.597855     -2.706897      4.730303
  H       1.060941     -2.261588      4.123808
  O      -0.593650     -1.835930      2.864426
  C       0.237662     -1.497477      1.809274
  O       1.457091     -1.465838      1.882490
  C      -0.602727     -1.125696      0.582979
  H      -1.545453     -1.719125      0.590122
  H      -0.908840     -0.065638      0.754758
  C      -4.184831      0.073922      3.077168
  H      -5.274984      0.048243      3.318141
  H      -3.823876     -0.978919      3.169463
  C      -3.983974      0.573176      1.623051
  H      -2.900338      0.745915      1.437587
  H      -4.465910      1.575793      1.508058
  C      -4.538360     -0.393801      0.545570
  H      -5.645874     -0.499202      0.663380
  H      -4.119039     -1.416965      0.715530
  C      -4.206289      0.055426     -0.900869
  H      -3.098248      0.107791     -1.018274
  H      -4.578086      1.098927     -1.057092
  C      -4.801846     -0.861385     -1.998344
  H      -5.916115     -0.857913     -1.915191
  H      -4.484868     -1.918819     -1.820453
  C      -4.403547     -0.443853     -3.452027
  H      -4.625679      0.639357     -3.592823
  H      -5.064868     -0.990641     -4.166913
  C      -2.956619     -0.760094     -3.805589
  H      -2.751074     -1.831132     -4.013169
  C      -1.909300      0.100056     -3.868510
  H      -0.921544     -0.314335     -4.158115
  C      -1.933858      1.597801     -3.615729
  H      -1.135632      1.849949     -2.872688
  H      -2.894220      1.897922     -3.144145
  C      -1.691518      2.437548     -4.906272
  H      -2.477344      2.180703     -5.655539
  H      -0.724187      2.124025     -5.368495
  C      -1.660089      3.973683     -4.666270
  H      -1.467518      4.480755     -5.643583
  H      -0.784925      4.221647     -4.017004
  C      -2.939361      4.580967     -4.021840
  H      -2.786464      5.681515     -3.904715
  H      -3.064148      4.188905     -2.983255
  C      -4.249263      4.336760     -4.815271
  H      -4.437222      3.239626     -4.910718
  H      -4.126042      4.715455     -5.860861
  C      -5.493671      4.998383     -4.170128
  H      -5.322651      6.099571     -4.071706
  H      -5.612084      4.617202     -3.124804
  C      -6.808850      4.753247     -4.953906
  H      -6.972867      3.652309     -5.060167
  H      -6.694235      5.143798     -5.995301
  C      -8.049893      5.399563     -4.291040
  H      -8.978009      5.205542     -4.876618
  H      -7.933229      6.505550     -4.202555
  H      -8.212161      5.001020     -3.261764
  C       0.130633     -1.253145     -0.772294
  H       1.091342     -0.687445     -0.730134
  H      -0.501022     -0.756056     -1.544551
  C       0.399439     -2.717008     -1.205996
  H      -0.544962     -3.309441     -1.110093
  H       1.135623     -3.187763     -0.510684
  C       0.910359     -2.835895     -2.665046
  H       1.827443     -2.209275     -2.783711
  H       0.147939     -2.392699     -3.353519
  C       1.199436     -4.296287     -3.102662
  H       2.080180     -4.685410     -2.533801
  H       0.335803     -4.938752     -2.801863
  C       1.435696     -4.478528     -4.626116
  H       1.549915     -5.566509     -4.852672
  H       0.525956     -4.145355     -5.183161
  C       2.672849     -3.712303     -5.184229
  H       3.578461     -4.041414     -4.614772
  H       2.564266     -2.625449     -4.982083
  C       2.897865     -3.963604     -6.664829
  H       3.147295     -5.013019     -6.928584
  C       2.786953     -3.072525     -7.681492
  H       2.982789     -3.443777     -8.709506
  C       2.472723     -1.586608     -7.593534
  H       2.045107     -1.320490     -6.600808
  H       1.681838     -1.342282     -8.343962
  C       3.720754     -0.690622     -7.894651
  H       3.386367      0.368305     -8.020402
  H       4.143751     -0.996652     -8.882239
  C       4.837648     -0.758383     -6.816975
  H       5.054829     -1.828661     -6.591799
  H       5.781595     -0.342490     -7.247221
  C       4.514901      0.017637     -5.511778
  H       4.377304      1.096630     -5.768427
  H       3.535248     -0.314882     -5.089133
  C       5.601204     -0.103745     -4.405686
  H       5.407899      0.669088     -3.621862
  H       6.595121      0.153236     -4.846499
  C       5.663129     -1.495270     -3.719302
  H       4.653941     -1.728797     -3.300954
  H       5.865663     -2.289308     -4.478661
  C       6.712373     -1.607354     -2.577968
  H       6.510047     -0.817023     -1.813373
  H       6.562888     -2.581667     -2.052600
  C       8.187298     -1.511998     -3.045087
  H       8.891674     -1.670003     -2.196015
  H       8.415278     -2.284272     -3.818000
  H       8.425053     -0.517910     -3.488421
138
Coordinates from ORCA-job /wrk/rja7/qm_final_3_replicates/qm_final_1.1/qm/2/freq E -2722.579555312882
  N       2.116348      0.228952     11.885760
  C       2.055492      1.622214     11.134163
  H       2.508331      2.362508     11.828634
  H       0.984262      1.873657     11.000071
  C       0.715297     -0.067552     12.435584
  H       0.041533     -0.198820     11.559225
  H       0.762237     -0.996466     13.043188
  H       0.395797      0.785411     13.069052
  C       3.114760      0.331311     13.026382
  H       3.163462     -0.640722     13.559696
  H       4.113282      0.577543     12.609183
  H       2.795716      1.127646     13.730381
  C       2.520683     -0.957876     10.991077
  H       3.521949     -0.764090     10.561710
  H       1.751004     -1.070725     10.199540
  H       2.559637     -1.853720     11.647241
  C       2.737003      1.720406      9.743627
  H       2.640911      2.811168      9.490620
  H       3.832293      1.499738      9.818319
  P       0.430020      0.890041      8.581477
  O      -0.060657      2.280342      8.950315
  O      -0.021441     -0.393844      9.313412
  O       2.186364      0.887094      8.744504
  O       0.358889      0.672627      6.925664
  C       0.403851     -0.654717      6.370066
  H      -0.214234     -1.360649      6.975105
  H       1.455488     -1.044120      6.358836
  C      -0.107785     -0.582970      4.919825
  H       0.460165      0.190942      4.358272
  O      -1.523575     -0.199689      4.960160
  C      -1.964735      0.756678      4.073154
  O      -1.248014      1.350747      3.276562
  C      -3.488985      0.909972      4.166092
  H      -3.736304      1.985414      4.014106
  H      -3.832615      0.610570      5.180255
  C       0.000050     -1.947720      4.197472
  H      -0.583692     -2.723447      4.742346
  H       1.065706     -2.260891      4.123007
  O      -0.600604     -1.866694      2.870757
  C       0.219229     -1.516502      1.810198
  O       1.437649     -1.453686      1.879742
  C      -0.633707     -1.179786      0.582400
  H      -1.561920     -1.795315      0.601896
  H      -0.963788     -0.125289      0.741709
  C      -4.209398      0.040939      3.080523
  H      -5.298834      0.008772      3.323960
  H      -3.843523     -1.010829      3.165726
  C      -4.014334      0.551785      1.629647
  H      -2.932342      0.731140      1.443800
  H      -4.501272      1.553012      1.523511
  C      -4.566118     -0.408472      0.544863
  H      -5.672895     -0.520263      0.663742
  H      -4.141330     -1.430999      0.704740
  C      -4.237487      0.055008     -0.898177
  H      -3.129803      0.112954     -1.016408
  H      -4.613545      1.098369     -1.044953
  C      -4.829982     -0.854594     -2.003330
  H      -5.944361     -0.853603     -1.921816
  H      -4.511116     -1.912720     -1.833013
  C      -4.428374     -0.427162     -3.453538
  H      -4.649626      0.657051     -3.587749
  H      -5.088087     -0.968987     -4.173718
  C      -2.980610     -0.743408     -3.803939
  H      -2.776707     -1.814216     -4.014501
  C      -1.930179      0.113609     -3.860120
  H      -0.943224     -0.303980     -4.148124
  C      -1.947517      1.610630     -3.602607
  H      -1.154073      1.855888     -2.852099
  H      -2.909926      1.915601     -3.138236
  C      -1.687750      2.450993     -4.889518
  H      -2.469168      2.201874     -5.645929
  H      -0.719154      2.129851     -5.343873
  C      -1.644581      3.986747     -4.647732
  H      -1.441384      4.492813     -5.623386
  H      -0.771537      4.226211     -3.992486
  C      -2.923167      4.605312     -4.012885
  H      -2.762804      5.704921     -3.897125
  H      -3.057986      4.216182     -2.974467
  C      -4.228765      4.369939     -4.816122
  H      -4.425278      3.274300     -4.910044
  H      -4.093521      4.744274     -5.861812
  C      -5.472708      5.044694     -4.183881
  H      -5.292639      6.144608     -4.087329
  H      -5.604133      4.667806     -3.138528
  C      -6.782957      4.808903     -4.978840
  H      -6.956824      3.709091     -5.081213
  H      -6.654668      5.192995     -6.021045
  C      -8.023784      5.470902     -4.331165
  H      -8.948189      5.282633     -4.924415
  H      -7.897150      6.576193     -4.247678
  H      -8.199751      5.079763     -3.301271
  C       0.096572     -1.306267     -0.774436
  H       1.040383     -0.713076     -0.744098
  H      -0.552640     -0.838096     -1.550294
  C       0.407977     -2.766599     -1.191558
  H      -0.517122     -3.387083     -1.084981
  H       1.160284     -3.206809     -0.493467
  C       0.917689     -2.884655     -2.651221
  H       1.816346     -2.233349     -2.777961
  H       0.140519     -2.469416     -3.340510
  C       1.248267     -4.339347     -3.078153
  H       2.141320     -4.698045     -2.508492
  H       0.404645     -5.004765     -2.770677
  C       1.486568     -4.524922     -4.601206
  H       1.631378     -5.610712     -4.820630
  H       0.566526     -4.221416     -5.158386
  C       2.699810     -3.726870     -5.167171
  H       3.614905     -4.021265     -4.593763
  H       2.557251     -2.641787     -4.977228
  C       2.934764     -3.986628     -6.645109
  H       3.205866     -5.033202     -6.898580
  C       2.814754     -3.105829     -7.669987
  H       3.023719     -3.482308     -8.693502
  C       2.476882     -1.624110     -7.596723
  H       2.038842     -1.356747     -6.608977
  H       1.687129     -1.398713     -8.354264
  C       3.711678     -0.709115     -7.897602
  H       3.359528      0.343180     -8.030556
  H       4.143656     -1.013602     -8.881752
  C       4.826079     -0.751389     -6.815867
  H       5.065697     -1.816419     -6.588557
  H       5.762396     -0.315918     -7.243360
  C       4.482140      0.018833     -5.512555
  H       4.322958      1.094600     -5.770395
  H       3.508170     -0.334084     -5.093878
  C       5.566490     -0.079640     -4.402390
  H       5.356033      0.690740     -3.620565
  H       6.556973      0.195101     -4.840277
  C       5.652188     -1.468438     -3.712783
  H       4.646961     -1.718209     -3.294155
  H       5.868684     -2.260690     -4.470138
  C       6.702793     -1.559555     -2.570815
  H       6.488136     -0.769238     -1.809589
  H       6.568177     -2.533737     -2.041135
  C       8.176142     -1.443508     -3.038162
  H       8.882592     -1.586878     -2.188182
  H       8.416150     -2.215529     -3.807634
  H       8.398954     -0.447721     -3.485505
138
Coordinates from ORCA-job /wrk/rja7/qm_final_3_replicates/qm_final_1.1/qm/2/freq E -2722.579563419409
  N       2.093700      0.207256     11.912335
  C       2.033938      1.605701     11.170459
  H       2.482076      2.341721     11.872497
  H       0.962723      1.855725     11.033372
  C       0.692491     -0.092633     12.459699
  H       0.018826     -0.217573     11.582445
  H       0.738948     -1.025565     13.061168
  H       0.373019      0.756245     13.098692
  C       3.091563      0.301455     13.054193
  H       3.138872     -0.673963     13.581480
  H       4.090515      0.549129     12.638970
  H       2.772535      1.093634     13.762847
  C       2.498111     -0.973743     11.009314
  H       3.498823     -0.776585     10.580553
  H       1.728225     -1.081196     10.217076
  H       2.537425     -1.874005     11.659393
  C       2.722025      1.716195      9.783872
  H       2.624083      2.808618      9.538783
  H       3.817510      1.497993      9.862431
  P       0.423067      0.893366      8.601832
  O      -0.069200      2.283154      8.970532
  O      -0.032653     -0.391736      9.329013
  O       2.178453      0.889481      8.775352
  O       0.361669      0.679393      6.945189
  C       0.412216     -0.646186      6.386034
  H      -0.206261     -1.355521      6.986660
  H       1.465003     -1.032659      6.377596
  C      -0.094330     -0.571297      4.934301
  H       0.473435      0.206091      4.377371
  O      -1.511397     -0.192714      4.971249
  C      -1.953730      0.764675      4.085922
  O      -1.237508      1.362784      3.291973
  C      -3.478770      0.911269      4.175825
  H      -3.730424      1.985936      4.025289
  H      -3.823326      0.608657      5.188712
  C       0.019875     -1.933196      4.207763
  H      -0.562453     -2.712669      4.748751
  H       1.086746     -2.242539      4.134626
  O      -0.577650     -1.848924      2.879863
  C       0.244582     -1.491904      1.823437
  O       1.462595     -1.426382      1.897215
  C      -0.604635     -1.154431      0.593310
  H      -1.534377     -1.767610      0.610903
  H      -0.932218     -0.098823      0.750602
  C      -4.192971      0.040908      3.087236
  H      -5.283114      0.005118      3.326993
  H      -3.823845     -1.009680      3.172876
  C      -3.994721      0.552744      1.637263
  H      -2.912892      0.736860      1.455305
  H      -4.485867      1.551721      1.529052
  C      -4.537888     -0.410739      0.551074
  H      -5.644625     -0.527379      0.665621
  H      -4.108946     -1.431079      0.714043
  C      -4.205619      0.052237     -0.891232
  H      -3.097755      0.115459     -1.005553
  H      -4.586152      1.093519     -1.041280
  C      -4.789553     -0.862077     -1.997068
  H      -5.904049     -0.868845     -1.917638
  H      -4.463711     -1.917922     -1.825490
  C      -4.388823     -0.432232     -3.446734
  H      -4.620065      0.649691     -3.582421
  H      -5.041877     -0.980897     -4.167888
  C      -2.937470     -0.734933     -3.793919
  H      -2.721726     -1.805128     -3.995773
  C      -1.896930      0.133555     -3.858015
  H      -0.905446     -0.275401     -4.142997
  C      -1.931033      1.632628     -3.614510
  H      -1.141140      1.893590     -2.865505
  H      -2.897257      1.931501     -3.153879
  C      -1.679388      2.463839     -4.908844
  H      -2.460466      2.203259     -5.661730
  H      -0.709486      2.145429     -5.362440
  C      -1.645615      4.001726     -4.679971
  H      -1.448793      4.501033     -5.660421
  H      -0.772061      4.252165     -4.029566
  C      -2.925868      4.617242     -4.045609
  H      -2.770546      5.718217     -3.936197
  H      -3.056458      4.232861     -3.004815
  C      -4.232199      4.371436     -4.844451
  H      -4.423274      3.274409     -4.933569
  H      -4.101723      4.742506     -5.891915
  C      -5.477961      5.042237     -4.211548
  H      -5.302751      6.143276     -4.118834
  H      -5.605321      4.667992     -3.164743
  C      -6.788905      4.797868     -5.002783
  H      -6.957410      3.696918     -5.101911
  H      -6.665051      5.179896     -6.046300
  C      -8.031543      5.455393     -4.353985
  H      -8.956243      5.261391     -4.944909
  H      -7.909910      6.561467     -4.273280
  H      -8.203503      5.065820     -3.322815
  C       0.128825     -1.284456     -0.761541
  H       1.073259     -0.692120     -0.730477
  H      -0.518111     -0.817626     -1.540180
  C       0.438728     -2.746497     -1.173771
  H      -0.485862     -3.366573     -1.060431
  H       1.193881     -3.183731     -0.476776
  C       0.941865     -2.871794     -2.635037
  H       1.838702     -2.219498     -2.769866
  H       0.160416     -2.462108     -3.322776
  C       1.273303     -4.328560     -3.054505
  H       2.176072     -4.677976     -2.494562
  H       0.437451     -4.995458     -2.729571
  C       1.491444     -4.525673     -4.579060
  H       1.643975     -5.611896     -4.790976
  H       0.560338     -4.236158     -5.125281
  C       2.687985     -3.720266     -5.169052
  H       3.614170     -3.998224     -4.605166
  H       2.535845     -2.634860     -4.988211
  C       2.907787     -3.992269     -6.647262
  H       3.175890     -5.041046     -6.894694
  C       2.780957     -3.119264     -7.677854
  H       2.982750     -3.503861     -8.699802
  C       2.443682     -1.636967     -7.613342
  H       2.008336     -1.363500     -6.626048
  H       1.651854     -1.416077     -8.370057
  C       3.677925     -0.724384     -7.921883
  H       3.325918      0.327343     -8.059897
  H       4.107893     -1.034415     -8.905160
  C       4.793756     -0.761764     -6.841373
  H       5.034970     -1.825787     -6.610524
  H       5.729300     -0.327250     -7.271582
  C       4.450380      0.012520     -5.540356
  H       4.289831      1.087279     -5.801562
  H       3.477194     -0.340078     -5.119592
  C       5.535833     -0.081845     -4.430997
  H       5.327454      0.692196     -3.652228
  H       6.526064      0.189926     -4.871281
  C       5.620525     -1.467526     -3.734933
  H       4.616906     -1.710550     -3.308398
  H       5.828421     -2.264707     -4.489441
  C       6.678206     -1.556942     -2.599395
  H       6.474672     -0.758490     -1.843623
  H       6.539904     -2.525375     -2.060213
  C       8.149030     -1.456266     -3.078106
  H       8.860396     -1.596361     -2.231670
  H       8.377765     -2.237681     -3.841465
  H       8.375953     -0.466610     -3.536849
138
Coordinates from ORCA-job /wrk/rja7/qm_final_3_replicates/qm_final_1.1/qm/2/freq E -2722.579574914895
  N       2.094556      0.204380     11.910462
  C       2.034170      1.603687     11.170100
  H       2.481909      2.338970     11.873141
  H       0.962884      1.853655     11.033514
  C       0.693459     -0.096845     12.457239
  H       0.020190     -0.220635     11.579527
  H       0.740049     -1.030605     13.057408
  H       0.373461      0.751026     13.097342
  C       3.092559      0.298114     13.052404
  H       3.140673     -0.677786     13.578701
  H       4.091210      0.546916     12.637117
  H       2.772954      1.089419     13.761746
  C       2.499938     -0.975535     11.006313
  H       3.500312     -0.776805     10.577524
  H       1.729785     -1.083074     10.214361
  H       2.540441     -1.876179     11.655783
  C       2.721627      1.715783      9.783532
  H       2.623640      2.808477      9.539636
  H       3.817212      1.497584      9.861172
  P       0.422279      0.892757      8.601635
  O      -0.070912      2.281966      8.971161
  O      -0.032288     -0.393035      9.328209
  O       2.177754      0.889939      8.774438
  O       0.360842      0.679660      6.944947
  C       0.411036     -0.645509      6.384674
  H      -0.208104     -1.355095      6.984278
  H       1.463706     -1.032278      6.376585
  C      -0.094593     -0.568879      4.932607
  H       0.473882      0.208941      4.377004
  O      -1.511484     -0.189744      4.969118
  C      -1.952534      0.770202      4.085867
  O      -1.235154      1.370348      3.294521
  C      -3.477486      0.918130      4.175450
  H      -3.728244      1.992580      4.022176
  H      -3.822218      0.618546      5.189217
  C       0.020264     -1.929786      4.204428
  H      -0.562652     -2.709919      4.743834
  H       1.087265     -2.238889      4.132198
  O      -0.575771     -1.844334      2.875910
  C       0.247474     -1.485125      1.820906
  O       1.465314     -1.418718      1.896352
  C      -0.600478     -1.145569      0.590375
  H      -1.531990     -1.755933      0.608330
  H      -0.924336     -0.088699      0.747046
  C      -4.192332      0.045444      3.089304
  H      -5.282796      0.012324      3.327957
  H      -3.825281     -1.005551      3.178769
  C      -3.991424      0.552581      1.637983
  H      -2.909189      0.735264      1.457163
  H      -4.481817      1.551507      1.526117
  C      -4.533966     -0.413516      0.553831
  H      -5.640555     -0.530824      0.669404
  H      -4.104235     -1.433250      0.718365
  C      -4.203193      0.047450     -0.889408
  H      -3.095491      0.112511     -1.004771
  H      -4.585667      1.087814     -1.040818
  C      -4.786251     -0.869667     -1.993409
  H      -5.900633     -0.878889     -1.912796
  H      -4.457629     -1.924498     -1.821003
  C      -4.387568     -0.440603     -3.443896
  H      -4.620559      0.640907     -3.579993
  H      -5.040669     -0.990843     -4.163818
  C      -2.936420     -0.742050     -3.792722
  H      -2.720271     -1.812068     -3.995139
  C      -1.896470      0.126980     -3.858193
  H      -0.905226     -0.281353     -4.144915
  C      -1.930314      1.625659     -3.612368
  H      -1.141593      1.884933     -2.861533
  H      -2.897187      1.923685     -3.152598
  C      -1.676729      2.459083     -4.904759
  H      -2.457081      2.200049     -5.658951
  H      -0.706528      2.140972     -5.357932
  C      -1.642750      3.996634     -4.673182
  H      -1.445047      4.497449     -5.652662
  H      -0.769677      4.245843     -4.021671
  C      -2.923560      4.611410     -4.038977
  H      -2.767940      5.712065     -3.926861
  H      -3.055559      4.224899     -2.999169
  C      -4.228912      4.367948     -4.840087
  H      -4.420485      3.271210     -4.931720
  H      -4.096389      4.740899     -5.886638
  C      -5.475243      5.038586     -4.208250
  H      -5.299318      6.139347     -4.113530
  H      -5.604825      4.662866     -3.162246
  C      -6.784846      4.796610     -5.002332
  H      -6.954533      3.695960     -5.102815
  H      -6.658445      5.179424     -6.045244
  C      -8.027983      5.455056     -4.355435
  H      -8.951778      5.262521     -4.948263
  H      -7.905267      6.560930     -4.273725
  H      -8.202440      5.064943     -3.324889
  C       0.132933     -1.278907     -0.764261
  H       1.080468     -0.691671     -0.731879
  H      -0.510841     -0.808674     -1.543360
  C       0.435726     -2.742439     -1.176679
  H      -0.491833     -3.358200     -1.063521
  H       1.188338     -3.183746     -0.479452
  C       0.938889     -2.869549     -2.637796
  H       1.839261     -2.221873     -2.771426
  H       0.159849     -2.454838     -3.325271
  C       1.263185     -4.327480     -3.058930
  H       2.165903     -4.680811     -2.501380
  H       0.425550     -4.991259     -2.732321
  C       1.478371     -4.523583     -4.584184
  H       1.626506     -5.610049     -4.797835
  H       0.548043     -4.229458     -5.129264
  C       2.677399     -3.721464     -5.173546
  H       3.601924     -4.000134     -4.607325
  H       2.526629     -2.635513     -4.994723
  C       2.900508     -3.995984     -6.650690
  H       3.164887     -5.046284     -6.895787
  C       2.781613     -3.124077     -7.683143
  H       2.985583     -3.511790     -8.703478
  C       2.451102     -1.639974     -7.623734
  H       2.011279     -1.361934     -6.639689
  H       1.664558     -1.417541     -8.385500
  C       3.690591     -0.733440     -7.929007
  H       3.343065      0.318666     -8.075058
  H       4.125444     -1.050550     -8.907894
  C       4.800059     -0.768058     -6.841978
  H       5.036258     -1.831406     -6.603200
  H       5.739378     -0.339279     -7.269771
  C       4.452803      0.016100     -5.547875
  H       4.296332      1.089383     -5.817391
  H       3.476730     -0.330951     -5.129022
  C       5.533374     -0.073342     -4.433395
  H       5.325101      0.707735     -3.661693
  H       6.526564      0.190849     -4.871726
  C       5.609644     -1.453392     -3.725328
  H       4.603984     -1.687432     -3.298479
  H       5.814741     -2.258108     -4.472513
  C       6.665070     -1.538216     -2.587393
  H       6.465379     -0.731131     -1.839799
  H       6.520324     -2.500320     -2.038644
  C       8.137110     -1.451181     -3.064986
  H       8.846362     -1.589393     -2.216427
  H       8.361450     -2.240296     -3.821682
  H       8.371873     -0.466768     -3.531025
138
Coordinates from ORCA-job /wrk/rja7/qm_final_3_replicates/qm_final_1.1/qm/2/freq E -2722.579581429743
  N       2.072405      0.204050     11.927045
  C       2.012042      1.603389     11.186366
  H       2.453613      2.339633     11.892248
  H       0.940946      1.850806     11.044019
  C       0.668480     -0.101960     12.463775
  H       0.002274     -0.227725     11.580927
  H       0.713732     -1.035674     13.064126
  H       0.340933      0.744619     13.101764
  C       3.062658      0.301512     13.075446
  H       3.112084     -0.674449     13.601468
  H       4.062694      0.555158     12.666420
  H       2.735042      1.091022     13.783114
  C       2.488110     -0.974207     11.025743
  H       3.490403     -0.771409     10.603200
  H       1.723154     -1.084524     10.229248
  H       2.528227     -1.874428     11.675822
  C       2.706748      1.716523      9.803866
  H       2.607858      2.808909      9.558921
  H       3.802418      1.500770      9.887366
  P       0.415146      0.886225      8.611958
  O      -0.084138      2.273129      8.981673
  O      -0.038981     -0.402263      9.333802
  O       2.169911      0.888711      8.792795
  O       0.363062      0.676077      6.954733
  C       0.416069     -0.648317      6.392634
  H      -0.205330     -1.358942      6.988583
  H       1.468998     -1.034426      6.388551
  C      -0.083799     -0.569645      4.938614
  H       0.485920      0.209899      4.386699
  O      -1.501102     -0.192055      4.970495
  C      -1.939054      0.770439      4.088490
  O      -1.218759      1.372936      3.301626
  C      -3.464226      0.919306      4.173986
  H      -3.713870      1.993576      4.017947
  H      -3.811585      0.621894      5.187520
  C       0.036095     -1.929015      4.208474
  H      -0.547327     -2.711312      4.744275
  H       1.103981     -2.235784      4.139769
  O      -0.555149     -1.842677      2.877908
  C       0.271799     -1.482450      1.826032
  O       1.489290     -1.415092      1.905798
  C      -0.572156     -1.141743      0.593072
  H      -1.506177     -1.748172      0.610643
  H      -0.891104     -0.082873      0.746583
  C      -4.176591      0.044765      3.087923
  H      -5.267937      0.013421      3.322751
  H      -3.811439     -1.006556      3.181321
  C      -3.969903      0.548555      1.636155
  H      -2.886708      0.728914      1.458769
  H      -4.458244      1.548075      1.520829
  C      -4.510828     -0.418460      0.552027
  H      -5.617475     -0.536069      0.667029
  H      -4.081196     -1.438108      0.717427
  C      -4.178996      0.041739     -0.891160
  H      -3.071235      0.107219     -1.005767
  H      -4.561792      1.081869     -1.043385
  C      -4.760826     -0.876215     -1.995143
  H      -5.875227     -0.885993     -1.915252
  H      -4.431696     -1.930759     -1.821955
  C      -4.360376     -0.447978     -3.445457
  H      -4.592479      0.633688     -3.582053
  H      -5.013134     -0.998121     -4.165760
  C      -2.909421     -0.751509     -3.792834
  H      -2.695214     -1.821828     -3.995756
  C      -1.867819      0.115529     -3.857504
  H      -0.876979     -0.294670     -4.142953
  C      -1.899050      1.614041     -3.610212
  H      -1.111572      1.870631     -2.857145
  H      -2.866369      1.912778     -3.151923
  C      -1.641285      2.448844     -4.900788
  H      -2.420473      2.192054     -5.656979
  H      -0.670711      2.129684     -5.352437
  C      -1.605433      3.986105     -4.667201
  H      -1.404869      4.487670     -5.645708
  H      -0.733391      4.233517     -4.013610
  C      -2.886924      4.602063     -4.035554
  H      -2.730221      5.702425     -3.921945
  H      -3.021799      4.215051     -2.996334
  C      -4.190543      4.360779     -4.840055
  H      -4.382431      3.264306     -4.934036
  H      -4.055128      4.735286     -5.885694
  C      -5.438018      5.031109     -4.210258
  H      -5.261949      6.131732     -4.114204
  H      -5.569908      4.654604     -3.164828
  C      -6.745888      4.790280     -5.007333
  H      -6.915494      3.689776     -5.109656
  H      -6.617350      5.174509     -6.049451
  C      -7.990324      5.447863     -4.362073
  H      -8.912894      5.256275     -4.957115
  H      -7.867720      6.553597     -4.278455
  H      -8.166963      5.056218     -3.332493
  C       0.163136     -1.281698     -0.759955
  H       1.113611     -0.699389     -0.726448
  H      -0.476490     -0.809605     -1.541228
  C       0.459392     -2.747443     -1.169506
  H      -0.470152     -3.359515     -1.052325
  H       1.212178     -3.190163     -0.473339
  C       0.956845     -2.878947     -2.632209
  H       1.858251     -2.233710     -2.770606
  H       0.176041     -2.463035     -3.316990
  C       1.276429     -4.338049     -3.053421
  H       2.185998     -4.689541     -2.505926
  H       0.443220     -5.001365     -2.714997
  C       1.473692     -4.536362     -4.580919
  H       1.623701     -5.622552     -4.794658
  H       0.535768     -4.246721     -5.115244
  C       2.661550     -3.729410     -5.185885
  H       3.594097     -4.001984     -4.629921
  H       2.507115     -2.643905     -5.007237
  C       2.869160     -4.005079     -6.664860
  H       3.133337     -5.055145     -6.911390
  C       2.736785     -3.135087     -7.697250
  H       2.930409     -3.524208     -8.719073
  C       2.402153     -1.651922     -7.637465
  H       1.963861     -1.374642     -6.652413
  H       1.613040     -1.432569     -8.397395
  C       3.637711     -0.741450     -7.947382
  H       3.285379      0.307993     -8.100707
  H       4.074807     -1.062997     -8.923846
  C       4.746567     -0.763116     -6.859543
  H       4.984703     -1.823585     -6.610107
  H       5.685148     -0.336443     -7.291031
  C       4.397120      0.033705     -5.573705
  H       4.238568      1.103640     -5.854887
  H       3.421513     -0.310793     -5.151398
  C       5.477782     -0.041825     -4.458297
  H       5.271664      0.750625     -3.697704
  H       6.471473      0.214036     -4.900372
  C       5.550789     -1.411274     -3.729728
  H       4.545913     -1.633441     -3.294737
  H       5.748170     -2.228403     -4.465428
  C       6.611318     -1.483604     -2.595766
  H       6.421034     -0.662068     -1.861565
  H       6.463234     -2.434762     -2.029123
  C       8.081412     -1.415279     -3.082370
  H       8.794055     -1.546615     -2.235545
  H       8.295310     -2.217496     -3.828239
  H       8.322090     -0.439953     -3.564169
138
Coordinates from ORCA-job /wrk/rja7/qm_final_3_replicates/qm_final_1.1/qm/2/freq E -2722.579585115801
  N       2.076611      0.196168     11.925529
  C       2.016507      1.597003     11.187296
  H       2.457950      2.331799     11.894746
  H       0.945433      1.844867     11.045447
  C       0.672381     -0.111521     12.460475
  H       0.007085     -0.235758     11.576707
  H       0.717550     -1.046384     13.059031
  H       0.343916      0.733617     13.099928
  C       3.065785      0.292201     13.075061
  H       3.115121     -0.684575     13.599548
  H       4.066047      0.546887     12.667270
  H       2.737020      1.080450     13.783575
  C       2.493674     -0.980320     11.022396
  H       3.495965     -0.775960     10.600670
  H       1.729078     -1.089846     10.225492
  H       2.534131     -1.881542     11.671037
  C       2.711135      1.712786      9.804993
  H       2.612068      2.805601      9.561972
  H       3.806890      1.497205      9.887924
  P       0.419782      0.883800      8.611292
  O      -0.079985      2.270172      8.982190
  O      -0.033812     -0.405490      9.331929
  O       2.174491      0.886791      8.792340
  O       0.367908      0.675082      6.953878
  C       0.420267     -0.648688      6.390116
  H      -0.202332     -1.359544      6.984523
  H       1.472858     -1.035675      6.386543
  C      -0.078314     -0.567469      4.935659
  H       0.492708      0.212193      4.385281
  O      -1.495225     -0.188489      4.966789
  C      -1.931443      0.776654      4.086895
  O      -1.209885      1.380569      3.302304
  C      -3.456610      0.926460      4.171554
  H      -3.705584      2.000639      4.013970
  H      -3.804301      0.630637      5.185460
  C       0.040787     -1.925879      4.203551
  H      -0.544114     -2.708238      4.737625
  H       1.108402     -2.233738      4.135672
  O      -0.548820     -1.837256      2.872335
  C       0.279744     -1.474981      1.822218
  O       1.497143     -1.408346      1.903800
  C      -0.562277     -1.131317      0.588686
  H      -1.498277     -1.734582      0.605790
  H      -0.877120     -0.071152      0.741929
  C      -4.169042      0.050409      3.086836
  H      -5.260504      0.019968      3.321271
  H      -3.804435     -1.000907      3.182242
  C      -3.961680      0.551693      1.634281
  H      -2.878455      0.732496      1.457464
  H      -4.450718      1.550615      1.516757
  C      -4.501085     -0.417734      0.551569
  H      -5.607322     -0.537995      0.667821
  H      -4.068868     -1.436166      0.717733
  C      -4.171878      0.041692     -0.892422
  H      -3.064442      0.110820     -1.008172
  H      -4.558357      1.080328     -1.045563
  C      -4.751575     -0.879607     -1.994771
  H      -5.865860     -0.893229     -1.913929
  H      -4.418561     -1.932756     -1.820563
  C      -4.353559     -0.451662     -3.445833
  H      -4.589081      0.629206     -3.583004
  H      -5.005299     -1.004348     -4.165123
  C      -2.902197     -0.751473     -3.794403
  H      -2.685597     -1.821352     -3.997170
  C      -1.862869      0.118124     -3.860952
  H      -0.871352     -0.289760     -4.147331
  C      -1.897678      1.616712     -3.614302
  H      -1.112213      1.875040     -2.859684
  H      -2.866530      1.913229     -3.157808
  C      -1.639584      2.451886     -4.904398
  H      -2.417461      2.193931     -5.661570
  H      -0.668039      2.134196     -5.355016
  C      -1.606164      3.989197     -4.670773
  H      -1.406593      4.490926     -5.649407
  H      -0.734390      4.238096     -4.017391
  C      -2.888376      4.603273     -4.038700
  H      -2.733282      5.703902     -3.925438
  H      -3.021959      4.216461     -2.999242
  C      -4.192125      4.359666     -4.842248
  H      -4.382678      3.262875     -4.935200
  H      -4.057672      4.733404     -5.888300
  C      -5.440102      5.029122     -4.212600
  H      -5.265333      6.130080     -4.117950
  H      -5.571029      4.653767     -3.166636
  C      -6.748070      4.785717     -5.008713
  H      -6.916707      3.684888     -5.109112
  H      -6.620330      5.168293     -6.051538
  C      -7.992869      5.443237     -4.364107
  H      -8.915514      5.249590     -4.958367
  H      -7.871357      6.549249     -4.282632
  H      -8.168696      5.053345     -3.333722
  C       0.173640     -1.274131     -0.763806
  H       1.126508     -0.695711     -0.729146
  H      -0.463146     -0.799509     -1.545862
  C       0.464280     -2.741219     -1.172669
  H      -0.467451     -3.349796     -1.054495
  H       1.215729     -3.186324     -0.476567
  C       0.960976     -2.875494     -2.635360
  H       1.864045     -2.232756     -2.774441
  H       0.181132     -2.457903     -3.320236
  C       1.276723     -4.335890     -3.055211
  H       2.186381     -4.688328     -2.508458
  H       0.442642     -4.997017     -2.714725
  C       1.472899     -4.536468     -4.582574
  H       1.622456     -5.623000     -4.794826
  H       0.535127     -4.247009     -5.117252
  C       2.661293     -3.731008     -5.188429
  H       3.592511     -3.999215     -4.628076
  H       2.504611     -2.644758     -5.016234
  C       2.874656     -4.014207     -6.665086
  H       3.140072     -5.065459     -6.905234
  C       2.747680     -3.149245     -7.702276
  H       2.946595     -3.543428     -8.721150
  C       2.412127     -1.666006     -7.651945
  H       1.965500     -1.384232     -6.671923
  H       1.629480     -1.450492     -8.419584
  C       3.650247     -0.756814     -7.955442
  H       3.299105      0.291327     -8.120008
  H       4.097534     -1.085143     -8.925004
  C       4.747575     -0.770434     -6.855862
  H       4.982840     -1.828982     -6.595690
  H       5.690668     -0.346982     -7.280581
  C       4.384973      0.036493     -5.579827
  H       4.230516      1.104316     -5.870980
  H       3.404597     -0.304076     -5.165511
  C       5.453530     -0.032408     -4.452406
  H       5.244644      0.769475     -3.702524
  H       6.453302      0.212642     -4.886781
  C       5.510381     -1.393973     -3.707534
  H       4.500917     -1.602065     -3.276165
  H       5.704716     -2.221113     -4.432796
  C       6.563765     -1.462672     -2.566862
  H       6.377987     -0.629932     -1.844174
  H       6.403166     -2.404918     -1.988846
  C       8.037095     -1.415365     -3.046187
  H       8.743743     -1.545977     -2.194241
  H       8.246057     -2.227335     -3.782859
  H       8.291322     -0.447731     -3.536463
138
Coordinates from ORCA-job /wrk/rja7/qm_final_3_replicates/qm_final_1.1/qm/2/freq E -2722.579591122736
  N       2.068937      0.180775     11.928562
  C       2.008579      1.585561     11.197734
  H       2.448314      2.316879     11.909882
  H       0.937354      1.833074     11.055964
  C       0.665148     -0.130100     12.462404
  H      -0.000398     -0.249461     11.578215
  H       0.710740     -1.068027     13.056084
  H       0.336565      0.711635     13.106347
  C       3.058584      0.271095     13.078191
  H       3.108485     -0.708462     13.597490
  H       4.058527      0.528304     12.671256
  H       2.729465      1.055329     13.790994
  C       2.485735     -0.991233     11.018879
  H       3.487653     -0.784748     10.597489
  H       1.720885     -1.096518     10.221480
  H       2.526049     -1.895900     11.662709
  C       2.704826      1.709815      9.816866
  H       2.605430      2.804003      9.580087
  H       3.800633      1.494435      9.899706
  P       0.415044      0.888421      8.615129
  O      -0.083923      2.274863      8.986748
  O      -0.040142     -0.401289      9.334075
  O       2.169534      0.889870      8.798560
  O       0.365120      0.681594      6.957258
  C       0.420702     -0.640898      6.390830
  H      -0.202048     -1.354108      6.982309
  H       1.473898     -1.026203      6.388523
  C      -0.075183     -0.557241      4.935587
  H       0.495210      0.225006      4.388252
  O      -1.493083     -0.181968      4.965031
  C      -1.931476      0.783354      4.086426
  O      -1.211366      1.390309      3.302893
  C      -3.457223      0.928001      4.170576
  H      -3.709316      2.001599      4.013738
  H      -3.804062      0.630983      5.184446
  C       0.048764     -1.913735      4.200476
  H      -0.534099     -2.698811      4.732756
  H       1.117418     -2.218022      4.132917
  O      -0.539683     -1.824679      2.868742
  C       0.288802     -1.455835      1.820536
  O       1.505683     -1.382950      1.904319
  C      -0.552673     -1.116325      0.585380
  H      -1.487394     -1.721387      0.603146
  H      -0.869110     -0.056155      0.735335
  C      -4.167261      0.050549      3.085543
  H      -5.258976      0.018902      3.318688
  H      -3.801283     -1.000199      3.181771
  C      -3.958816      0.551503      1.633134
  H      -2.875523      0.732823      1.457348
  H      -4.448215      1.550217      1.514920
  C      -4.497025     -0.418317      0.550270
  H      -5.603017     -0.540368      0.666837
  H      -4.062957     -1.436060      0.716125
  C      -4.169044      0.041926     -0.893700
  H      -3.061822      0.113296     -1.009944
  H      -4.557653      1.079814     -1.046655
  C      -4.747471     -0.880360     -1.995912
  H      -5.861681     -0.896285     -1.914568
  H      -4.412226     -1.932887     -1.822115
  C      -4.351051     -0.451239     -3.447041
  H      -4.588108      0.629402     -3.583332
  H      -5.002632     -1.004206     -4.166276
  C      -2.899647     -0.749081     -3.797187
  H      -2.682187     -1.818597     -4.001065
  C      -1.861096      0.121483     -3.863834
  H      -0.869786     -0.285075     -4.152835
  C      -1.896898      1.619864     -3.615444
  H      -1.111485      1.877922     -2.860637
  H      -2.865929      1.915124     -3.158416
  C      -1.640081      2.456708     -4.904560
  H      -2.418540      2.199770     -5.661460
  H      -0.668879      2.139838     -5.356559
  C      -1.606189      3.993659     -4.668708
  H      -1.408202      4.496680     -5.647005
  H      -0.733454      4.241365     -4.016209
  C      -2.887068      4.607109     -4.033338
  H      -2.731343      5.707575     -3.919220
  H      -3.018500      4.219145     -2.994009
  C      -4.192659      4.364828     -4.834280
  H      -4.384509      3.268207     -4.926888
  H      -4.060049      4.738605     -5.880534
  C      -5.438750      5.035267     -4.202024
  H      -5.262824      6.136101     -4.107825
  H      -5.568010      4.660150     -3.155774
  C      -6.748599      4.792989     -4.995587
  H      -6.918329      3.692267     -5.095396
  H      -6.622455      5.175173     -6.038752
  C      -7.991636      5.451713     -4.348816
  H      -8.915475      5.258760     -4.941438
  H      -7.868962      6.557637     -4.267761
  H      -8.165994      5.062163     -3.318044
  C       0.185128     -1.262021     -0.765927
  H       1.136878     -0.681535     -0.732221
  H      -0.451613     -0.792040     -1.550855
  C       0.478989     -2.730514     -1.167556
  H      -0.450705     -3.341003     -1.043207
  H       1.233263     -3.169645     -0.470626
  C       0.972624     -2.872803     -2.630448
  H       1.873801     -2.228803     -2.775687
  H       0.189954     -2.461389     -3.315862
  C       1.290678     -4.335517     -3.040575
  H       2.204205     -4.680855     -2.495733
  H       0.460201     -4.996299     -2.690782
  C       1.480521     -4.547866     -4.567058
  H       1.631741     -5.635730     -4.771126
  H       0.539843     -4.264756     -5.100026
  C       2.664996     -3.745349     -5.184346
  H       3.598113     -4.003848     -4.622387
  H       2.504853     -2.657528     -5.025441
  C       2.877378     -4.045661     -6.657777
  H       3.141931     -5.099769     -6.886113
  C       2.752384     -3.192065     -7.704433
  H       2.951668     -3.597890     -8.718679
  C       2.419571     -1.707880     -7.671181
  H       1.971362     -1.413769     -6.695520
  H       1.639474     -1.499635     -8.443368
  C       3.660735     -0.805123     -7.981333
  H       3.312157      0.240534     -8.166087
  H       4.113777     -1.150059     -8.942388
  C       4.750343     -0.801338     -6.873943
  H       4.981225     -1.855098     -6.590725
  H       5.697485     -0.389003     -7.300562
  C       4.381967      0.032713     -5.616858
  H       4.231186      1.094295     -5.931571
  H       3.398745     -0.297507     -5.200628
  C       5.444737     -0.014928     -4.482798
  H       5.240709      0.808138     -3.754841
  H       6.448500      0.209320     -4.919033
  C       5.485965     -1.356587     -3.701241
  H       4.474564     -1.539445     -3.262891
  H       5.667991     -2.205106     -4.404645
  C       6.540930     -1.408327     -2.561363
  H       6.368475     -0.553409     -1.861561
  H       6.369073     -2.331822     -1.956925
  C       8.013600     -1.394054     -3.044941
  H       8.720500     -1.514653     -2.191755
  H       8.208876     -2.225886     -3.763003
  H       8.280612     -0.442196     -3.558789
138
Coordinates from ORCA-job /wrk/rja7/qm_final_3_replicates/qm_final_1.1/qm/2/freq E -2722.579597684588
  N       2.075889      0.178794     11.925454
  C       2.014421      1.582659     11.192699
  H       2.455777      2.314745     11.903057
  H       0.942974      1.830220     11.052728
  C       0.672887     -0.131440     12.461991
  H       0.005912     -0.252204     11.579032
  H       0.719667     -1.068474     13.057018
  H       0.345257      0.711128     13.105326
  C       3.067185      0.270908     13.073354
  H       3.118616     -0.708083     13.593628
  H       4.066365      0.528371     12.664693
  H       2.738729      1.055612     13.785958
  C       2.491268     -0.994303     11.016753
  H       3.492683     -0.788619     10.593646
  H       1.725505     -1.100520     10.220417
  H       2.532262     -1.898198     11.661620
  C       2.708518      1.704874      9.810484
  H       2.608956      2.798791      9.572483
  H       3.804391      1.489512      9.892177
  P       0.416963      0.882033      8.612527
  O      -0.081823      2.268394      8.984648
  O      -0.037156     -0.407866      9.331848
  O       2.171774      0.883977      8.793775
  O       0.365733      0.675122      6.954664
  C       0.419219     -0.647539      6.388459
  H      -0.204577     -1.359690      6.980138
  H       1.471745     -1.034667      6.386017
  C      -0.076709     -0.563264      4.933420
  H       0.495507      0.217349      4.385635
  O      -1.493653     -0.184399      4.962733
  C      -1.929235      0.781244      4.083044
  O      -1.207316      1.385072      3.298768
  C      -3.454594      0.930507      4.166677
  H      -3.703323      2.004717      4.008656
  H      -3.802375      0.635506      5.180814
  C       0.043692     -1.920627      4.199276
  H      -0.541434     -2.703827      4.731847
  H       1.111538     -2.227886      4.132189
  O      -0.544139     -1.830541      2.867443
  C       0.286127     -1.465048      1.819526
  O       1.503126     -1.395250      1.904167
  C      -0.553535     -1.124663      0.583488
  H      -1.489389     -1.728006      0.600643
  H      -0.868095     -0.063821      0.732271
  C      -4.167092      0.054333      3.082207
  H      -5.258971      0.026203      3.315067
  H      -3.804357     -0.997461      3.179240
  C      -3.956601      0.553973      1.629647
  H      -2.872577      0.731145      1.454229
  H      -4.442021      1.554595      1.511020
  C      -4.497777     -0.413955      0.546635
  H      -5.604384     -0.531545      0.661874
  H      -4.068061     -1.433431      0.713343
  C      -4.166100      0.044370     -0.897178
  H      -3.058429      0.111085     -1.011747
  H      -4.550289      1.083763     -1.051094
  C      -4.747001     -0.875906     -1.999705
  H      -5.861295     -0.888140     -1.918776
  H      -4.415435     -1.929563     -1.825648
  C      -4.349091     -0.448215     -3.450923
  H      -4.582806      0.633115     -3.587585
  H      -5.002328     -0.999201     -4.170143
  C      -2.898463     -0.750368     -3.800843
  H      -2.684400     -1.820347     -4.005842
  C      -1.856985      0.116883     -3.866097
  H      -0.866877     -0.292663     -4.154911
  C      -1.888440      1.615343     -3.617232
  H      -1.101448      1.871157     -2.863310
  H      -2.856149      1.913221     -3.159088
  C      -1.630308      2.451855     -4.906392
  H      -2.409513      2.196855     -5.663170
  H      -0.659815      2.133164     -5.358638
  C      -1.592851      3.988637     -4.670143
  H      -1.393153      4.491517     -5.648179
  H      -0.719863      4.233934     -4.017071
  C      -2.872501      4.605015     -4.035370
  H      -2.714480      5.705215     -3.921726
  H      -3.005021      4.217774     -2.995886
  C      -4.178379      4.365237     -4.836559
  H      -4.372113      3.268973     -4.929226
  H      -4.045206      4.738924     -5.882759
  C      -5.423300      5.037491     -4.203861
  H      -5.245881      6.138090     -4.109754
  H      -5.552569      4.662591     -3.157537
  C      -6.733881      4.796930     -4.996821
  H      -6.904651      3.696443     -5.097392
  H      -6.607969      5.179833     -6.039756
  C      -7.975944      5.456264     -4.348784
  H      -8.900248      5.264824     -4.941170
  H      -7.852168      6.561988     -4.266631
  H      -8.150123      5.065820     -3.318321
  C       0.185371     -1.272367     -0.766939
  H       1.136937     -0.691777     -0.733115
  H      -0.450950     -0.803086     -1.552649
  C       0.479953     -2.740979     -1.167348
  H      -0.449265     -3.351970     -1.042037
  H       1.235031     -3.178874     -0.470537
  C       0.972771     -2.883951     -2.630467
  H       1.871798     -2.237404     -2.777670
  H       0.188406     -2.476013     -3.316026
  C       1.295296     -4.346228     -3.038307
  H       2.208071     -4.688918     -2.490527
  H       0.465238     -5.008559     -2.690373
  C       1.489349     -4.560159     -4.563908
  H       1.643567     -5.648020     -4.765832
  H       0.549136     -4.280178     -5.099323
  C       2.673353     -3.756383     -5.180792
  H       3.606392     -4.013042     -4.617773
  H       2.511809     -2.668598     -5.023181
  C       2.886333     -4.058557     -6.653868
  H       3.155433     -5.111845     -6.880566
  C       2.755943     -3.207438     -7.701951
  H       2.956370     -3.613749     -8.715761
  C       2.415500     -1.724995     -7.670787
  H       1.965896     -1.431657     -6.695542
  H       1.634695     -1.521626     -8.443508
  C       3.652771     -0.817006     -7.981105
  H       3.299392      0.225644     -8.173477
  H       4.112001     -1.164814     -8.938155
  C       4.736899     -0.800578     -6.868556
  H       4.969511     -1.850806     -6.574153
  H       5.684997     -0.389127     -7.293818
  C       4.358879      0.043790     -5.621006
  H       4.205753      1.101653     -5.946755
  H       3.374861     -0.286474     -5.206592
  C       5.416393      0.010207     -4.481448
  H       5.211027      0.843240     -3.765235
  H       6.422357      0.226977     -4.916226
  C       5.451933     -1.321124     -3.681984
  H       4.439475     -1.493958     -3.241891
  H       5.630589     -2.179189     -4.374654
  C       6.506385     -1.363136     -2.541456
  H       6.337927     -0.498820     -1.852259
  H       6.330501     -2.278330     -1.925639
  C       7.979208     -1.361253     -3.024951
  H       8.685444     -1.477293     -2.170624
  H       8.170299     -2.200729     -3.735221
  H       8.250953     -0.415862     -3.548194
138
Coordinates from ORCA-job /wrk/rja7/qm_final_3_replicates/qm_final_1.1/qm/2/freq E -2722.579602322698
  N       2.070161      0.176281     11.926785
  C       2.012011      1.580186     11.193633
  H       2.452470      2.311832     11.904968
  H       0.941238      1.828846     11.050884
  C       0.665215     -0.132011     12.459613
  H       0.000317     -0.251995     11.574939
  H       0.709318     -1.069093     13.054791
  H       0.337160      0.710948     13.102177
  C       3.058356      0.267423     13.077271
  H       3.107450     -0.711562     13.597808
  H       4.058991      0.523835     12.671481
  H       2.728975      1.052521     13.789007
  C       2.486453     -0.997059     11.019475
  H       3.489863     -0.793069     10.600033
  H       1.723443     -1.101678     10.220402
  H       2.523633     -1.901227     11.664205
  C       2.710080      1.700825      9.813318
  H       2.613071      2.794797      9.574626
  H       3.805322      1.483552      9.898242
  P       0.420062      0.880898      8.611047
  O      -0.077394      2.267685      8.983351
  O      -0.037595     -0.409022      9.328111
  O       2.174571      0.880255      8.795855
  O       0.372036      0.675228      6.952945
  C       0.426534     -0.647459      6.387094
  H      -0.198526     -1.359373      6.977758
  H       1.478938     -1.034938      6.386783
  C      -0.066886     -0.563573      4.931267
  H       0.505886      0.217121      4.384162
  O      -1.483952     -0.184985      4.958424
  C      -1.918672      0.778935      4.076421
  O      -1.195876      1.381997      3.292347
  C      -3.444152      0.927960      4.158034
  H      -3.693016      2.002143      4.000136
  H      -3.793001      0.632028      5.171520
  C       0.054414     -1.921134      4.197735
  H      -0.531178     -2.704331      4.729832
  H       1.122269     -2.228632      4.131596
  O      -0.532607     -1.830851      2.865674
  C       0.298347     -1.467286      1.817830
  O       1.515458     -1.399407      1.902449
  C      -0.540792     -1.126573      0.581623
  H      -1.478122     -1.727647      0.599668
  H      -0.853063     -0.064819      0.728677
  C      -4.154800      0.051928      3.072215
  H      -5.246676      0.021666      3.304773
  H      -3.790254     -0.999347      3.168038
  C      -3.945154      0.553576      1.620180
  H      -2.861331      0.732053      1.444681
  H      -4.431471      1.553908      1.502916
  C      -4.485533     -0.413781      0.536288
  H      -5.592059     -0.532452      0.651217
  H      -4.054939     -1.433053      0.701907
  C      -4.154401      0.046186     -0.907203
  H      -3.046739      0.112545     -1.021822
  H      -4.538309      1.085852     -1.059829
  C      -4.735904     -0.872913     -2.010342
  H      -5.850385     -0.882144     -1.931253
  H      -4.407494     -1.927352     -1.835142
  C      -4.334704     -0.447108     -3.461156
  H      -4.564062      0.635038     -3.598737
  H      -4.989001     -0.995887     -4.181036
  C      -2.884457     -0.754225     -3.808679
  H      -2.673899     -1.824413     -4.016062
  C      -1.839573      0.109281     -3.868454
  H      -0.850040     -0.303130     -4.155049
  C      -1.866846      1.607197     -3.616000
  H      -1.078244      1.859319     -2.862555
  H      -2.833220      1.906853     -3.156265
  C      -1.607356      2.445658     -4.903739
  H      -2.387087      2.193380     -5.660883
  H      -0.637336      2.126364     -5.356525
  C      -1.567683      3.981903     -4.664539
  H      -1.366428      4.486555     -5.641332
  H      -0.694851      4.224418     -4.010188
  C      -2.846923      4.598689     -4.029464
  H      -2.688332      5.698738     -3.915153
  H      -2.979701      4.210865     -2.990247
  C      -4.152972      4.359990     -4.830761
  H      -4.348046      3.263885     -4.922549
  H      -4.019452      4.732662     -5.877264
  C      -5.397094      5.034178     -4.198361
  H      -5.218911      6.134770     -4.105860
  H      -5.525904      4.660777     -3.151440
  C      -6.708312      4.793462     -4.990245
  H      -6.880343      3.693000     -5.088816
  H      -6.582476      5.174428     -6.033902
  C      -7.949337      5.455260     -4.342705
  H      -8.874230      5.263425     -4.934041
  H      -7.824603      6.561039     -4.262855
  H      -8.123094      5.067027     -3.311338
  C       0.197232     -1.278044     -0.768870
  H       1.149446     -0.698328     -0.737195
  H      -0.439404     -0.809318     -1.554671
  C       0.489570     -2.747715     -1.166936
  H      -0.439701     -3.357738     -1.037391
  H       1.246751     -3.184305     -0.471658
  C       0.976697     -2.894479     -2.631560
  H       1.873970     -2.246905     -2.785131
  H       0.189051     -2.490324     -3.315534
  C       1.300110     -4.357426     -3.035653
  H       2.212040     -4.698691     -2.485573
  H       0.469590     -5.019160     -2.687578
  C       1.495374     -4.575026     -4.560395
  H       1.650107     -5.663379     -4.759371
  H       0.555317     -4.296933     -5.097033
  C       2.678947     -3.772316     -5.179518
  H       3.612502     -4.028634     -4.617137
  H       2.518086     -2.684456     -5.022500
  C       2.888865     -4.076508     -6.652743
  H       3.164092     -5.128426     -6.878258
  C       2.746541     -3.228818     -7.702166
  H       2.944653     -3.635502     -8.716246
  C       2.394830     -1.748934     -7.672137
  H       1.945621     -1.457335     -6.696168
  H       1.610705     -1.552464     -8.443196
  C       3.625207     -0.832797     -7.985943
  H       3.264348      0.205525     -8.187376
  H       4.090855     -1.183744     -8.938697
  C       4.704100     -0.798604     -6.868910
  H       4.939575     -1.843757     -6.559462
  H       5.652791     -0.388464     -7.294016
  C       4.315083      0.060096     -5.634229
  H       4.160395      1.113068     -5.974562
  H       3.329591     -0.268773     -5.222155
  C       5.365768      0.043206     -4.487968
  H       5.160448      0.889502     -3.787394
  H       6.375010      0.248328     -4.920724
  C       5.391384     -1.274591     -3.666055
  H       4.376855     -1.433566     -3.225306
  H       5.565443     -2.144673     -4.344880
  C       6.443620     -1.306260     -2.523444
  H       6.281231     -0.430153     -1.847761
  H       6.259996     -2.210493     -1.893814
  C       7.917188     -1.323107     -3.004621
  H       8.621067     -1.435290     -2.147877
  H       8.101935     -2.172446     -3.704766
  H       8.197875     -0.386486     -3.538836
138
Coordinates from ORCA-job /wrk/rja7/qm_final_3_replicates/qm_final_1.1/qm/2/freq E -2722.579602653277
  N       2.075109      0.184853     11.924207
  C       2.017250      1.586479     11.186974
  H       2.459369      2.319988     11.895349
  H       0.946540      1.835547     11.044655
  C       0.670757     -0.119634     12.460863
  H       0.003800     -0.241539     11.578027
  H       0.714622     -1.054945     13.058832
  H       0.345352      0.725897     13.101341
  C       3.065793      0.277669     13.072400
  H       3.114191     -0.699856     13.595701
  H       4.066111      0.531152     12.663986
  H       2.739442      1.065464     13.782562
  C       2.487794     -0.991752     11.019688
  H       3.490774     -0.790547     10.597888
  H       1.723169     -1.097763     10.222335
  H       2.525002     -1.894094     11.666982
  C       2.713695      1.702259      9.805429
  H       2.617455      2.795592      9.563616
  H       3.808803      1.484043      9.889730
  P       0.421404      0.881026      8.608614
  O      -0.074354      2.268861      8.979404
  O      -0.036637     -0.407262      9.328370
  O       2.176199      0.878944      8.791170
  O       0.370620      0.672795      6.950918
  C       0.423243     -0.650967      6.387482
  H      -0.201716     -1.361219      6.980229
  H       1.475283     -1.039493      6.386590
  C      -0.071712     -0.569379      4.931967
  H       0.501434      0.209566      4.382764
  O      -1.488286     -0.188728      4.960099
  C      -1.922606      0.773815      4.076371
  O      -1.199662      1.374580      3.290630
  C      -3.447825      0.924570      4.158338
  H      -3.695665      1.999127      4.001384
  H      -3.797120      0.627945      5.171444
  C       0.046867     -1.928445      4.200743
  H      -0.539463     -2.709849      4.734669
  H       1.114139     -2.237865      4.134106
  O      -0.541336     -1.839368      2.869121
  C       0.288872     -1.479791      1.819520
  O       1.506296     -1.415069      1.902189
  C      -0.551351     -1.138099      0.584337
  H      -1.488330     -1.739855      0.602010
  H      -0.864948     -0.077027      0.733362
  C      -4.159297      0.050441      3.071415
  H      -5.251088      0.020472      3.304366
  H      -3.795270     -1.001163      3.165686
  C      -3.949899      0.553680      1.619842
  H      -2.866067      0.731822      1.443953
  H      -4.435792      1.554352      1.503933
  C      -4.491228     -0.412303      0.535135
  H      -5.598165     -0.528468      0.648687
  H      -4.063080     -1.432533      0.700916
  C      -4.157580      0.047380     -0.907918
  H      -3.049612      0.110288     -1.021634
  H      -4.538093      1.088310     -1.060310
  C      -4.741080     -0.869440     -2.011893
  H      -5.855678     -0.874729     -1.933913
  H      -4.416560     -1.925053     -1.836634
  C      -4.337306     -0.444776     -3.462328
  H      -4.562848      0.638104     -3.600230
  H      -4.992873     -0.991424     -4.182650
  C      -2.887643     -0.756314     -3.808623
  H      -2.679839     -1.826984     -4.016214
  C      -1.840365      0.104365     -3.866936
  H      -0.851605     -0.310685     -4.152367
  C      -1.863825      1.602254     -3.614494
  H      -1.073488      1.852762     -2.862387
  H      -2.828774      1.904409     -3.153480
  C      -1.604085      2.439771     -4.902955
  H      -2.384493      2.187787     -5.659472
  H      -0.634632      2.119142     -5.355970
  C      -1.563189      3.976175     -4.664688
  H      -1.361137      4.480220     -5.641609
  H      -0.690422      4.218300     -4.010100
  C      -2.842442      4.594119     -4.030553
  H      -2.683326      5.694082     -3.916340
  H      -2.976284      4.206488     -2.991419
  C      -4.148049      4.356150     -4.832837
  H      -4.343205      3.260153     -4.925578
  H      -4.013865      4.729567     -5.878992
  C      -5.392511      5.029982     -4.200655
  H      -5.214348      6.130466     -4.106988
  H      -5.521990      4.655506     -3.154200
  C      -6.703167      4.790133     -4.993645
  H      -6.875057      3.689782     -5.093643
  H      -6.576735      5.172365     -6.036765
  C      -7.944607      5.451078     -4.346032
  H      -8.869189      5.259839     -4.938049
  H      -7.820028      6.556777     -4.264864
  H      -8.118831      5.061658     -3.315194
  C       0.185549     -1.286543     -0.767018
  H       1.137288     -0.706046     -0.735411
  H      -0.452423     -0.816845     -1.551134
  C       0.478665     -2.755100     -1.168572
  H      -0.450413     -3.365887     -1.041265
  H       1.235676     -3.193123     -0.474050
  C       0.966510     -2.897629     -2.633369
  H       1.863976     -2.249775     -2.784606
  H       0.179324     -2.491578     -3.316701
  C       1.289798     -4.359248     -3.041873
  H       2.198709     -4.704149     -2.489069
  H       0.456856     -5.021319     -2.700207
  C       1.490783     -4.571030     -4.566781
  H       1.643546     -5.658906     -4.769784
  H       0.553488     -4.288451     -5.105922
  C       2.678414     -3.768171     -5.177977
  H       3.609935     -4.031488     -4.615573
  H       2.520830     -2.681070     -5.013265
  C       2.889832     -4.062588     -6.652984
  H       3.167537     -5.112435     -6.884932
  C       2.744741     -3.208955     -7.697255
  H       2.943394     -3.608933     -8.713871
  C       2.389352     -1.730005     -7.657865
  H       1.943742     -1.444940     -6.678322
  H       1.601004     -1.531406     -8.424096
  C       3.615673     -0.808703     -7.972740
  H       3.251269      0.230366     -8.163572
  H       4.076045     -1.151300     -8.931076
  C       4.701594     -0.780836     -6.862348
  H       4.941099     -1.828077     -6.563479
  H       5.646870     -0.364986     -7.289513
  C       4.317770      0.065807     -5.617882
  H       4.160311      1.121968     -5.947004
  H       3.334414     -0.268010     -5.204819
  C       5.373368      0.038956     -4.476349
  H       5.165801      0.874542     -3.763704
  H       6.379683      0.255717     -4.910394
  C       5.410272     -1.290259     -3.673694
  H       4.396847     -1.465734     -3.236691
  H       5.593665     -2.148611     -4.364858
  C       6.461131     -1.329074     -2.529966
  H       6.288117     -0.466281     -1.839963
  H       6.286265     -2.245686     -1.915944
  C       7.935526     -1.321805     -3.008818
  H       8.639267     -1.438477     -2.152546
  H       8.131136     -2.158684     -3.720891
  H       8.206038     -0.374141     -3.528616
138
Coordinates from ORCA-job /wrk/rja7/qm_final_3_replicates/qm_final_1.1/qm/2/freq E -2722.579605595832
  N       2.072960      0.181220     11.929951
  C       2.013205      1.583201     11.193594
  H       2.453918      2.316879     11.902670
  H       0.942132      1.830760     11.051245
  C       0.669425     -0.124909     12.467717
  H       0.001931     -0.246770     11.585340
  H       0.714566     -1.060535     13.065084
  H       0.343732      0.719997     13.108888
  C       3.064825      0.274320     13.077185
  H       3.114707     -0.703460     13.599859
  H       4.064410      0.528970     12.667729
  H       2.738405      1.061409     13.788086
  C       2.485958     -0.994654     11.024283
  H       3.487923     -0.791874     10.600988
  H       1.720192     -1.101469     10.228060
  H       2.525450     -1.897132     11.671252
  C       2.709602      1.701123      9.812249
  H       2.611937      2.794555      9.571411
  H       3.805018      1.484314      9.896384
  P       0.418512      0.878445      8.613930
  O      -0.078786      2.265781      8.984445
  O      -0.038395     -0.410190      9.333739
  O       2.173313      0.878051      8.797079
  O       0.368675      0.670272      6.956198
  C       0.421946     -0.653181      6.392026
  H      -0.203870     -1.363803      6.983399
  H       1.474022     -1.041620      6.392392
  C      -0.070858     -0.570502      4.935749
  H       0.503361      0.208731      4.388079
  O      -1.487360     -0.189451      4.962095
  C      -1.919964      0.774432      4.078966
  O      -1.195604      1.375525      3.294797
  C      -3.445172      0.926166      4.159105
  H      -3.692060      2.000799      4.001188
  H      -3.795893      0.630638      5.172048
  C       0.048985     -1.928991      4.203559
  H      -0.537953     -2.710878      4.736108
  H       1.116436     -2.238060      4.138340
  O      -0.537044     -1.839402      2.870957
  C       0.294669     -1.478648      1.822860
  O       1.511913     -1.413379      1.907587
  C      -0.543690     -1.136013      0.586604
  H      -1.481174     -1.736947      0.603171
  H      -0.856336     -0.074617      0.735338
  C      -4.155989      0.051960      3.071893
  H      -5.248315      0.024101      3.302579
  H      -3.793990     -1.000173      3.168114
  C      -3.942535      0.553238      1.620220
  H      -2.858033      0.729294      1.446462
  H      -4.426587      1.554560      1.502231
  C      -4.483327     -0.412847      0.535349
  H      -5.590624     -0.527247      0.647268
  H      -4.057003     -1.433584      0.702671
  C      -4.146678      0.045291     -0.907474
  H      -3.038449      0.106366     -1.019868
  H      -4.525275      1.086746     -1.061030
  C      -4.730272     -0.871127     -2.011762
  H      -5.844895     -0.875637     -1.934238
  H      -4.406528     -1.926979     -1.836555
  C      -4.325551     -0.446519     -3.461970
  H      -4.550406      0.636499     -3.599773
  H      -4.981163     -0.992719     -4.182607
  C      -2.876028     -0.759062     -3.807925
  H      -2.668848     -1.830026     -4.014694
  C      -1.828315      0.101007     -3.867489
  H      -0.839967     -0.314945     -4.153054
  C      -1.850619      1.599144     -3.616519
  H      -1.060136      1.849856     -2.864640
  H      -2.815358      1.902252     -3.155707
  C      -1.590632      2.435325     -4.905776
  H      -2.370854      2.182452     -5.662179
  H      -0.621124      2.114134     -5.358296
  C      -1.549889      3.972044     -4.669184
  H      -1.347969      4.474961     -5.646706
  H      -0.677145      4.215075     -4.014926
  C      -2.829315      4.590559     -4.035741
  H      -2.670098      5.690545     -3.921983
  H      -2.963545      4.203464     -2.996459
  C      -4.134663      4.352446     -4.838368
  H      -4.329239      3.256425     -4.931942
  H      -4.000368      4.726660     -5.884229
  C      -5.379643      5.025222     -4.206161
  H      -5.201926      6.125692     -4.111423
  H      -5.509532      4.649756     -3.160117
  C      -6.689777      4.785610     -5.000037
  H      -6.860856      3.685269     -5.101554
  H      -6.563174      5.169284     -6.042602
  C      -7.931948      5.444850     -4.352104
  H      -8.856118      5.253912     -4.944865
  H      -7.808047      6.550504     -4.269295
  H      -8.106469      5.053849     -3.321915
  C       0.194641     -1.285180     -0.763922
  H       1.146799     -0.705464     -0.731185
  H      -0.442000     -0.815317     -1.548979
  C       0.486916     -2.754165     -1.164707
  H      -0.442070     -3.364705     -1.035319
  H       1.244793     -3.191974     -0.470961
  C       0.972479     -2.897959     -2.630106
  H       1.870203     -2.250839     -2.782928
  H       0.184383     -2.491595     -3.312211
  C       1.294191     -4.359986     -3.038523
  H       2.205994     -4.703899     -2.489893
  H       0.463271     -5.021966     -2.691865
  C       1.488271     -4.573163     -4.564251
  H       1.641250     -5.661030     -4.767023
  H       0.548338     -4.291873     -5.099479
  C       2.672325     -3.769307     -5.181073
  H       3.606271     -4.029512     -4.621249
  H       2.512983     -2.682191     -5.018145
  C       2.880299     -4.066293     -6.655989
  H       3.158638     -5.116322     -6.886431
  C       2.733156     -3.214815     -7.701656
  H       2.930823     -3.616957     -8.717620
  C       2.377061     -1.735889     -7.665315
  H       1.930387     -1.449157     -6.686715
  H       1.589191     -1.539345     -8.432556
  C       3.603022     -0.814468     -7.981237
  H       3.237922      0.223236     -8.178101
  H       4.066234     -1.161293     -8.936671
  C       4.685933     -0.779845     -6.867992
  H       4.923537     -1.825228     -6.561023
  H       5.632931     -0.368147     -7.295364
  C       4.299768      0.076376     -5.630771
  H       4.146090      1.130574     -5.967809
  H       3.313979     -0.252055     -5.219014
  C       5.351329      0.054657     -4.485418
  H       5.145107      0.896847     -3.780227
  H       6.360064      0.263626     -4.917725
  C       5.379819     -1.267955     -3.671610
  H       4.365096     -1.433503     -3.233694
  H       5.558176     -2.133161     -4.355429
  C       6.430058     -1.303650     -2.527270
  H       6.263239     -0.433205     -1.845389
  H       6.248469     -2.213055     -1.904555
  C       7.904518     -1.311602     -3.005951
  H       8.607253     -1.425929     -2.148524
  H       8.093779     -2.156274     -3.710489
  H       8.182339     -0.370636     -3.533990
138
Coordinates from ORCA-job /wrk/rja7/qm_final_3_replicates/qm_final_1.1/qm/2/freq E -2722.579606714124
  N       2.071844      0.176642     11.929472
  C       2.013174      1.579777     11.195320
  H       2.453118      2.312276     11.906104
  H       0.942311      1.827775     11.052180
  C       0.667676     -0.129711     12.465288
  H       0.001115     -0.249848     11.581974
  H       0.711710     -1.066307     13.061205
  H       0.341618      0.714341     13.107418
  C       3.062633      0.267656     13.077810
  H       3.111437     -0.710843     13.599228
  H       4.062734      0.522270     12.669592
  H       2.735959      1.054009     13.789422
  C       2.485240     -0.998196     11.022527
  H       3.487825     -0.795488     10.600695
  H       1.720296     -1.103381     10.225254
  H       2.523450     -1.901620     11.668272
  C       2.711041      1.699740      9.814914
  H       2.613751      2.793514      9.575519
  H       3.806349      1.482637      9.899790
  P       0.420982      0.879420      8.613318
  O      -0.075940      2.266918      8.983753
  O      -0.037396     -0.409101      9.332402
  O       2.175564      0.878036      8.798191
  O       0.372666      0.671694      6.955512
  C       0.425603     -0.651625      6.391029
  H      -0.200407     -1.362218      6.982221
  H       1.477617     -1.040236      6.391378
  C      -0.067125     -0.568621      4.934780
  H       0.506852      0.210978      4.387386
  O      -1.483788     -0.188302      4.961121
  C      -1.917044      0.775069      4.077785
  O      -1.193110      1.376421      3.293421
  C      -3.442319      0.926050      4.158273
  H      -3.689786      2.000620      4.000775
  H      -3.792676      0.630136      5.171229
  C       0.053254     -1.926713      4.202180
  H      -0.533036     -2.709092      4.734724
  H       1.120883     -2.235057      4.136475
  O      -0.533375     -1.837111      2.869837
  C       0.297589     -1.474968      1.821615
  O       1.514805     -1.408421      1.905962
  C      -0.541368     -1.133311      0.585488
  H      -1.478989     -1.733981      0.603135
  H      -0.853596     -0.071632      0.733302
  C      -4.153045      0.051718      3.071107
  H      -5.245211      0.022986      3.302438
  H      -3.790240     -1.000198      3.166746
  C      -3.941032      0.553610      1.619461
  H      -2.856830      0.730538      1.444831
  H      -4.425948      1.554609      1.502201
  C      -4.482144     -0.412488      0.534751
  H      -5.589125     -0.528370      0.648224
  H      -4.054236     -1.432781      0.700727
  C      -4.148134      0.047041     -0.908226
  H      -3.040162      0.109785     -1.022141
  H      -4.528391      1.088063     -1.060600
  C      -4.731838     -0.869514     -2.012352
  H      -5.846442     -0.874294     -1.934642
  H      -4.407768     -1.925291     -1.837292
  C      -4.327126     -0.444812     -3.462516
  H      -4.551952      0.638205     -3.600267
  H      -4.982606     -0.991094     -4.183233
  C      -2.877537     -0.757297     -3.808240
  H      -2.670022     -1.828374     -4.014114
  C      -1.830052      0.103013     -3.868308
  H      -0.841600     -0.312881     -4.153633
  C      -1.852723      1.601250     -3.618041
  H      -1.062069      1.852661     -2.866582
  H      -2.817419      1.904180     -3.156958
  C      -1.593756      2.436887     -4.907849
  H      -2.374550      2.183604     -5.663534
  H      -0.624595      2.115459     -5.360986
  C      -1.552804      3.973696     -4.671982
  H      -1.352004      4.476132     -5.649983
  H      -0.679335      4.217094     -4.018832
  C      -2.831511      4.592486     -4.037392
  H      -2.671978      5.692467     -3.924013
  H      -2.964774      4.205598     -2.997912
  C      -4.137671      4.354379     -4.838730
  H      -4.333024      3.258382     -4.931129
  H      -4.003865      4.727501     -5.885049
  C      -5.381779      5.028637     -4.206432
  H      -5.203161      6.129068     -4.112859
  H      -5.511437      4.654280     -3.159963
  C      -6.692504      4.789234     -4.999399
  H      -6.864708      3.688912     -5.099272
  H      -6.565983      5.171290     -6.042567
  C      -7.933768      5.450603     -4.351897
  H      -8.858394      5.259561     -4.943910
  H      -7.808822      6.556275     -4.270893
  H      -8.108169      5.061385     -3.321011
  C       0.196414     -1.284315     -0.765173
  H       1.148771     -0.704798     -0.733594
  H      -0.440293     -0.815462     -1.550793
  C       0.488076     -2.754070     -1.163711
  H      -0.441097     -3.364076     -1.033134
  H       1.245867     -3.191050     -0.469344
  C       0.973619     -2.900376     -2.628823
  H       1.871155     -2.253289     -2.782628
  H       0.185449     -2.495339     -3.311632
  C       1.295855     -4.363020     -3.034772
  H       2.207701     -4.705776     -2.485484
  H       0.465124     -5.024713     -2.687122
  C       1.490506     -4.578438     -4.560146
  H       1.643238     -5.666605     -4.761434
  H       0.550985     -4.297472     -5.096257
  C       2.675182     -3.775687     -5.177220
  H       3.608731     -4.035092     -4.616295
  H       2.515634     -2.688316     -5.016116
  C       2.884557     -4.074747     -6.651482
  H       3.164170     -5.124855     -6.880067
  C       2.737376     -3.225085     -7.698581
  H       2.936169     -3.628737     -8.713742
  C       2.379626     -1.746529     -7.665088
  H       1.932282     -1.458421     -6.687181
  H       1.591732     -1.552445     -8.432947
  C       3.604621     -0.824558     -7.982652
  H       3.238551      0.212098     -8.183159
  H       4.069170     -1.173882     -8.936514
  C       4.686245     -0.785212     -6.868268
  H       4.923321     -1.829258     -6.556295
  H       5.633822     -0.375515     -7.296261
  C       4.298687      0.076637     -5.635318
  H       4.146139      1.129399     -5.977268
  H       3.312005     -0.249418     -5.223735
  C       5.348716      0.059389     -4.488453
  H       5.142377      0.904942     -3.787341
  H       6.358156      0.265572     -4.920423
  C       5.375213     -1.259491     -3.668503
  H       4.360058     -1.421867     -3.230354
  H       5.552838     -2.127955     -4.348329
  C       6.424983     -1.291372     -2.523652
  H       6.259309     -0.417502     -1.845872
  H       6.241885     -2.197527     -1.896646
  C       7.899575     -1.303676     -3.001885
  H       8.601895     -1.415135     -2.143739
  H       8.087720     -2.151825     -3.702534
  H       8.178991     -0.365523     -3.534057
138
Coordinates from ORCA-job /wrk/rja7/qm_final_3_replicates/qm_final_1.1/qm/2/freq E -2722.579607467876
  N       2.071177      0.177027     11.930017
  C       2.012532      1.580001     11.195774
  H       2.452030      2.312678     11.906657
  H       0.941687      1.827779     11.052157
  C       0.667131     -0.128831     12.466390
  H       0.000234     -0.248988     11.583344
  H       0.711057     -1.065344     13.062440
  H       0.341501      0.715446     13.108433
  C       3.062490      0.267801     13.077919
  H       3.111122     -0.710653     13.599426
  H       4.062511      0.521968     12.669227
  H       2.736509      1.054396     13.789593
  C       2.483873     -0.998062     11.023064
  H       3.486405     -0.795776     10.600901
  H       1.718654     -1.103067     10.226005
  H       2.522003     -1.901392     11.668947
  C       2.710838      1.699848      9.815590
  H       2.613609      2.793576      9.576007
  H       3.806106      1.482669      9.900776
  P       0.420966      0.879973      8.613519
  O      -0.075574      2.267774      8.983375
  O      -0.038200     -0.408097      9.332922
  O       2.175527      0.877943      8.798912
  O       0.373071      0.671713      6.955784
  C       0.425700     -0.651885      6.391935
  H      -0.200639     -1.361990      6.983361
  H       1.477604     -1.040804      6.392693
  C      -0.066671     -0.569556      4.935547
  H       0.507626      0.209604      4.387858
  O      -1.483267     -0.188873      4.961339
  C      -1.916202      0.773755      4.077038
  O      -1.191999      1.374242      3.292247
  C      -3.441450      0.925173      4.157091
  H      -3.688584      1.999850      3.999739
  H      -3.792305      0.629140      5.169832
  C       0.053596     -1.928091      4.203750
  H      -0.532768     -2.710119      4.736723
  H       1.121196     -2.236580      4.138205
  O      -0.533010     -1.839149      2.871359
  C       0.297902     -1.477730      1.822882
  O       1.515151     -1.411366      1.907045
  C      -0.541123     -1.136419      0.586742
  H      -1.478664     -1.737217      0.604435
  H      -0.853619     -0.074826      0.734531
  C      -4.152065      0.051286      3.069452
  H      -5.244267      0.022563      3.300621
  H      -3.789374     -1.000699      3.164803
  C      -3.939876      0.553556      1.617959
  H      -2.855671      0.730439      1.443382
  H      -4.424690      1.554636      1.500940
  C      -4.481083     -0.412192      0.532943
  H      -5.588174     -0.527435      0.645954
  H      -4.053796     -1.432735      0.698956
  C      -4.146146      0.047269     -0.909849
  H      -3.038075      0.108803     -1.023432
  H      -4.525176      1.088757     -1.062109
  C      -4.730533     -0.868301     -2.014449
  H      -5.845189     -0.871363     -1.937424
  H      -4.408184     -1.924599     -1.839383
  C      -4.324200     -0.443991     -3.464291
  H      -4.546861      0.639451     -3.601997
  H      -4.980201     -0.988983     -4.185520
  C      -2.874923     -0.759025     -3.809121
  H      -2.668993     -1.830479     -4.014588
  C      -1.826016      0.099601     -3.868707
  H      -0.838091     -0.317967     -4.153411
  C      -1.846445      1.597889     -3.618661
  H      -1.054777      1.848442     -2.867999
  H      -2.810321      1.902131     -3.156715
  C      -1.587641      2.432925     -4.908925
  H      -2.369038      2.179862     -5.664060
  H      -0.618969      2.110618     -5.362490
  C      -1.545595      3.969788     -4.673673
  H      -1.344983      4.471706     -5.651980
  H      -0.671643      4.212963     -4.021085
  C      -2.823655      4.589590     -4.038785
  H      -2.663390      5.689494     -3.925722
  H      -2.956857      4.203012     -2.999182
  C      -4.130188      4.352097     -4.839696
  H      -4.325961      3.256194     -4.932308
  H      -3.996548      4.725421     -5.885971
  C      -5.373866      5.026685     -4.206907
  H      -5.194721      6.126992     -4.112907
  H      -5.503539      4.651935     -3.160578
  C      -6.684817      4.788192     -4.999775
  H      -6.857456      3.687988     -5.100206
  H      -6.558338      5.170750     -6.042764
  C      -7.925724      5.449706     -4.351737
  H      -8.850524      5.259320     -4.943690
  H      -7.800343      6.555290     -4.270197
  H      -8.100112      5.060034     -3.321019
  C       0.196568     -1.287434     -0.763939
  H       1.148771     -0.707651     -0.732612
  H      -0.440367     -0.818865     -1.549543
  C       0.488464     -2.757196     -1.162320
  H      -0.440525     -3.367391     -1.031340
  H       1.246576     -3.193895     -0.468129
  C       0.973547     -2.903464     -2.627579
  H       1.870719     -2.255957     -2.781699
  H       0.184957     -2.498858     -3.310151
  C       1.296342     -4.365943     -3.033684
  H       2.208341     -4.708473     -2.484509
  H       0.465901     -5.028017     -2.686042
  C       1.490860     -4.580992     -4.559152
  H       1.643583     -5.669079     -4.760837
  H       0.551301     -4.299836     -5.095088
  C       2.675348     -3.777758     -5.175981
  H       3.609217     -4.037867     -4.615920
  H       2.515847     -2.690616     -5.013430
  C       2.884015     -4.074901     -6.650740
  H       3.165969     -5.124087     -6.880673
  C       2.733538     -3.224545     -7.696824
  H       2.932055     -3.626694     -8.712638
  C       2.371926     -1.746952     -7.661397
  H       1.926086     -1.460883     -6.682188
  H       1.581593     -1.554476     -8.427168
  C       3.593687     -0.821457     -7.981134
  H       3.224432      0.214229     -8.180749
  H       4.057513     -1.169364     -8.935849
  C       4.676942     -0.779391     -6.868386
  H       4.915719     -1.822813     -6.555692
  H       5.623489     -0.368939     -7.297898
  C       4.289640      0.083011     -5.635723
  H       4.137288      1.135692     -5.978030
  H       3.302794     -0.242636     -5.224182
  C       5.339738      0.066021     -4.488930
  H       5.132646      0.911049     -3.787403
  H       6.348946      0.273339     -4.920891
  C       5.367581     -1.253350     -3.669824
  H       4.352517     -1.417486     -3.232136
  H       5.546548     -2.121100     -4.350215
  C       6.417048     -1.284951     -2.524687
  H       6.249989     -0.412140     -1.845869
  H       6.235002     -2.192079     -1.898784
  C       7.891801     -1.294650     -3.002508
  H       8.594033     -1.405535     -2.144211
  H       8.081431     -2.142092     -3.703602
  H       8.169888     -0.355686     -3.533939
138
Coordinates from ORCA-job /wrk/rja7/qm_final_3_replicates/qm_final_1.1/qm/2/freq E -2722.579607965489
  N       2.071894      0.176915     11.931029
  C       2.013108      1.579556     11.196453
  H       2.452030      2.312580     11.907342
  H       0.942262      1.827021     11.052349
  C       0.668116     -0.128313     12.468351
  H       0.000650     -0.248614     11.585752
  H       0.712037     -1.064624     13.064714
  H       0.343073      0.716305     13.110238
  C       3.064032      0.267706     13.078229
  H       3.112641     -0.710593     13.600021
  H       4.063856      0.521344     12.668728
  H       2.738932      1.054693     13.789885
  C       2.483650     -0.998701     11.024302
  H       3.486011     -0.796973     10.601473
  H       1.717994     -1.103742     10.227657
  H       2.521832     -1.901713     11.670624
  C       2.711817      1.699220      9.816444
  H       2.614575      2.792870      9.576574
  H       3.807059      1.482030      9.901882
  P       0.422092      0.879777      8.614050
  O      -0.073938      2.267968      8.983128
  O      -0.037911     -0.407654      9.334083
  O       2.176617      0.877058      8.799856
  O       0.374515      0.670643      6.956432
  C       0.425931     -0.653352      6.393384
  H      -0.200932     -1.362535      6.985360
  H       1.477517     -1.043143      6.394269
  C      -0.066499     -0.571673      4.936988
  H       0.508405      0.206618      4.388692
  O      -1.482794     -0.189862      4.962565
  C      -1.915188      0.771998      4.077192
  O      -1.190689      1.370949      3.291487
  C      -3.440327      0.924478      4.157142
  H      -3.686687      1.999378      4.000036
  H      -3.791592      0.628464      5.169738
  C       0.052589     -1.930898      4.206183
  H      -0.534289     -2.712063      4.739847
  H       1.119940     -2.240246      4.140645
  O      -0.534224     -1.842510      2.873841
  C       0.296661     -1.482182      1.824981
  O       1.513988     -1.416650      1.908791
  C      -0.542409     -1.140875      0.588883
  H      -1.479977     -1.741646      0.606466
  H      -0.854933     -0.079328      0.736937
  C      -4.151460      0.051405      3.069148
  H      -5.243664      0.023184      3.300381
  H      -3.789345     -1.000815      3.164114
  C      -3.939124      0.554094      1.617836
  H      -2.854863      0.730605      1.443222
  H      -4.423516      1.555427      1.501192
  C      -4.480824     -0.410944      0.532394
  H      -5.588066     -0.525152      0.644914
  H      -4.054552     -1.431929      0.698301
  C      -4.144726      0.048594     -0.910095
  H      -3.036527      0.108658     -1.023212
  H      -4.522254      1.090671     -1.062098
  C      -4.729936     -0.865547     -2.015461
  H      -5.844647     -0.866658     -1.939232
  H      -4.409580     -1.922495     -1.840674
  C      -4.321714     -0.441238     -3.464804
  H      -4.541939      0.642722     -3.602112
  H      -4.978210     -0.984572     -4.186845
  C      -2.872781     -0.758963     -3.808649
  H      -2.668410     -1.830904     -4.013102
  C      -1.822539      0.098037     -3.868439
  H      -0.835117     -0.321304     -4.152280
  C      -1.841001      1.596584     -3.619816
  H      -1.048556      1.846974     -2.869943
  H      -2.804230      1.902278     -3.157446
  C      -1.582279      2.430120     -4.911079
  H      -2.363913      2.176363     -5.665737
  H      -0.613806      2.107016     -5.364520
  C      -1.539875      3.967212     -4.677604
  H      -1.339420      4.467937     -5.656566
  H      -0.665712      4.211088     -4.025558
  C      -2.817735      4.587949     -4.043256
  H      -2.657180      5.687904     -3.931124
  H      -2.951115      4.202270     -3.003338
  C      -4.124251      4.350080     -4.844083
  H      -4.319851      3.254126     -4.936457
  H      -3.990558      4.723164     -5.890443
  C      -5.368075      5.024628     -4.211571
  H      -5.188985      6.124936     -4.117491
  H      -5.498027      4.649842     -3.165288
  C      -6.678831      4.786038     -5.004738
  H      -6.851209      3.685815     -5.105416
  H      -6.552239      5.168821     -6.047632
  C      -7.920007      5.447172     -4.356839
  H      -8.844633      5.256731     -4.949046
  H      -7.794853      6.552763     -4.275047
  H      -8.094568      5.057267     -3.326237
  C       0.195305     -1.291671     -0.761775
  H       1.147512     -0.711899     -0.730354
  H      -0.441550     -0.822958     -1.547358
  C       0.487128     -2.761375     -1.160422
  H      -0.441972     -3.371455     -1.029721
  H       1.245096     -3.198347     -0.466238
  C       0.972524     -2.907048     -2.625628
  H       1.869651     -2.259345     -2.779103
  H       0.184080     -2.502141     -3.308177
  C       1.295506     -4.369273     -3.032525
  H       2.207416     -4.712158     -2.483423
  H       0.465028     -5.031626     -2.685490
  C       1.490470     -4.583201     -4.558108
  H       1.642898     -5.671147     -4.760741
  H       0.551228     -4.301194     -5.094147
  C       2.675400     -3.779621     -5.173666
  H       3.609233     -4.041243     -4.614252
  H       2.516326     -2.692749     -5.009081
  C       2.883871     -4.073928     -6.649041
  H       3.168287     -5.122016     -6.880928
  C       2.730469     -3.222209     -7.693620
  H       2.929112     -3.622211     -8.710264
  C       2.364710     -1.745725     -7.655528
  H       1.921177     -1.462110     -6.674537
  H       1.571230     -1.554852     -8.418461
  C       3.582777     -0.816405     -7.978215
  H       3.210012      0.218336     -8.176139
  H       4.044985     -1.162429     -8.934387
  C       4.668686     -0.772159     -6.868096
  H       4.909121     -1.815115     -6.555184
  H       5.613919     -0.361080     -7.299855
  C       4.282910      0.090479     -5.635100
  H       4.131710      1.143426     -5.977150
  H       3.295694     -0.233952     -5.223486
  C       5.333431      0.072287     -4.488756
  H       5.125554      0.915812     -3.785641
  H       6.342227      0.281506     -4.920739
  C       5.363046     -1.248538     -3.672057
  H       4.348121     -1.415260     -3.235056
  H       5.543627     -2.114792     -4.353932
  C       6.412133     -1.280763     -2.526568
  H       6.243404     -0.409732     -1.845867
  H       6.231273     -2.189543     -1.902724
  C       7.887098     -1.287141     -3.003782
  H       8.589141     -1.397872     -2.145306
  H       8.078566     -2.133304     -3.705911
  H       8.163704     -0.346896     -3.533709
138
Coordinates from ORCA-job /wrk/rja7/qm_final_3_replicates/qm_final_1.1/qm/2/freq E -2722.579608078409
  N       2.070934      0.177748     11.930925
  C       2.011583      1.580386     11.196468
  H       2.450112      2.313556     11.907450
  H       0.940657      1.827463     11.052285
  C       0.667349     -0.127944     12.468480
  H      -0.000266     -0.248298     11.585997
  H       0.711639     -1.064294     13.064757
  H       0.342182      0.716513     13.110519
  C       3.063257      0.268754     13.077952
  H       3.112349     -0.709601     13.599600
  H       4.062906      0.522839     12.668297
  H       2.737987      1.055508     13.789786
  C       2.482874     -0.997694     11.024030
  H       3.485125     -0.795687     10.601071
  H       1.717164     -1.102794     10.227439
  H       2.521284     -1.900753     11.670268
  C       2.710331      1.700337      9.816501
  H       2.612783      2.793953      9.576615
  H       3.805624      1.483437      9.901975
  P       0.420933      0.880379      8.613750
  O      -0.075376      2.268577      8.982456
  O      -0.039021     -0.406961      9.334009
  O       2.175417      0.878026      8.799857
  O       0.373728      0.670798      6.956166
  C       0.425212     -0.653368      6.393490
  H      -0.201833     -1.362355      6.985509
  H       1.476765     -1.043238      6.394710
  C      -0.066883     -0.572056      4.936977
  H       0.508279      0.205945      4.388538
  O      -1.483106     -0.189997      4.962108
  C      -1.915106      0.771584      4.076232
  O      -1.190271      1.370173      3.290564
  C      -3.440250      0.924305      4.155595
  H      -3.686396      1.999197      3.998101
  H      -3.791935      0.628588      5.168130
  C       0.052119     -1.931610      4.206702
  H      -0.535077     -2.712431      4.740517
  H       1.119420     -2.241212      4.141565
  O      -0.534371     -1.843615      2.874198
  C       0.296811     -1.483662      1.825440
  O       1.514108     -1.418043      1.909566
  C      -0.541959     -1.142632      0.589067
  H      -1.479627     -1.743241      0.606617
  H      -0.854286     -0.080978      0.736738
  C      -4.151107      0.051065      3.067536
  H      -5.243393      0.023017      3.298401
  H      -3.789115     -1.001164      3.162852
  C      -3.938216      0.553486      1.616208
  H      -2.853865      0.729819      1.441943
  H      -4.422389      1.554890      1.499249
  C      -4.479753     -0.411574      0.530697
  H      -5.587069     -0.525449      0.642793
  H      -4.053800     -1.432640      0.696932
  C      -4.142933      0.047640     -0.911736
  H      -3.034660      0.106964     -1.024508
  H      -4.519739      1.089948     -1.063951
  C      -4.728439     -0.866147     -2.017250
  H      -5.843176     -0.866383     -1.941395
  H      -4.408967     -1.923331     -1.842266
  C      -4.319399     -0.442221     -3.466489
  H      -4.538167      0.642034     -3.603730
  H      -4.976414     -0.984614     -4.188762
  C      -2.870776     -0.761691     -3.810087
  H      -2.667719     -1.833847     -4.014723
  C      -1.819414      0.093988     -3.869409
  H      -0.832505     -0.326516     -4.153295
  C      -1.836065      1.592486     -3.620219
  H      -1.042886      1.841680     -2.870725
  H      -2.798668      1.899016     -3.157107
  C      -1.577221      2.426269     -4.911293
  H      -2.359389      2.173455     -5.665709
  H      -0.609209      2.102556     -5.365286
  C      -1.533421      3.963236     -4.677261
  H      -1.333013      4.464170     -5.656131
  H      -0.658746      4.206126     -4.025536
  C      -2.810454      4.584839     -4.042099
  H      -2.648887      5.684613     -3.929647
  H      -2.943698      4.198898     -3.002258
  C      -4.117534      4.348463     -4.842460
  H      -4.314091      3.252725     -4.935292
  H      -3.983996      4.721948     -5.888696
  C      -5.360516      5.023712     -4.209051
  H      -5.180505      6.123830     -4.114507
  H      -5.490310      4.648521     -3.162893
  C      -6.671837      4.786540     -5.001741
  H      -6.845119      3.686502     -5.102860
  H      -6.545409      5.169715     -6.044512
  C      -7.912201      5.448344     -4.352971
  H      -8.837236      5.258892     -4.944856
  H      -7.786154      6.553802     -4.270730
  H      -8.086610      5.058106     -3.322470
  C       0.195998     -1.293917     -0.761399
  H       1.148287     -0.714312     -0.729857
  H      -0.440605     -0.825261     -1.547221
  C       0.487810     -2.763709     -1.159759
  H      -0.441283     -3.373785     -1.029001
  H       1.245756     -3.200550     -0.465464
  C       0.973260     -2.909462     -2.624949
  H       1.870104     -2.261382     -2.778479
  H       0.184654     -2.504930     -3.307527
  C       1.296870     -4.371580     -3.031722
  H       2.209122     -4.713910     -2.482847
  H       0.466821     -5.034315     -2.684401
  C       1.491527     -4.585484     -4.557342
  H       1.644588     -5.673338     -4.760005
  H       0.551941     -4.304061     -5.093084
  C       2.675717     -3.781100     -5.173311
  H       3.609983     -4.042397     -4.614480
  H       2.516087     -2.694387     -5.008316
  C       2.883490     -4.074684     -6.648958
  H       3.169543     -5.122180     -6.881468
  C       2.727647     -3.222852     -7.693109
  H       2.926179     -3.622084     -8.710076
  C       2.359087     -1.747095     -7.654184
  H       1.916318     -1.464590     -6.672523
  H       1.564217     -1.557645     -8.416022
  C       3.574924     -0.815271     -7.978178
  H       3.199815      0.218626     -8.176083
  H       4.037064     -1.160532     -8.934656
  C       4.661525     -0.768482     -6.868853
  H       4.903598     -1.810782     -6.555075
  H       5.605935     -0.356498     -7.301529
  C       4.275183      0.094739     -5.636405
  H       4.123680      1.147409     -5.979169
  H       3.287993     -0.229780     -5.224792
  C       5.325591      0.077731     -4.489944
  H       5.117236      0.921536     -3.787300
  H       6.334302      0.287214     -4.921992
  C       5.355792     -1.242553     -3.672362
  H       4.340981     -1.409304     -3.235089
  H       5.536536     -2.109210     -4.353677
  C       6.405066     -1.273666     -2.527032
  H       6.236190     -0.402213     -1.846908
  H       6.224581     -2.182076     -1.902535
  C       7.879955     -1.279928     -3.004461
  H       8.582157     -1.389981     -2.146028
  H       8.071572     -2.126387     -3.706191
  H       8.156229     -0.339894     -3.534954
138
Coordinates from ORCA-job /wrk/rja7/qm_final_3_replicates/qm_final_1.1/qm/2/freq E -2722.579608170322
  N       2.070609      0.177669     11.931050
  C       2.011198      1.580388     11.196720
  H       2.449529      2.313512     11.907869
  H       0.940270      1.827392     11.052432
  C       0.666946     -0.128294     12.468262
  H      -0.000462     -0.248626     11.585618
  H       0.711254     -1.064700     13.064455
  H       0.341522      0.716020     13.110361
  C       3.062650      0.268756     13.078320
  H       3.111895     -0.709668     13.599825
  H       4.062324      0.523173     12.668932
  H       2.736986      1.055309     13.790192
  C       2.482937     -0.997607     11.024140
  H       3.485258     -0.795376     10.601439
  H       1.717454     -1.102680     10.227345
  H       2.521295     -1.900727     11.670288
  C       2.710148      1.700565      9.816881
  H       2.612546      2.794198      9.577099
  H       3.805447      1.483754      9.902495
  P       0.420995      0.880618      8.613680
  O      -0.075386      2.268792      8.982355
  O      -0.039035     -0.406774      9.333808
  O       2.175435      0.878371      8.800049
  O       0.374115      0.671029      6.956078
  C       0.425332     -0.653170      6.393440
  H      -0.201759     -1.362022      6.985567
  H       1.476823     -1.043203      6.394570
  C      -0.066916     -0.571862      4.936974
  H       0.508236      0.206058      4.388415
  O      -1.483107     -0.189696      4.962250
  C      -1.915158      0.771902      4.076422
  O      -1.190380      1.370483      3.290693
  C      -3.440294      0.924684      4.155971
  H      -3.686397      1.999571      3.998386
  H      -3.791826      0.629085      5.168594
  C       0.051870     -1.931487      4.206777
  H      -0.535406     -2.712178      4.740694
  H       1.119127     -2.241235      4.141603
  O      -0.534703     -1.843558      2.874297
  C       0.296440     -1.483486      1.825519
  O       1.513725     -1.417755      1.909650
  C      -0.542382     -1.142505      0.589146
  H      -1.480019     -1.743155      0.606737
  H      -0.854679     -0.080842      0.736796
  C      -4.151327      0.051328      3.068122
  H      -5.243581      0.023323      3.299138
  H      -3.789338     -1.000892      3.163524
  C      -3.938569      0.553600      1.616728
  H      -2.854224      0.729888      1.442398
  H      -4.422710      1.555012      1.499707
  C      -4.480170     -0.411531      0.531328
  H      -5.587467     -0.525486      0.643557
  H      -4.054145     -1.432568      0.697563
  C      -4.143512      0.047658     -0.911139
  H      -3.035250      0.107168     -1.023935
  H      -4.520519      1.089885     -1.063409
  C      -4.728871     -0.866283     -2.016595
  H      -5.843599     -0.866895     -1.940612
  H      -4.409034     -1.923366     -1.841670
  C      -4.320093     -0.442129     -3.465833
  H      -4.539169      0.642087     -3.602915
  H      -4.977014     -0.984605     -4.188127
  C      -2.871413     -0.761166     -3.809571
  H      -2.668114     -1.833284     -4.014186
  C      -1.820284      0.094782     -3.869099
  H      -0.833293     -0.325465     -4.153071
  C      -1.837344      1.593296     -3.619966
  H      -1.044349      1.842645     -2.870322
  H      -2.800100      1.899589     -3.157027
  C      -1.578439      2.427124     -4.910967
  H      -2.360455      2.174219     -5.665512
  H      -0.610306      2.103595     -5.364832
  C      -1.534869      3.964093     -4.676903
  H      -1.334355      4.465058     -5.655735
  H      -0.660325      4.207089     -4.025039
  C      -2.812069      4.585550     -4.041942
  H      -2.650682      5.685360     -3.929576
  H      -2.945371      4.199709     -3.002072
  C      -4.119025      4.348864     -4.842411
  H      -4.315413      3.253076     -4.935057
  H      -3.985422      4.722168     -5.888701
  C      -5.362154      5.024066     -4.209246
  H      -5.182323      6.124235     -4.114947
  H      -5.491959      4.649116     -3.163002
  C      -6.673394      4.786499     -5.001956
  H      -6.846492      3.686410     -5.102834
  H      -6.546962      5.169458     -6.044806
  C      -7.913899      5.448252     -4.353408
  H      -8.838858      5.258543     -4.945331
  H      -7.788028      6.553745     -4.271378
  H      -8.088334      5.058198     -3.322842
  C       0.195613     -1.293757     -0.761309
  H       1.147971     -0.714263     -0.729635
  H      -0.440853     -0.824930     -1.547141
  C       0.487347     -2.763530     -1.159782
  H      -0.441856     -3.373507     -1.029335
  H       1.245094     -3.200530     -0.465372
  C       0.973168     -2.909147     -2.624867
  H       1.870099     -2.261109     -2.778063
  H       0.184803     -2.504411     -3.307607
  C       1.296699     -4.371261     -3.031730
  H       2.208913     -4.713666     -2.482839
  H       0.466577     -5.033942     -2.684495
  C       1.491518     -4.585063     -4.557334
  H       1.644704     -5.672899     -4.760024
  H       0.551973     -4.303709     -5.093185
  C       2.675783     -3.780646     -5.173122
  H       3.609906     -4.041894     -4.614038
  H       2.516086     -2.693922     -5.008265
  C       2.883852     -4.074304     -6.648720
  H       3.169776     -5.121838     -6.881203
  C       2.728479     -3.222396     -7.692880
  H       2.927171     -3.621613     -8.709822
  C       2.360185     -1.746589     -7.654013
  H       1.917759     -1.463890     -6.672258
  H       1.565134     -1.557077     -8.415649
  C       3.576102     -0.815029     -7.978399
  H       3.201148      0.218994     -8.175952
  H       4.037717     -1.160183     -8.935178
  C       4.663235     -0.768792     -6.869590
  H       4.905379     -1.811239     -6.556333
  H       5.607445     -0.356677     -7.302572
  C       4.277538      0.093964     -5.636607
  H       4.126276      1.146830     -5.978883
  H       3.290391     -0.230421     -5.224807
  C       5.328306      0.076225     -4.490503
  H       5.120194      0.919655     -3.787333
  H       6.336896      0.285910     -4.922740
  C       5.358625     -1.244412     -3.673497
  H       4.343954     -1.411119     -3.235887
  H       5.538963     -2.110881     -4.355159
  C       6.408306     -1.275980     -2.528551
  H       6.239835     -0.404579     -1.848269
  H       6.227868     -2.184463     -1.904145
  C       7.883020     -1.282492     -3.006489
  H       8.585494     -1.392903     -2.148325
  H       8.074224     -2.128832     -3.708475
  H       8.159358     -0.342424     -3.536898
138
Coordinates from ORCA-job /wrk/rja7/qm_final_3_replicates/qm_final_1.1/qm/2/freq E -2722.579608204050
  N       2.070774      0.177496     11.931217
  C       2.011143      1.580219     11.196845
  H       2.449253      2.313414     11.908054
  H       0.940183      1.827025     11.052479
  C       0.667095     -0.128733     12.468260
  H      -0.000177     -0.249161     11.585524
  H       0.711516     -1.065124     13.064469
  H       0.341446      0.715506     13.110345
  C       3.062637      0.268863     13.078620
  H       3.112113     -0.709554     13.600116
  H       4.062291      0.523580     12.669371
  H       2.736620      1.055302     13.790449
  C       2.483422     -0.997729     11.024420
  H       3.485756     -0.795313     10.601835
  H       1.718072     -1.102951     10.227532
  H       2.521848     -1.900828     11.670589
  C       2.710263      1.700580      9.817109
  H       2.612501      2.794204      9.577350
  H       3.805591      1.483978      9.902890
  P       0.421456      0.880315      8.613580
  O      -0.075092      2.268441      8.982172
  O      -0.038507     -0.407118      9.333682
  O       2.175847      0.878360      8.800161
  O       0.374855      0.670610      6.955968
  C       0.425702     -0.653635      6.393407
  H      -0.201473     -1.362307      6.985652
  H       1.477103     -1.043915      6.394431
  C      -0.066717     -0.572302      4.936986
  H       0.508556      0.205430      4.388289
  O      -1.482811     -0.189790      4.962441
  C      -1.914765      0.771932      4.076705
  O      -1.189960      1.370420      3.290932
  C      -3.439882      0.924895      4.156362
  H      -3.685857      1.999805      3.998765
  H      -3.791327      0.629359      5.169036
  C       0.051566     -1.932021      4.206884
  H      -0.535995     -2.712436      4.740891
  H       1.118703     -2.242177      4.141711
  O      -0.535025     -1.844033      2.874412
  C       0.296212     -1.484058      1.825656
  O       1.513504     -1.418628      1.909824
  C      -0.542507     -1.142885      0.589256
  H      -1.480273     -1.743331      0.606824
  H      -0.854525     -0.081134      0.736879
  C      -4.151103      0.051597      3.068595
  H      -5.243340      0.023704      3.299704
  H      -3.789204     -1.000655      3.163977
  C      -3.938372      0.553879      1.617205
  H      -2.854011      0.730086      1.442888
  H      -4.422426      1.555338      1.500227
  C      -4.480030     -0.411165      0.531772
  H      -5.587324     -0.525136      0.644034
  H      -4.054016     -1.432219      0.697920
  C      -4.143449      0.048146     -0.910672
  H      -3.035191      0.107727     -1.023476
  H      -4.520538      1.090353     -1.062860
  C      -4.728778     -0.865777     -2.016154
  H      -5.843506     -0.866475     -1.940164
  H      -4.408883     -1.922844     -1.841243
  C      -4.320042     -0.441549     -3.465373
  H      -4.539093      0.642689     -3.602360
  H      -4.976998     -0.983929     -4.187701
  C      -2.871373     -0.760560     -3.809183
  H      -2.668102     -1.832684     -4.013814
  C      -1.820268      0.095398     -3.868860
  H      -0.833275     -0.324838     -4.152837
  C      -1.837406      1.593948     -3.619912
  H      -1.044525      1.843385     -2.870176
  H      -2.800240      1.900268     -3.157163
  C      -1.578314      2.427642     -4.910946
  H      -2.360137      2.174573     -5.665638
  H      -0.610033      2.104222     -5.364571
  C      -1.535011      3.964647     -4.677013
  H      -1.334322      4.465571     -5.655827
  H      -0.660670      4.207795     -4.024934
  C      -2.812461      4.585940     -4.042381
  H      -2.651352      5.685812     -3.930210
  H      -2.945827      4.200284     -3.002452
  C      -4.119250      4.348769     -4.842983
  H      -4.315454      3.252911     -4.935205
  H      -3.985556      4.721661     -5.889406
  C      -5.362574      5.024011     -4.210251
  H      -5.183009      6.124267     -4.116474
  H      -5.492368      4.649551     -3.163830
  C      -6.673701      4.785759     -5.002935
  H      -6.846553      3.685579     -5.103243
  H      -6.547265      5.168194     -6.045976
  C      -7.914391      5.447580     -4.354820
  H      -8.839265      5.257357     -4.946712
  H      -7.788774      6.553144     -4.273359
  H      -8.088808      5.058030     -3.324061
  C       0.195549     -1.294226     -0.761157
  H       1.148067     -0.714996     -0.729329
  H      -0.440697     -0.825129     -1.547004
  C       0.486965     -2.764011     -1.159797
  H      -0.442388     -3.373801     -1.029546
  H       1.244575     -3.201272     -0.465402
  C       0.972890     -2.909499     -2.624864
  H       1.869940     -2.261584     -2.777886
  H       0.184677     -2.504474     -3.307610
  C       1.296161     -4.371606     -3.031928
  H       2.208187     -4.714301     -2.482902
  H       0.465794     -5.034142     -2.685010
  C       1.491323     -4.585181     -4.557517
  H       1.644502     -5.672995     -4.760333
  H       0.551922     -4.303705     -5.093556
  C       2.675841     -3.780826     -5.172930
  H       3.609761     -4.042268     -4.613602
  H       2.516279     -2.694097     -5.007997
  C       2.884146     -4.074374     -6.648517
  H       3.170052     -5.121894     -6.881072
  C       2.728934     -3.222390     -7.692642
  H       2.927774     -3.621536     -8.709584
  C       2.360607     -1.746595     -7.653824
  H       1.918425     -1.463774     -6.671997
  H       1.565362     -1.557176     -8.415282
  C       3.576431     -0.815068     -7.978612
  H       3.201424      0.218896     -8.176367
  H       4.037935     -1.160394     -8.935389
  C       4.663689     -0.768580     -6.869956
  H       4.905800     -1.810937     -6.556379
  H       5.607868     -0.356607     -7.303131
  C       4.278100      0.094599     -5.637210
  H       4.127329      1.147442     -5.979767
  H       3.290751     -0.229312     -5.225534
  C       5.328621      0.076695     -4.490894
  H       5.120793      0.920416     -3.787988
  H       6.337408      0.285787     -4.922963
  C       5.358101     -1.243692     -3.673460
  H       4.343267     -1.409601     -3.235915
  H       5.538007     -2.110520     -4.354776
  C       6.407599     -1.275398     -2.528355
  H       6.239646     -0.403488     -1.848602
  H       6.226458     -2.183417     -1.903481
  C       7.882372     -1.283198     -3.006086
  H       8.584641     -1.393884     -2.147791
  H       8.073045     -2.129904     -3.707780
  H       8.159522     -0.343541     -3.536800
138
Coordinates from ORCA-job /wrk/rja7/qm_final_3_replicates/qm_final_1.1/qm/2/freq E -2722.579608218308
  N       2.070335      0.177597     11.931085
  C       2.010538      1.580425     11.196911
  H       2.448470      2.313586     11.908265
  H       0.939553      1.827085     11.052490
  C       0.666649     -0.128943     12.467946
  H      -0.000508     -0.249306     11.585116
  H       0.711156     -1.065426     13.064004
  H       0.340807      0.715143     13.110137
  C       3.062080      0.268952     13.078591
  H       3.111690     -0.709547     13.599919
  H       4.061721      0.523924     12.669470
  H       2.735835      1.055203     13.790522
  C       2.483250     -0.997423     11.024131
  H       3.485588     -0.794778     10.601671
  H       1.717979     -1.102624     10.227159
  H       2.521747     -1.900632     11.670142
  C       2.709771      1.701089      9.817260
  H       2.611864      2.794729      9.577635
  H       3.805125      1.484647      9.903136
  P       0.421251      0.880660      8.613310
  O      -0.075489      2.268740      8.981831
  O      -0.038689     -0.406816      9.333358
  O       2.175604      0.878911      8.800143
  O       0.374916      0.670913      6.955686
  C       0.425789     -0.653338      6.393143
  H      -0.201284     -1.362047      6.985450
  H       1.477218     -1.043546      6.394074
  C      -0.066766     -0.572058      4.936763
  H       0.508403      0.205706      4.388006
  O      -1.482886     -0.189651      4.962332
  C      -1.914928      0.772090      4.076659
  O      -1.190170      1.370692      3.290931
  C      -3.440050      0.924973      4.156357
  H      -3.686094      1.999857      3.998690
  H      -3.791453      0.629492      5.169062
  C       0.051539     -1.931770      4.206671
  H      -0.536013     -2.712185      4.740688
  H       1.118679     -2.241916      4.141501
  O      -0.535065     -1.843822      2.874197
  C       0.296124     -1.483689      1.825456
  O       1.513403     -1.418037      1.909655
  C      -0.542624     -1.142589      0.589058
  H      -1.480372     -1.743060      0.606675
  H      -0.854667     -0.080832      0.736606
  C      -4.151235      0.051560      3.068656
  H      -5.243467      0.023627      3.299778
  H      -3.789273     -1.000665      3.164093
  C      -3.938520      0.553758      1.617232
  H      -2.854159      0.729955      1.442894
  H      -4.422575      1.555211      1.500214
  C      -4.480209     -0.411342      0.531865
  H      -5.587495     -0.525329      0.644190
  H      -4.054158     -1.432377      0.698028
  C      -4.143722      0.047926     -0.910617
  H      -3.035471      0.107493     -1.023509
  H      -4.520808      1.090132     -1.062806
  C      -4.729131     -0.866030     -2.016033
  H      -5.843852     -0.866749     -1.939944
  H      -4.409200     -1.923087     -1.841124
  C      -4.320523     -0.441819     -3.465287
  H      -4.539586      0.642418     -3.602261
  H      -4.977540     -0.984195     -4.187563
  C      -2.871874     -0.760819     -3.809213
  H      -2.668628     -1.832937     -4.013899
  C      -1.820757      0.095125     -3.868877
  H      -0.833791     -0.325102     -4.152962
  C      -1.837821      1.593645     -3.619751
  H      -1.044866      1.842958     -2.870050
  H      -2.800602      1.899956     -3.156888
  C      -1.578797      2.427487     -4.910703
  H      -2.360724      2.174599     -5.665347
  H      -0.610593      2.104042     -5.364476
  C      -1.535321      3.964461     -4.676555
  H      -1.334668      4.465511     -5.655309
  H      -0.660903      4.207413     -4.024508
  C      -2.812651      4.585787     -4.041703
  H      -2.651399      5.685620     -3.929352
  H      -2.945975      4.199960     -3.001833
  C      -4.119542      4.348930     -4.842231
  H      -4.315926      3.253116     -4.934596
  H      -3.985889      4.721958     -5.888610
  C      -5.362707      5.024274     -4.209292
  H      -5.182974      6.124492     -4.115395
  H      -5.492454      4.649699     -3.162907
  C      -6.673942      4.786324     -5.001892
  H      -6.846984      3.686184     -5.102299
  H      -6.547528      5.168846     -6.044904
  C      -7.914466      5.448284     -4.353599
  H      -8.839426      5.258271     -4.945424
  H      -7.788661      6.553820     -4.272041
  H      -8.088849      5.058660     -3.322863
  C       0.195433     -1.293991     -0.761353
  H       1.147944     -0.714757     -0.729540
  H      -0.440805     -0.824953     -1.547241
  C       0.486900     -2.763798     -1.159889
  H      -0.442433     -3.373622     -1.029658
  H       1.244480     -3.200990     -0.465418
  C       0.972946     -2.909384     -2.624908
  H       1.869972     -2.261431     -2.777912
  H       0.184761     -2.504460     -3.307749
  C       1.296330     -4.371509     -3.031818
  H       2.208343     -4.714100     -2.482706
  H       0.465979     -5.034055     -2.684882
  C       1.491585     -4.585212     -4.557385
  H       1.644857     -5.673032     -4.760100
  H       0.552186     -4.303859     -5.093492
  C       2.676089     -3.780827     -5.172795
  H       3.609981     -4.042130     -4.613358
  H       2.516428     -2.694091     -5.007987
  C       2.884555     -4.074505     -6.648331
  H       3.170538     -5.122032     -6.880763
  C       2.729430     -3.222627     -7.692554
  H       2.928426     -3.621857     -8.709434
  C       2.361029     -1.746841     -7.653934
  H       1.918855     -1.463913     -6.672135
  H       1.565735     -1.557572     -8.415382
  C       3.576762     -0.815268     -7.978911
  H       3.201680      0.218691     -8.176558
  H       4.038097     -1.160533     -8.935792
  C       4.664251     -0.768781     -6.870476
  H       4.906544     -1.811152     -6.557087
  H       5.608294     -0.356656     -7.303807
  C       4.278848      0.094226     -5.637554
  H       4.128023      1.147117     -5.979937
  H       3.291560     -0.229742     -5.225774
  C       5.329544      0.076188     -4.491401
  H       5.121805      0.919806     -3.788348
  H       6.338264      0.285375     -4.923589
  C       5.359207     -1.244315     -3.674154
  H       4.344428     -1.410364     -3.236533
  H       5.539153     -2.111045     -4.355576
  C       6.408805     -1.276019     -2.529132
  H       6.240823     -0.404155     -1.849328
  H       6.227798     -2.184084     -1.904286
  C       7.883533     -1.283640     -3.007001
  H       8.585903     -1.394299     -2.148784
  H       8.074224     -2.130294     -3.708755
  H       8.160532     -0.343937     -3.537709
138
Coordinates from ORCA-job /wrk/rja7/qm_final_3_replicates/qm_final_1.1/qm/2/freq E -2722.579608227084
  N       2.069929      0.177622     11.931193
  C       2.010053      1.580500     11.197101
  H       2.447792      2.313664     11.908571
  H       0.939056      1.827016     11.052548
  C       0.666208     -0.129094     12.467876
  H      -0.000825     -0.249454     11.584954
  H       0.710736     -1.065617     13.063869
  H       0.340210      0.714918     13.110083
  C       3.061543      0.269005     13.078804
  H       3.111205     -0.709527     13.600066
  H       4.061198      0.524110     12.669800
  H       2.735135      1.055170     13.790755
  C       2.483056     -0.997282     11.024187
  H       3.485416     -0.794496     10.601847
  H       1.717868     -1.102496     10.227138
  H       2.521589     -1.900544     11.670125
  C       2.709483      1.701336      9.817571
  H       2.611472      2.794977      9.577995
  H       3.804851      1.485028      9.903619
  P       0.421263      0.880772      8.613199
  O      -0.075621      2.268829      8.981614
  O      -0.038736     -0.406716      9.333190
  O       2.175583      0.879139      8.800332
  O       0.375250      0.670973      6.955568
  C       0.426063     -0.653299      6.393081
  H      -0.200990     -1.361976      6.985446
  H       1.477488     -1.043519      6.393978
  C      -0.066550     -0.572083      4.936716
  H       0.508609      0.205648      4.387901
  O      -1.482670     -0.189645      4.962317
  C      -1.914711      0.772146      4.076694
  O      -1.189950      1.370797      3.291005
  C      -3.439832      0.925034      4.156398
  H      -3.685877      1.999915      3.998712
  H      -3.791238      0.629574      5.169108
  C       0.051704     -1.931821      4.206684
  H      -0.535879     -2.712193      4.740729
  H       1.118830     -2.242019      4.141524
  O      -0.534886     -1.843902      2.874199
  C       0.296307     -1.483754      1.825466
  O       1.513585     -1.418082      1.909675
  C      -0.542433     -1.142638      0.589073
  H      -1.480196     -1.743086      0.606703
  H      -0.854461     -0.080877      0.736609
  C      -4.151017      0.051608      3.068703
  H      -5.243250      0.023679      3.299822
  H      -3.789060     -1.000619      3.164146
  C      -3.938292      0.553783      1.617271
  H      -2.853928      0.729939      1.442926
  H      -4.422313      1.555252      1.500250
  C      -4.480018     -0.411318      0.531921
  H      -5.587309     -0.525253      0.644249
  H      -4.054011     -1.432369      0.698096
  C      -4.143511      0.047908     -0.910574
  H      -3.035259      0.107381     -1.023494
  H      -4.520510      1.090146     -1.062758
  C      -4.729014     -0.866015     -2.015968
  H      -5.843733     -0.866659     -1.939839
  H      -4.409149     -1.923093     -1.841064
  C      -4.320423     -0.441849     -3.465237
  H      -4.539432      0.642397     -3.602231
  H      -4.977492     -0.984204     -4.187482
  C      -2.871799     -0.760942     -3.809195
  H      -2.668627     -1.833069     -4.013905
  C      -1.820625      0.094931     -3.868845
  H      -0.833692     -0.325358     -4.152955
  C      -1.837564      1.593438     -3.619667
  H      -1.044548      1.842679     -2.870007
  H      -2.800296      1.899812     -3.156743
  C      -1.578546      2.427300     -4.910614
  H      -2.360514      2.174471     -5.665236
  H      -0.610379      2.103803     -5.364426
  C      -1.534983      3.964271     -4.676437
  H      -1.334320      4.465327     -5.655185
  H      -0.660544      4.207166     -4.024397
  C      -2.812273      4.585648     -4.041555
  H      -2.650987      5.685477     -3.929223
  H      -2.945578      4.199835     -3.001678
  C      -4.119197      4.348810     -4.842033
  H      -4.315612      3.253000     -4.934385
  H      -3.985578      4.721834     -5.888418
  C      -5.362324      5.024192     -4.209053
  H      -5.182556      6.124406     -4.115171
  H      -5.492042      4.649624     -3.162663
  C      -6.673587      4.786288     -5.001618
  H      -6.846668      3.686154     -5.102038
  H      -6.547193      5.168822     -6.044627
  C      -7.914073      5.448280     -4.353280
  H      -8.839060      5.258306     -4.945074
  H      -7.788229      6.553810     -4.271710
  H      -8.088431      5.058644     -3.322544
  C       0.195593     -1.294058     -0.761352
  H       1.148101     -0.714817     -0.729579
  H      -0.440675     -0.825037     -1.547226
  C       0.487043     -2.763871     -1.159875
  H      -0.442267     -3.373713     -1.029566
  H       1.244683     -3.201041     -0.465454
  C       0.972970     -2.909492     -2.624930
  H       1.869973     -2.261532     -2.778040
  H       0.184717     -2.504611     -3.307720
  C       1.296350     -4.371621     -3.031826
  H       2.208350     -4.714218     -2.482697
  H       0.465992     -5.034160     -2.684890
  C       1.491584     -4.585342     -4.557398
  H       1.644874     -5.673161     -4.760101
  H       0.552168     -4.304017     -5.093489
  C       2.676054     -3.780924     -5.172829
  H       3.609966     -4.042172     -4.613398
  H       2.516351     -2.694194     -5.008012
  C       2.884553     -4.074613     -6.648351
  H       3.170658     -5.122115     -6.880750
  C       2.729343     -3.222787     -7.692600
  H       2.928370     -3.622031     -8.709469
  C       2.360760     -1.747039     -7.654028
  H       1.918624     -1.464134     -6.672202
  H       1.565355     -1.557913     -8.415397
  C       3.576319     -0.815316     -7.979170
  H       3.201078      0.218584     -8.176824
  H       4.037620     -1.160567     -8.936072
  C       4.663898     -0.768618     -6.870826
  H       4.906318     -1.810950     -6.557406
  H       5.607871     -0.356423     -7.304239
  C       4.278485      0.094424     -5.637932
  H       4.127632      1.147301     -5.980344
  H       3.291196     -0.229549     -5.226156
  C       5.329182      0.076436     -4.491779
  H       5.121497      0.920130     -3.788803
  H       6.337914      0.285538     -4.923980
  C       5.358807     -1.244022     -3.674459
  H       4.344028     -1.410048     -3.236832
  H       5.538761     -2.110783     -4.355839
  C       6.408410     -1.275693     -2.529434
  H       6.240450     -0.403792     -1.849671
  H       6.227396     -2.183718     -1.904536
  C       7.883133     -1.283348     -3.007330
  H       8.585523     -1.393961     -2.149125
  H       8.073792     -2.130058     -3.709026
  H       8.160120     -0.343683     -3.538111
138
Coordinates from ORCA-job /wrk/rja7/qm_final_3_replicates/qm_final_1.1/qm/2/freq E -2722.579608232371
  N       2.069607      0.177634     11.931301
  C       2.009577      1.580551     11.197278
  H       2.447064      2.313751     11.908866
  H       0.938553      1.826852     11.052579
  C       0.665883     -0.129311     12.467845
  H      -0.001050     -0.249686     11.584850
  H       0.710483     -1.065872     13.063772
  H       0.339713      0.714617     13.110077
  C       3.061119      0.269106     13.078992
  H       3.110870     -0.709441     13.600218
  H       4.060768      0.524356     12.670066
  H       2.734544      1.055198     13.790945
  C       2.482967     -0.997159     11.024255
  H       3.485329     -0.794212     10.602001
  H       1.717846     -1.102425     10.227150
  H       2.521577     -1.900457     11.670141
  C       2.709224      1.701606      9.817877
  H       2.611054      2.795243      9.578354
  H       3.804615      1.485490      9.904111
  P       0.421366      0.880810      8.613051
  O      -0.075721      2.268827      8.981345
  O      -0.038644     -0.406695      9.333003
  O       2.175646      0.879372      8.800500
  O       0.375707      0.670942      6.955414
  C       0.426444     -0.653347      6.392971
  H      -0.200541     -1.362008      6.985423
  H       1.477872     -1.043565      6.393764
  C      -0.066310     -0.572188      4.936649
  H       0.508822      0.205501      4.387747
  O      -1.482421     -0.189706      4.962348
  C      -1.914469      0.772157      4.076807
  O      -1.189722      1.370845      3.291133
  C      -3.439587      0.925057      4.156552
  H      -3.685635      1.999939      3.998878
  H      -3.790975      0.629597      5.169268
  C       0.051817     -1.931956      4.206664
  H      -0.535823     -2.712262      4.740742
  H       1.118914     -2.242252      4.141490
  O      -0.534788     -1.844025      2.874186
  C       0.296411     -1.483899      1.825454
  O       1.513695     -1.418279      1.909655
  C      -0.542315     -1.142733      0.589073
  H      -1.480114     -1.743125      0.606708
  H      -0.854293     -0.080957      0.736612
  C      -4.150800      0.051647      3.068860
  H      -5.243027      0.023716      3.300004
  H      -3.788843     -1.000583      3.164264
  C      -3.938108      0.553853      1.617431
  H      -2.853748      0.730003      1.443065
  H      -4.422124      1.555329      1.500447
  C      -4.479869     -0.411220      0.532071
  H      -5.587161     -0.525130      0.644407
  H      -4.053883     -1.432284      0.698219
  C      -4.143365      0.048022     -0.910424
  H      -3.035115      0.107420     -1.023380
  H      -4.520292      1.090293     -1.062562
  C      -4.728971     -0.865830     -2.015825
  H      -5.843688     -0.866367     -1.939675
  H      -4.409207     -1.922941     -1.840937
  C      -4.320367     -0.441706     -3.465103
  H      -4.539297      0.642552     -3.602119
  H      -4.977492     -0.984026     -4.187324
  C      -2.871773     -0.760922     -3.809089
  H      -2.668687     -1.833060     -4.013821
  C      -1.820536      0.094874     -3.868735
  H      -0.833639     -0.325485     -4.152866
  C      -1.837348      1.593377     -3.619550
  H      -1.044282      1.842575     -2.869931
  H      -2.800038      1.899828     -3.156587
  C      -1.578335      2.427222     -4.910518
  H      -2.360312      2.174391     -5.665127
  H      -0.610176      2.103702     -5.364331
  C      -1.534765      3.964194     -4.676354
  H      -1.334093      4.465240     -5.655106
  H      -0.660336      4.207089     -4.024301
  C      -2.812063      4.585569     -4.041485
  H      -2.650791      5.685401     -3.929170
  H      -2.945361      4.199765     -3.001604
  C      -4.118986      4.348700     -4.841954
  H      -4.315411      3.252888     -4.934250
  H      -3.985371      4.721674     -5.888358
  C      -5.362114      5.024115     -4.209007
  H      -5.182344      6.124334     -4.115181
  H      -5.491829      4.649596     -3.162599
  C      -6.673374      4.786179     -5.001564
  H      -6.846463      3.686041     -5.101934
  H      -6.546974      5.168663     -6.044591
  C      -7.913860      5.448207     -4.353262
  H      -8.838851      5.258205     -4.945039
  H      -7.788011      6.553741     -4.271749
  H      -8.088211      5.058624     -3.322504
  C       0.195680     -1.294174     -0.761364
  H       1.148186     -0.714934     -0.729623
  H      -0.440615     -0.825161     -1.547220
  C       0.487103     -2.763991     -1.159893
  H      -0.442195     -3.373837     -1.029527
  H       1.244784     -3.201160     -0.465517
  C       0.972935     -2.909617     -2.624980
  H       1.869933     -2.261665     -2.778159
  H       0.184632     -2.504748     -3.307719
  C       1.296296     -4.371743     -3.031892
  H       2.208251     -4.714387     -2.482720
  H       0.465900     -5.034269     -2.685018
  C       1.491567     -4.585451     -4.557465
  H       1.644853     -5.673269     -4.760172
  H       0.552157     -4.304117     -5.093561
  C       2.676040     -3.781024     -5.172876
  H       3.609957     -4.042255     -4.613444
  H       2.516330     -2.694297     -5.008040
  C       2.884579     -4.074714     -6.648389
  H       3.170750     -5.122206     -6.880757
  C       2.729349     -3.222925     -7.692665
  H       2.928426     -3.622186     -8.709518
  C       2.360635     -1.747207     -7.654139
  H       1.918522     -1.464322     -6.672295
  H       1.565148     -1.558190     -8.415453
  C       3.576068     -0.815374     -7.979414
  H       3.200709      0.218476     -8.177097
  H       4.037353     -1.160639     -8.936318
  C       4.663707     -0.768500     -6.871130
  H       4.906201     -1.810800     -6.557663
  H       5.607637     -0.356280     -7.304612
  C       4.278290      0.094598     -5.638281
  H       4.127438      1.147463     -5.980732
  H       3.290989     -0.229352     -5.226514
  C       5.328971      0.076642     -4.492113
  H       5.121360      0.920427     -3.789226
  H       6.337729      0.285608     -4.924318
  C       5.358495     -1.243764     -3.674704
  H       4.343691     -1.409742     -3.237119
  H       5.538467     -2.110560     -4.356035
  C       6.408046     -1.275432     -2.529624
  H       6.240093     -0.403501     -1.849895
  H       6.226967     -2.183424     -1.904698
  C       7.882790     -1.283158     -3.007462
  H       8.585148     -1.393754     -2.149229
  H       8.073438     -2.129916     -3.709105
  H       8.159818     -0.343528     -3.538279
138
Coordinates from ORCA-job /wrk/rja7/qm_final_3_replicates/qm_final_1.1/qm/2/freq E -2722.579608234171
  N       2.069475      0.177593     11.931333
  C       2.009414      1.580534     11.197350
  H       2.446779      2.313735     11.909010
  H       0.938386      1.826762     11.052564
  C       0.665737     -0.129434     12.467789
  H      -0.001142     -0.249798     11.584752
  H       0.710343     -1.066016     13.063682
  H       0.339493      0.714454     13.110035
  C       3.060926      0.269083     13.079077
  H       3.110698     -0.709475     13.600281
  H       4.060582      0.524389     12.670203
  H       2.734276      1.055141     13.791033
  C       2.482942     -0.997150     11.024272
  H       3.485314     -0.794137     10.602073
  H       1.717866     -1.102421     10.227126
  H       2.521561     -1.900464     11.670136
  C       2.709183      1.701675      9.818020
  H       2.610968      2.795313      9.578518
  H       3.804579      1.485623      9.904349
  P       0.421482      0.880828      8.612949
  O      -0.075678      2.268835      8.981182
  O      -0.038573     -0.406678      9.332872
  O       2.175742      0.879440      8.800570
  O       0.376016      0.670936      6.955309
  C       0.426670     -0.653361      6.392881
  H      -0.200299     -1.361996      6.985383
  H       1.478086     -1.043612      6.393611
  C      -0.066163     -0.572212      4.936585
  H       0.508966      0.205446      4.387636
  O      -1.482260     -0.189683      4.962345
  C      -1.914313      0.772219      4.076847
  O      -1.189578      1.370915      3.291169
  C      -3.439426      0.925140      4.156635
  H      -3.685462      2.000026      3.998969
  H      -3.790794      0.629686      5.169360
  C       0.051875     -1.931998      4.206617
  H      -0.535794     -2.712267      4.740717
  H       1.118954     -2.242352      4.141420
  O      -0.534756     -1.844050      2.874150
  C       0.296438     -1.483950      1.825406
  O       1.513726     -1.418365      1.909588
  C      -0.542295     -1.142760      0.589036
  H      -1.480101     -1.743139      0.606671
  H      -0.854257     -0.080981      0.736593
  C      -4.150680      0.051739      3.068965
  H      -5.242904      0.023829      3.300132
  H      -3.788743     -1.000498      3.164363
  C      -3.938009      0.553936      1.617530
  H      -2.853647      0.730052      1.443139
  H      -4.421996      1.555427      1.500554
  C      -4.479826     -0.411119      0.532182
  H      -5.587118     -0.524994      0.644543
  H      -4.053869     -1.432198      0.698319
  C      -4.143335      0.048112     -0.910319
  H      -3.035084      0.107461     -1.023298
  H      -4.520218      1.090402     -1.062444
  C      -4.729009     -0.865703     -2.015712
  H      -5.843724     -0.866194     -1.939529
  H      -4.409285     -1.922831     -1.840848
  C      -4.320427     -0.441583     -3.464998
  H      -4.539340      0.642679     -3.602011
  H      -4.977578     -0.983893     -4.187203
  C      -2.871850     -0.760833     -3.809023
  H      -2.668794     -1.832970     -4.013785
  C      -1.820595      0.094942     -3.868676
  H      -0.833712     -0.325432     -4.152833
  C      -1.837377      1.593442     -3.619478
  H      -1.044301      1.842622     -2.869864
  H      -2.800058      1.899904     -3.156503
  C      -1.578365      2.427294     -4.910441
  H      -2.360329      2.174449     -5.665060
  H      -0.610195      2.103790     -5.364243
  C      -1.534825      3.964265     -4.676277
  H      -1.334141      4.465308     -5.655028
  H      -0.660416      4.207183     -4.024207
  C      -2.812151      4.585620     -4.041443
  H      -2.650906      5.685458     -3.929144
  H      -2.945457      4.199833     -3.001556
  C      -4.119053      4.348699     -4.841927
  H      -4.315448      3.252879     -4.934200
  H      -3.985432      4.721652     -5.888338
  C      -5.362211      5.024095     -4.209016
  H      -5.182472      6.124320     -4.115214
  H      -5.491933      4.649598     -3.162601
  C      -6.673452      4.786101     -5.001589
  H      -6.846502      3.685956     -5.101948
  H      -6.547049      5.168575     -6.044619
  C      -7.913970      5.448096     -4.353314
  H      -8.838946      5.258056     -4.945104
  H      -7.788158      6.553635     -4.271812
  H      -8.088324      5.058519     -3.322555
  C       0.195683     -1.294195     -0.761411
  H       1.148187     -0.714949     -0.729680
  H      -0.440628     -0.825181     -1.547254
  C       0.487100     -2.764010     -1.159945
  H      -0.442202     -3.373850     -1.029568
  H       1.244785     -3.201185     -0.465578
  C       0.972913     -2.909637     -2.625038
  H       1.869914     -2.261693     -2.778227
  H       0.184604     -2.504766     -3.307768
  C       1.296260     -4.371765     -3.031951
  H       2.208195     -4.714428     -2.482755
  H       0.465844     -5.034282     -2.685104
  C       1.491565     -4.585475     -4.557517
  H       1.644836     -5.673296     -4.760215
  H       0.552173     -4.304124     -5.093636
  C       2.676063     -3.781073     -5.172905
  H       3.609963     -4.042299     -4.613439
  H       2.516358     -2.694340     -5.008101
  C       2.884664     -4.074806     -6.648401
  H       3.170844     -5.122307     -6.880720
  C       2.729486     -3.223050     -7.692713
  H       2.928609     -3.622345     -8.709543
  C       2.360762     -1.747336     -7.654244
  H       1.918638     -1.464426     -6.672412
  H       1.565279     -1.558353     -8.415571
  C       3.576192     -0.815508     -7.979540
  H       3.200829      0.218330     -8.177277
  H       4.037502     -1.160818     -8.936415
  C       4.663805     -0.768582     -6.871231
  H       4.906286     -1.810872     -6.557719
  H       5.607744     -0.356384     -7.304711
  C       4.278357      0.094562     -5.638427
  H       4.127517      1.147415     -5.980922
  H       3.291044     -0.229368     -5.226675
  C       5.329008      0.076644     -4.492230
  H       5.121416      0.920492     -3.789412
  H       6.337787      0.285523     -4.924426
  C       5.358445     -1.243704     -3.674726
  H       4.343624     -1.409610     -3.237156
  H       5.538391     -2.110551     -4.356003
  C       6.407969     -1.275363     -2.529623
  H       6.240035     -0.403403     -1.849926
  H       6.226839     -2.183326     -1.904668
  C       7.882725     -1.283170     -3.007423
  H       8.585056     -1.393768     -2.149169
  H       8.073354     -2.129957     -3.709035
  H       8.159806     -0.343564     -3.538257
