138
Coordinates from ORCA-job /wrk/rja7/qm_final_3_replicates/qm_final_1.1/qm/2/freq E -2722.579608234171
  N           2.06947530519679      0.17759347035696     11.93133346730515
  C           2.00941417131241      1.58053362468219     11.19735013853131
  H           2.44677903876753      2.31373491235056     11.90901043847742
  H           0.93838624682936      1.82676175658929     11.05256414672041
  C           0.66573721588491     -0.12943399831060     12.46778889608265
  H          -0.00114158700755     -0.24979754012039     11.58475194020324
  H           0.71034254234513     -1.06601649698036     13.06368154585219
  H           0.33949287195698      0.71445440022524     13.11003502833980
  C           3.06092588711489      0.26908261214382     13.07907669587262
  H           3.11069805407725     -0.70947544442734     13.60028095293964
  H           4.06058198552091      0.52438862324269     12.67020268381775
  H           2.73427617151082      1.05514058825537     13.79103257299528
  C           2.48294235952657     -0.99715045078515     11.02427239620675
  H           3.48531416995609     -0.79413661240397     10.60207302138936
  H           1.71786624073518     -1.10242096983023     10.22712590111254
  H           2.52156090429654     -1.90046382706835     11.67013579372626
  C           2.70918250604732      1.70167493048188      9.81802026646379
  H           2.61096751137580      2.79531293831063      9.57851848867492
  H           3.80457882223317      1.48562286982796      9.90434918567107
  P           0.42148150032062      0.88082753322175      8.61294913725405
  O          -0.07567800040290      2.26883450830156      8.98118225058069
  O          -0.03857336803264     -0.40667835678007      9.33287217789800
  O           2.17574236991109      0.87943999281341      8.80056983306918
  O           0.37601616329585      0.67093553028579      6.95530876778529
  C           0.42666983107731     -0.65336128718917      6.39288052574226
  H          -0.20029850797847     -1.36199565625036      6.98538268877470
  H           1.47808647484329     -1.04361189258795      6.39361088635764
  C          -0.06616345773229     -0.57221166937004      4.93658527662508
  H           0.50896550331139      0.20544565714207      4.38763566909971
  O          -1.48226047759102     -0.18968266675872      4.96234541556922
  C          -1.91431287323857      0.77221874233351      4.07684667210881
  O          -1.18957835409289      1.37091485571206      3.29116874021456
  C          -3.43942623710091      0.92514042852546      4.15663491038310
  H          -3.68546248485725      2.00002583305752      3.99896877577836
  H          -3.79079367605714      0.62968560731538      5.16936005598380
  C           0.05187466780370     -1.93199803107077      4.20661731056359
  H          -0.53579368117322     -2.71226728351032      4.74071687610106
  H           1.11895363866846     -2.24235221939761      4.14141953126710
  O          -0.53475589146619     -1.84404960469329      2.87414967185290
  C           0.29643847038313     -1.48395027236933      1.82540554490182
  O           1.51372581152140     -1.41836523443704      1.90958844806549
  C          -0.54229472610350     -1.14275998974959      0.58903640220006
  H          -1.48010125963998     -1.74313909740323      0.60667076120889
  H          -0.85425742519121     -0.08098126650253      0.73659276006428
  C          -4.15068034124990      0.05173892219059      3.06896464457636
  H          -5.24290418899838      0.02382895368983      3.30013158548863
  H          -3.78874281296653     -1.00049751419877      3.16436331870782
  C          -3.93800912705636      0.55393598300898      1.61752992898462
  H          -2.85364714513822      0.73005166827023      1.44313940465212
  H          -4.42199565634125      1.55542695251076      1.50055430825127
  C          -4.47982558342304     -0.41111937746252      0.53218222813340
  H          -5.58711847136760     -0.52499376923222      0.64454253495647
  H          -4.05386887228363     -1.43219757325950      0.69831868131250
  C          -4.14333453044927      0.04811179593064     -0.91031884874873
  H          -3.03508391065597      0.10746115730961     -1.02329845745659
  H          -4.52021781636676      1.09040168233875     -1.06244401687160
  C          -4.72900850184611     -0.86570326643875     -2.01571201637632
  H          -5.84372358343092     -0.86619397222571     -1.93952912518502
  H          -4.40928455977937     -1.92283098837056     -1.84084821456005
  C          -4.32042742804395     -0.44158313478837     -3.46499784312189
  H          -4.53933987784490      0.64267897543811     -3.60201104972304
  H          -4.97757820324171     -0.98389279406995     -4.18720328892651
  C          -2.87185018605962     -0.76083282067244     -3.80902302449465
  H          -2.66879354424434     -1.83296976669283     -4.01378538806133
  C          -1.82059548410082      0.09494222043734     -3.86867590131077
  H          -0.83371211201481     -0.32543238409696     -4.15283302977538
  C          -1.83737720750474      1.59344200426837     -3.61947789737740
  H          -1.04430082417820      1.84262231661983     -2.86986438048258
  H          -2.80005793881891      1.89990404564113     -3.15650269513409
  C          -1.57836476490311      2.42729439298581     -4.91044145900188
  H          -2.36032878064712      2.17444891733795     -5.66505950946351
  H          -0.61019514290430      2.10378956255168     -5.36424333921629
  C          -1.53482545435071      3.96426502139309     -4.67627725418442
  H          -1.33414095390592      4.46530769070657     -5.65502802944594
  H          -0.66041600470183      4.20718295977956     -4.02420668109436
  C          -2.81215050777550      4.58562025472804     -4.04144292021331
  H          -2.65090647053283      5.68545836730287     -3.92914409740320
  H          -2.94545691070731      4.19983346296342     -3.00155618283083
  C          -4.11905250598802      4.34869901663507     -4.84192735643686
  H          -4.31544781297223      3.25287921521700     -4.93419972598031
  H          -3.98543160062866      4.72165238915400     -5.88833807205184
  C          -5.36221149379968      5.02409470957331     -4.20901628053931
  H          -5.18247235755473      6.12432044652426     -4.11521447635928
  H          -5.49193340320885      4.64959756778763     -3.16260144597436
  C          -6.67345179042150      4.78610074219517     -5.00158907806551
  H          -6.84650205965400      3.68595609147754     -5.10194842024418
  H          -6.54704927156589      5.16857546310351     -6.04461920464731
  C          -7.91396979442146      5.44809586812327     -4.35331430621204
  H          -8.83894561459684      5.25805550204602     -4.94510362954065
  H          -7.78815801999818      6.55363472783804     -4.27181248942089
  H          -8.08832426925292      5.05851862765076     -3.32255479640244
  C           0.19568301740908     -1.29419501184615     -0.76141107767394
  H           1.14818715616668     -0.71494882639041     -0.72968042354675
  H          -0.44062809061402     -0.82518087583757     -1.54725357207763
  C           0.48709965359882     -2.76401004554307     -1.15994549411697
  H          -0.44220150414762     -3.37385040262426     -1.02956753317485
  H           1.24478524833880     -3.20118541473258     -0.46557812360032
  C           0.97291263154706     -2.90963655388927     -2.62503803834781
  H           1.86991422094149     -2.26169254288475     -2.77822718607676
  H           0.18460395985287     -2.50476620060281     -3.30776819374597
  C           1.29626037847480     -4.37176482241322     -3.03195072704785
  H           2.20819469453857     -4.71442798522947     -2.48275513788254
  H           0.46584449553647     -5.03428159687107     -2.68510376435944
  C           1.49156518969480     -4.58547467612914     -4.55751714158423
  H           1.64483596068955     -5.67329636092029     -4.76021457247056
  H           0.55217337525346     -4.30412370420780     -5.09363577729946
  C           2.67606346570138     -3.78107273803027     -5.17290473221842
  H           3.60996303742638     -4.04229902884415     -4.61343905671561
  H           2.51635800023351     -2.69433998761505     -5.00810074675268
  C           2.88466390480919     -4.07480600362977     -6.64840099110930
  H           3.17084414830396     -5.12230700929515     -6.88072011768894
  C           2.72948594263154     -3.22305020614690     -7.69271267172835
  H           2.92860911747722     -3.62234537025346     -8.70954305127783
  C           2.36076238052122     -1.74733592053462     -7.65424417864871
  H           1.91863837700701     -1.46442613988550     -6.67241247042441
  H           1.56527921893570     -1.55835300856888     -8.41557128433096
  C           3.57619214260708     -0.81550805351569     -7.97953995549857
  H           3.20082883435272      0.21833025138186     -8.17727691791911
  H           4.03750197814196     -1.16081758016092     -8.93641533267795
  C           4.66380453458984     -0.76858232274784     -6.87123064564462
  H           4.90628582938619     -1.81087171073248     -6.55771903960966
  H           5.60774449503669     -0.35638389292846     -7.30471100795328
  C           4.27835669972045      0.09456238704288     -5.63842689421584
  H           4.12751650292499      1.14741528408451     -5.98092199781568
  H           3.29104378419842     -0.22936777302659     -5.22667488361159
  C           5.32900802260765      0.07664387573295     -4.49223005735923
  H           5.12141644152764      0.92049225557395     -3.78941152144080
  H           6.33778664563211      0.28552342943335     -4.92442596766150
  C           5.35844548666316     -1.24370419680223     -3.67472599774361
  H           4.34362406506387     -1.40960986558835     -3.23715579546066
  H           5.53839140796446     -2.11055056133230     -4.35600264756385
  C           6.40796932017934     -1.27536299165616     -2.52962261447037
  H           6.24003452602892     -0.40340282524397     -1.84992639810452
  H           6.22683900267158     -2.18332610458587     -1.90466784493986
  C           7.88272485919863     -1.28316987382523     -3.00742341495318
  H           8.58505639698060     -1.39376798054700     -2.14916874310398
  H           8.07335382759887     -2.12995694963448     -3.70903464156534
  H           8.15980568033552     -0.34356422839508     -3.53825696934675
