138
Coordinates from ORCA-job /wrk/rja7/qm_final_3_replicates/qm_final_1.1/qm/6/freq E -2722.592682225207
  N          -2.44421169704402     -4.45939431574630      9.55710615918739
  C          -3.26650403554265     -3.42509278496208      8.67963333753206
  H          -3.69844051043749     -2.67699902486980      9.37457922433381
  H          -4.10175660540392     -4.00805787730611      8.23548675186971
  C          -2.82518410111135     -4.23437371108594     11.02593751936616
  H          -3.92700172445400     -4.32515851735039     11.12217098546747
  H          -2.32557872972993     -5.00995948864889     11.64490379353835
  H          -2.47202459879634     -3.21431896741657     11.29605260152866
  C          -0.91492482059549     -4.31215005526768      9.44847172720169
  H          -0.47167561851741     -5.11906439630168     10.07023194316204
  H          -0.61031210807206     -4.44279393033479      8.39256944514841
  H          -0.63954766440097     -3.30764975543106      9.83195713921917
  C          -2.82615065743001     -5.86691137310047      9.12795484831134
  H          -3.91518178664439     -6.01377199624941      9.28023481240514
  H          -2.25946502090120     -6.60298446641004      9.73530365038840
  H          -2.57401103125824     -5.99436452868108      8.05478877092094
  C          -2.50909655714015     -2.66645655514630      7.56528257083898
  H          -2.06670928369139     -3.37161657540610      6.81869150350958
  H          -3.31376451755422     -2.10337597854915      7.02496900942898
  P          -1.83735273300773     -0.74404384051549      9.37851360205055
  O          -1.27686122965190     -1.48049396421713     10.60341951954167
  O          -3.29558158994217     -0.30644699965194      9.24918083720567
  O          -1.47219380966518     -1.81097736477244      8.02030744914481
  O          -0.76748930359456      0.48596686692819      8.98392083306040
  C          -1.24654360196415      1.67508092228872      8.32583022241862
  H          -0.39045282695187      2.39153362714784      8.35150641276859
  H          -2.10488783540214      2.12693311819958      8.88018731622471
  C          -1.69560056678254      1.44419239115667      6.85690316340612
  H          -2.61259132619063      0.82047390946016      6.83794237520735
  O          -0.60316502080305      0.74250968059763      6.17264928462060
  C          -0.90024934609883     -0.34332041504292      5.39139929182801
  O          -2.03231183539402     -0.69274503548061      5.07551697528779
  C           0.38947391737762     -1.06922447229539      4.97756784000435
  H           0.09477774464017     -1.87410280380109      4.26695774230243
  H           0.78186933182298     -1.55997430385186      5.90032362847244
  C          -1.95585559320988      2.78743482112484      6.13941969808852
  H          -1.02340609495057      3.39510192702489      6.11234823343079
  H          -2.75221805254437      3.34921351114470      6.67905725931784
  O          -2.32788105647112      2.61187608323095      4.73784190086448
  C          -3.66227257934037      2.34804549777785      4.47058053902550
  O          -4.52334610834546      2.28216504549658      5.33374141928577
  C          -3.89807294367239      2.20383707282079      2.96013808800013
  H          -4.98044900121425      1.98158789147420      2.82738468065944
  H          -3.70535370809391      3.20296068170759      2.50079660585455
  C           1.48517275078867     -0.15666514950341      4.35667283401085
  H           2.37167042534696     -0.79199700311110      4.11357262465476
  H           1.82850169274043      0.57959120627508      5.11987311909636
  C           1.01680671856551      0.59130625529739      3.08187035764041
  H           0.17492826292422      1.27518572355758      3.34583965050986
  H           0.59677037920073     -0.14905834801685      2.35862305620917
  C           2.13756043966593      1.42187454962522      2.40573185131746
  H           2.99142515413169      0.75079965750119      2.13536219683060
  H           2.54842855152806      2.14408037472457      3.15294144174426
  C           1.68995850731209      2.20865490323632      1.14212517111097
  H           2.50266041501352      2.92156820612696      0.85862560363042
  H           0.80417017199663      2.84345083562948      1.39406608061167
  C           1.35526981397859      1.32274489052465     -0.08602182745908
  H           0.51181144892837      0.63083880432922      0.15277830145872
  H           2.22994592746619      0.66789383072881     -0.32109601586188
  C           0.98273230355278      2.14639857570230     -1.35584720124826
  H           1.81584475487414      2.84459743550802     -1.59924148694098
  H           0.10263853894369      2.79235215326153     -1.11033587492650
  C           0.63259579947487      1.26185562520009     -2.53900190400686
  H          -0.20303237185023      0.55400506218940     -2.35593222013596
  C           1.22663629207773      1.21574821178480     -3.75800268872840
  H           0.84193214275883      0.46603236306450     -4.48025558353147
  C           2.38750470999154      2.05075522949998     -4.27078658465019
  H           2.64064749589706      2.86701462668393     -3.55625984504173
  H           2.07495630798380      2.55244131380671     -5.21891073841736
  C           3.66948760022902      1.20905697928946     -4.56119460010010
  H           4.42899199183486      1.87020234653397     -5.04658252507105
  H           3.42711446162454      0.42217600574565     -5.31625490947906
  C           4.28489852564923      0.56168402984748     -3.29402037719894
  H           3.54681477491859     -0.14268290879301     -2.84273177964126
  H           4.43954713791331      1.35770951315766     -2.52452506734262
  C           5.64288976901303     -0.15939100146324     -3.52588297650300
  H           5.98876830708429     -0.58107373910100     -2.55012662278245
  H           6.40993124208846      0.59975310807041     -3.81745972392489
  C           5.64236406229141     -1.29367489649034     -4.58852466025373
  H           6.67216880040601     -1.72461419267551     -4.64055242545734
  H           5.44961083573531     -0.86803258143549     -5.60311644386541
  C           4.63157910962652     -2.44007889556470     -4.32419731457926
  H           3.58732392636716     -2.04934251140802     -4.39439384417501
  H           4.74786401877550     -2.80708130272863     -3.27356624618318
  C           4.79425924515929     -3.63211209224071     -5.30399444749712
  H           5.81371347516770     -4.07248126455227     -5.17664460541779
  H           4.76072102358453     -3.25102218698052     -6.35290198039486
  C           3.72361003438752     -4.73519813077475     -5.12211338098515
  H           3.74186053312484     -5.15476381694908     -4.08844627755405
  H           3.88036154024798     -5.58084410298947     -5.83078156224206
  H           2.69691342686050     -4.33566657613052     -5.29862075647145
  C          -3.02419116135242      1.12072874961744      2.26136931598409
  H          -3.13400037226648      0.15868168571547      2.81000179431586
  H          -1.95020366527127      1.40163076707731      2.35120116793477
  C          -3.37367734615791      0.90946476390589      0.76318558948213
  H          -4.44946437269298      0.61861728715493      0.66497627385268
  H          -2.78789347644815      0.03422684343213      0.38846157780795
  C          -3.08679723566029      2.12962996426354     -0.15088874776801
  H          -2.02039300756817      2.43988598668776     -0.02137926381892
  H          -3.69871300996382      3.00553135167275      0.17482601441448
  C          -3.36514963327848      1.86009573133204     -1.65130266684650
  H          -2.73915445675915      1.00022213171182     -1.99740119311243
  H          -4.42634576432959      1.52921259690830     -1.77637656800518
  C          -3.10407786070306      3.08498509740417     -2.56414426599754
  H          -3.73917017296204      3.94154844997182     -2.22795417554658
  H          -2.04684944400005      3.42513648486722     -2.44839253515422
  C          -3.37956095405355      2.79938439229032     -4.07137890948905
  H          -4.42180184225305      2.40501659812406     -4.17106775343445
  H          -2.70802722739125      1.97996035357119     -4.41556870344125
  C          -3.24001491456855      4.03084004088163     -4.95347191517397
  H          -4.05597149928388      4.77661700011966     -4.85491318717981
  C          -2.22267380212814      4.30849150339425     -5.80590921226342
  H          -2.27755608532239      5.25008815495675     -6.39004504478004
  C          -1.01397534146153      3.42556449043466     -6.08384398797667
  H          -0.78190147938943      2.78407660471511     -5.20385481638617
  H          -0.11703575494665      4.07510855486421     -6.23529601425493
  C          -1.18816772612364      2.51836688137281     -7.34084053867104
  H          -1.42447664771289      3.15266994697033     -8.23052907298606
  H          -2.08098173151535      1.86363035001909     -7.19024916326468
  C           0.05297489639051      1.63869813209376     -7.63652301120281
  H           0.94486581889685      2.29576671827331     -7.79641003443608
  H           0.28437246092259      1.03116344483659     -6.73069342462665
  C          -0.12433216110369      0.70376466650473     -8.86004603750551
  H          -1.00830799097025      0.03968610317996     -8.68793431442688
  H          -0.38011016746871      1.32213735862224     -9.75490755715131
  C           1.11396871740882     -0.17467758071984     -9.19252625472359
  H           1.98677782162000      0.49136366769397     -9.39943484053279
  H           0.91592047489796     -0.72259241338004    -10.14658263753675
  C           1.48711012963920     -1.20932215342935     -8.09526146836536
  H           1.83342657233277     -0.68229339904897     -7.17310146635439
  H           0.56397464089002     -1.76595401217127     -7.79831602241060
  C           2.57258707679689     -2.23660852679200     -8.52220021715508
  H           2.68250043751914     -2.99814703159384     -7.71334332762038
  H           2.21325404058942     -2.79652081981514     -9.42071337846380
  C           3.96125740032460     -1.61689170638222     -8.82117619060399
  H           4.33459498865577     -1.02539131917670     -7.95197047723477
  H           4.71861164717509     -2.40585616089593     -9.03516994889489
  H           3.93700494384136     -0.93581839691820     -9.70242189118176
