138
Coordinates from ORCA-job /wrk/rja7/qm_final_3_replicates/qm_final_1.1/qm/8/freq E -2722.592585503003
  N           0.12644983867655     -1.95787298848798      7.08126048891695
  C           0.60262382077835     -0.63391655335938      6.40321089430584
  H           1.27557006870434     -0.95632394107484      5.57747928240037
  H           1.20962156946651     -0.10636896255038      7.17185423621465
  C          -0.56646840257455     -1.68594437037016      8.42728661114390
  H          -0.66182977187781     -2.65863564860501      8.95433931302553
  H           0.06499786208871     -0.99201181277942      9.01790623566538
  H          -1.57447658434599     -1.26339464717192      8.22326453297840
  C           1.36769521380823     -2.80533299366863      7.32611577011886
  H           1.06837463919440     -3.74054621295954      7.84162320001274
  H           1.84098750525706     -3.04880133609617      6.35273106022649
  H           2.07903149474670     -2.23852799024344      7.96194698489863
  C          -0.84243048381351     -2.72535976657224      6.16698490917188
  H          -0.96812977877131     -3.74416606446736      6.58989019089524
  H          -0.41785725424567     -2.77487699473614      5.14481579740246
  H          -1.81189268356526     -2.18243091504595      6.16937209171472
  C          -0.46947424531170      0.30597805298084      5.81648789611954
  H           0.11661858565902      1.03312444823345      5.19529644483107
  H          -1.11500366201990     -0.25187114509146      5.10650256614681
  P          -2.91516223536236      0.76021515112979      6.91116849838675
  O          -3.44138523975445      1.72866951958535      7.93892256193323
  O          -3.13947365541329     -0.77164431827786      6.96083911485842
  O          -1.20599636047509      1.02008496423383      6.79943175847444
  O          -3.28470236015916      1.26869392755100      5.30427453618621
  C          -4.55064090690388      0.85324514845087      4.76775799874908
  H          -4.94675074616723      1.69345594647184      4.14618452905206
  H          -5.30259642467096      0.64391612271649      5.56841913263951
  C          -4.40375429885713     -0.41423421367230      3.88408938459103
  H          -3.92562064751654     -1.22197709424869      4.47606582155923
  O          -3.52999923906977     -0.04678585947447      2.74968493869807
  C          -2.30345867170750     -0.62761132245813      2.61762723625609
  O          -1.91450261510013     -1.60970001608728      3.24918290836044
  C          -1.47175455944295      0.12056034483566      1.56625662745223
  H          -1.61783517931024      1.21075686835163      1.72878938168775
  H          -1.91984802988929     -0.08851107306370      0.56581839466364
  C          -5.74584795311200     -0.90441341043575      3.31461586249654
  H          -6.18150645906350     -0.17604675601254      2.59515905359779
  H          -6.46376903429991     -1.06984148305059      4.15152735313605
  O          -5.55148888013809     -2.19787349773993      2.66011641303223
  C          -5.82687115297831     -2.30954092535593      1.30902450467518
  O          -6.29287273590871     -1.41457750046342      0.62009075596110
  C          -5.41956550471730     -3.70390073764729      0.80870893601295
  H          -5.73346254039444     -4.46401453980077      1.55959475260535
  H          -5.97114092377829     -3.89325881714616     -0.13908845409996
  C           0.03142364131249     -0.24738830395183      1.57470834014233
  H           0.14204015095711     -1.34481389970105      1.42371793396358
  H           0.45728350618829     -0.03153332294534      2.58542980287765
  C           0.83056170965844      0.53711260013199      0.50297636699060
  H           0.70134187929096      1.62977613179373      0.68296815284588
  H           0.38833441235308      0.34119605698220     -0.50257884438195
  C           2.34800439100951      0.21494984788706      0.44847946061656
  H           2.82717212938866      0.47152001095605      1.42652983776755
  H           2.81324951920469      0.89834226044432     -0.29994758910553
  C           2.68225554472199     -1.25781721174162      0.08479625633675
  H           2.03935887187021     -1.58419032549259     -0.76789414361786
  H           2.41439713543206     -1.92356816259556      0.93942277545937
  C           4.17019142715478     -1.50194740947376     -0.28780973239487
  H           4.35798363573961     -2.60249827944426     -0.33004210277144
  H           4.83130440974880     -1.10772005354695      0.52240505969868
  C           4.60780835745856     -0.87137714421133     -1.65004801447041
  H           5.70143344878540     -1.06532363910506     -1.78189504068555
  H           4.50096620465725      0.23552808667964     -1.61458005448197
  C           3.86264627589080     -1.45278477369339     -2.84078976992039
  H           3.97544318000640     -2.55007756000401     -2.96893715198445
  C           3.08210810771470     -0.79215966625398     -3.73291475455510
  H           2.63014631778486     -1.38943988433678     -4.55018797380052
  C           2.79544129852860      0.70635159215595     -3.76902075359809
  H           2.69377948348232      1.11318936658303     -2.73599880598286
  H           1.80809986096653      0.87268313363377     -4.26086475611715
  C           3.87437003349490      1.54669880076362     -4.52478248751735
  H           4.83117343363384      1.51142193296525     -3.94843858137995
  H           3.55339199694360      2.61730048883178     -4.52412478334025
  C           4.14203062088915      1.08748489402899     -5.98025814366404
  H           3.17995225313398      1.07227129424372     -6.55195898153005
  H           4.50739762955209      0.03530552321731     -5.96363109285545
  C           5.16265998462473      1.99120566560339     -6.71855648378439
  H           6.12659546402196      1.98988230378826     -6.15019313368881
  H           4.79454547966461      3.04617139021008     -6.67930427672268
  C           5.45930425962709      1.63244357124545     -8.20267131369951
  H           6.08145094598690      2.45747103570599     -8.62432561741960
  H           4.50899614937840      1.64568403342985     -8.79244164737059
  C           6.20057762793408      0.28138706996651     -8.44927841336464
  H           6.92256445379300      0.09728975368552     -7.61421362913052
  H           6.83127607170220      0.38046152098144     -9.36653799813608
  C           5.29143364047544     -0.96408512080829     -8.63483321220012
  H           4.59317743478860     -0.77656396122523     -9.48768249034612
  H           4.64063509321015     -1.10744730799677     -7.74116134583386
  C           6.09277760669526     -2.26313032837750     -8.89633922230786
  H           6.76902764861796     -2.50002327895659     -8.04107763351164
  H           6.73123332583980     -2.17173748027416     -9.80672812042032
  H           5.41982015294456     -3.13905524668260     -9.04458992090060
  C          -3.87956755756118     -3.81999598001128      0.56901307264805
  H          -3.64666512439086     -4.88251834199618      0.31617641905132
  H          -3.34667893867904     -3.59988233041916      1.52374696924073
  C          -3.35027475988319     -2.89200152442239     -0.55465243936029
  H          -3.62769563296801     -1.83485406793324     -0.32908712990497
  H          -3.87281629070900     -3.13530618849995     -1.51135257169438
  C          -1.81253339310072     -2.97662427330745     -0.74975678312363
  H          -1.52374637079861     -4.01665511819165     -1.04322807969148
  H          -1.32033734550633     -2.79287774898170      0.23477592134434
  C          -1.25639573760932     -1.96393891609379     -1.78894304470992
  H          -1.70212903350536     -0.96074810382074     -1.58723661637911
  H          -0.15696556470390     -1.84665353005089     -1.64132788294066
  C          -1.50123549262373     -2.33132549409022     -3.27548743528601
  H          -0.84791622613909     -3.19324664447068     -3.55433116058388
  H          -2.55129530005604     -2.67956015254941     -3.42770664220426
  C          -1.22536185244603     -1.13075139503340     -4.24017957607005
  H          -1.10964121277512     -1.52870157169505     -5.27852425819219
  H          -0.25012853444298     -0.66064096605902     -3.97694689724241
  C          -2.36065956548916     -0.11848590566786     -4.24013795930086
  H          -3.32179130612702     -0.52171200090163     -4.62322586475933
  C          -2.36198215569898      1.17355487434335     -3.82849836452591
  H          -3.31934344628997      1.72807156133197     -3.92377991456112
  C          -1.22344766076147      2.00000955812534     -3.25128204336554
  H          -0.89273233310315      2.74456174030491     -4.02131078350752
  H          -0.33027646059387      1.36981092808746     -3.03497191548680
  C          -1.64888493652242      2.78742001999642     -1.97406826943748
  H          -1.87699593901045      2.05972513547343     -1.16048955289843
  H          -2.61016886152086      3.31787170781524     -2.18582527917509
  C          -0.59792837137614      3.82484166602479     -1.49700833762521
  H           0.33030122819769      3.29284096185468     -1.17195257100775
  H          -0.29561792302529      4.45065193765329     -2.37223872172223
  C          -1.08554818371127      4.76858528489875     -0.35965169326176
  H          -0.31100653892389      5.55606956728392     -0.19070448027029
  H          -1.99969072331992      5.31179013729391     -0.70639270320006
  C          -1.38684429776182      4.06837871752388      0.99166703611414
  H          -0.47091786413938      3.52172646012923      1.32078890468196
  H          -2.17614349425722      3.29274730389656      0.84738272070952
  C          -1.84578869788754      5.03703150124101      2.11397935500149
  H          -1.06818981886767      5.82874949071556      2.25806488731659
  H          -2.76520738731943      5.57198179428899      1.77096928824211
  C          -2.13643711082895      4.34647370407394      3.47797885954748
  H          -2.62838469065199      5.08318829028142      4.15694264532397
  H          -2.88112327453561      3.52699390555061      3.33204405156521
  C          -0.88438796723355      3.77470177677185      4.19085030624122
  H          -0.12865091221280      4.57548409822406      4.37679727283908
  H          -1.15529385755665      3.31718772180496      5.16666810664032
  H          -0.38541657178845      2.98698009040148      3.57912982815661
