138
Coordinates from ORCA-job /wrk/rja7/qm_final_3_replicates/qm_final_1.1/qm/7/freq E -2722.354202812476
  N       5.593000      3.395000     12.037000
  C       4.272000      3.560000     11.380000
  H       3.941000      4.582000     11.494000
  H       3.591000      2.903000     11.900000
  C       6.023000      1.975000     12.293000
  H       5.837000      1.390000     11.405000
  H       7.057000      1.807000     12.552000
  H       5.447000      1.441000     13.034000
  C       5.481000      4.129000     13.402000
  H       5.160000      5.146000     13.229000
  H       4.837000      3.609000     14.096000
  H       6.428000      3.948000     13.888000
  C       6.729000      4.132000     11.326000
  H       6.500000      5.174000     11.163000
  H       6.900000      3.698000     10.352000
  H       7.650000      4.062000     11.886000
  C       4.076000      3.016000      9.888000
  H       3.131000      3.406000      9.451000
  H       4.915000      3.512000      9.353000
  P       3.208000      0.543000     10.193000
  O       2.863000      0.858000     11.583000
  O       3.739000     -0.799000     10.019000
  O       4.400000      1.628000      9.831000
  O       2.100000      1.006000      9.185000
  C       2.499000      0.677000      7.772000
  H       2.721000     -0.408000      7.687000
  H       3.417000      1.263000      7.553000
  C       1.267000      1.011000      6.842000
  H       1.040000      2.094000      6.939000
  O       0.139000      0.167000      7.211000
  C      -1.062000      0.686000      7.149000
  O      -1.262000      1.860000      6.903000
  C      -2.090000     -0.433000      7.305000
  H      -3.123000     -0.031000      7.236000
  H      -2.069000     -0.898000      8.314000
  C       1.574000      0.814000      5.344000
  H       1.478000     -0.270000      5.118000
  H       2.589000      1.164000      5.059000
  O       0.543000      1.370000      4.566000
  C       0.721000      2.584000      4.073000
  O       1.675000      3.335000      4.247000
  C      -0.452000      2.986000      3.254000
  H      -1.240000      2.225000      3.438000
  H      -0.883000      3.970000      3.537000
  C      -1.928000     -1.471000      6.137000
  H      -2.554000     -2.290000      6.551000
  H      -0.858000     -1.773000      6.131000
  C      -2.320000     -0.950000      4.748000
  H      -1.586000     -0.200000      4.384000
  H      -3.289000     -0.430000      4.909000
  C      -2.330000     -2.060000      3.721000
  H      -3.277000     -2.605000      3.925000
  H      -1.406000     -2.666000      3.835000
  C      -2.352000     -1.505000      2.258000
  H      -1.472000     -0.830000      2.187000
  H      -3.310000     -0.986000      2.046000
  C      -2.196000     -2.563000      1.166000
  H      -2.769000     -3.402000      1.617000
  H      -1.134000     -2.854000      1.017000
  C      -2.813000     -2.161000     -0.175000
  H      -3.836000     -1.752000     -0.037000
  H      -2.890000     -3.124000     -0.725000
  C      -2.015000     -1.210000     -1.033000
  H      -1.275000     -0.664000     -0.428000
  C      -2.110000     -1.001000     -2.347000
  H      -1.349000     -0.339000     -2.785000
  C      -3.064000     -1.684000     -3.267000
  H      -3.716000     -2.382000     -2.699000
  H      -2.365000     -2.145000     -3.997000
  C      -3.958000     -0.724000     -4.074000
  H      -3.417000      0.192000     -4.395000
  H      -4.823000     -0.535000     -3.403000
  C      -4.592000     -1.394000     -5.275000
  H      -5.464000     -0.798000     -5.621000
  H      -4.945000     -2.415000     -5.015000
  C      -3.675000     -1.580000     -6.504000
  H      -2.782000     -2.205000     -6.293000
  H      -3.153000     -0.626000     -6.730000
  C      -4.502000     -2.160000     -7.616000
  H      -5.374000     -1.495000     -7.792000
  H      -5.010000     -3.092000     -7.289000
  C      -3.722000     -2.243000     -8.947000
  H      -2.681000     -2.608000     -8.819000
  H      -3.559000     -1.184000     -9.243000
  C      -4.600000     -3.095000     -9.822000
  H      -5.671000     -2.831000     -9.693000
  H      -4.636000     -4.142000     -9.451000
  C      -4.245000     -3.003000    -11.275000
  H      -5.082000     -3.259000    -11.960000
  H      -3.306000     -3.523000    -11.561000
  H      -3.966000     -1.946000    -11.472000
  C      -0.005000      2.967000      1.809000
  H       1.021000      3.392000      1.806000
  H      -0.585000      3.684000      1.190000
  C       0.034000      1.564000      1.094000
  H      -0.938000      1.057000      1.272000
  H       0.730000      0.905000      1.656000
  C       0.622000      1.613000     -0.311000
  H       1.315000      2.480000     -0.257000
  H      -0.220000      1.802000     -1.012000
  C       1.303000      0.329000     -0.787000
  H       2.178000      0.224000     -0.110000
  H       0.661000     -0.576000     -0.726000
  C       1.712000      0.423000     -2.246000
  H       0.861000      0.801000     -2.852000
  H       2.580000      1.108000     -2.355000
  C       2.247000     -0.903000     -2.882000
  H       1.507000     -1.730000     -2.834000
  H       3.006000     -1.273000     -2.160000
  C       2.840000     -0.647000     -4.258000
  H       3.743000     -0.021000     -4.305000
  C       2.088000     -0.694000     -5.336000
  H       2.566000     -0.425000     -6.290000
  C       0.674000     -1.216000     -5.539000
  H       0.115000     -1.613000     -4.665000
  H       0.912000     -2.104000     -6.162000
  C      -0.117000     -0.218000     -6.333000
  H      -0.218000      0.736000     -5.774000
  H      -1.122000     -0.689000     -6.395000
  C       0.277000     -0.018000     -7.785000
  H       0.900000      0.899000     -7.856000
  H       0.864000     -0.882000     -8.165000
  C      -0.976000      0.225000     -8.684000
  H      -1.443000     -0.782000     -8.640000
  H      -1.633000      0.968000     -8.184000
  C      -0.625000      0.627000    -10.134000
  H      -0.062000      1.584000    -10.115000
  H      -1.639000      0.763000    -10.567000
  C       0.142000     -0.481000    -10.872000
  H       0.468000     -0.032000    -11.835000
  H       1.151000     -0.751000    -10.492000
  C      -0.718000     -1.769000    -11.097000
  H      -1.008000     -2.191000    -10.111000
  H      -1.725000     -1.606000    -11.538000
  C       0.016000     -2.798000    -11.970000
  H       0.318000     -2.449000    -12.981000
  H       0.842000     -3.210000    -11.351000
  H      -0.646000     -3.651000    -12.234000
138
Coordinates from ORCA-job /wrk/rja7/qm_final_3_replicates/qm_final_1.1/qm/7/freq E -2722.375408083932
  N       5.595734      3.229548     12.059916
  C       4.292961      3.445323     11.361710
  H       4.007580      4.496400     11.431358
  H       3.556188      2.834370     11.892793
  C       5.934400      1.791942     12.364386
  H       5.733967      1.187623     11.478926
  H       6.966191      1.591631     12.656658
  H       5.295827      1.325836     13.116515
  C       5.496712      4.002665     13.403691
  H       5.236079      5.040563     13.201082
  H       4.791930      3.523675     14.086582
  H       6.432359      3.792848     13.925319
  C       6.784870      3.875949     11.348860
  H       6.608911      4.934260     11.152451
  H       6.947188      3.394407     10.383303
  H       7.695185      3.768879     11.939800
  C       4.140558      2.864339      9.891417
  H       3.227052      3.280131      9.411715
  H       5.017624      3.290347      9.348702
  P       3.074633      0.472804     10.315184
  O       2.697098      0.904582     11.691357
  O       3.518799     -0.928501     10.185817
  O       4.366628      1.460995      9.914613
  O       2.020115      0.984993      9.233221
  C       2.410683      0.588714      7.847180
  H       2.546817     -0.513515      7.794728
  H       3.374830      1.093674      7.622227
  C       1.245303      1.011830      6.894150
  H       1.111135      2.112340      6.970106
  O       0.033802      0.287885      7.243296
  C      -1.138086      0.922884      7.141280
  O      -1.246555      2.113044      6.882271
  C      -2.263819     -0.103118      7.272588
  H      -3.255192      0.391330      7.171082
  H      -2.306957     -0.562346      8.284744
  C       1.582697      0.756006      5.410920
  H       1.406423     -0.320867      5.189318
  H       2.634374      1.016866      5.164014
  O       0.624309      1.406371      4.588939
  C       0.918956      2.617780      4.106274
  O       1.932489      3.271984      4.338358
  C      -0.189160      3.124455      3.228483
  H      -1.050637      2.426626      3.366944
  H      -0.542514      4.138431      3.514120
  C      -2.148458     -1.167017      6.120455
  H      -2.850679     -1.942033      6.500396
  H      -1.105901     -1.553368      6.155902
  C      -2.459289     -0.638116      4.706762
  H      -1.660961      0.060363      4.355145
  H      -3.398188     -0.048508      4.809623
  C      -2.513323     -1.791539      3.707670
  H      -3.498941     -2.276194      3.891097
  H      -1.636531     -2.452952      3.882576
  C      -2.452285     -1.315374      2.221386
  H      -1.533525     -0.693205      2.140296
  H      -3.368983     -0.748143      1.949868
  C      -2.320151     -2.467708      1.204617
  H      -2.954113     -3.252218      1.676984
  H      -1.268268     -2.821564      1.125820
  C      -2.859338     -2.146340     -0.197031
  H      -3.870561     -1.684398     -0.138376
  H      -2.963328     -3.142540     -0.685263
  C      -1.974341     -1.283965     -1.075674
  H      -1.235624     -0.718261     -0.482405
  C      -2.002738     -1.170572     -2.414047
  H      -1.201417     -0.565398     -2.870512
  C      -2.941376     -1.898884     -3.330683
  H      -3.634360     -2.537183     -2.743198
  H      -2.232077     -2.443460     -3.995301
  C      -3.786454     -0.982773     -4.249400
  H      -3.214169     -0.103758     -4.618497
  H      -4.673756     -0.712782     -3.633797
  C      -4.370385     -1.755330     -5.429424
  H      -5.219192     -1.188730     -5.873536
  H      -4.750912     -2.746546     -5.093787
  C      -3.383348     -2.048206     -6.589354
  H      -2.508494     -2.653784     -6.260657
  H      -2.852733     -1.110525     -6.866824
  C      -4.116101     -2.740816     -7.719362
  H      -4.978431     -2.104434     -8.023087
  H      -4.636048     -3.650021     -7.343318
  C      -3.247320     -2.954456     -8.990912
  H      -2.213311     -3.299297     -8.752712
  H      -3.071474     -1.929085     -9.385477
  C      -4.039448     -3.904869     -9.866510
  H      -5.121736     -3.643312     -9.851234
  H      -4.090543     -4.914870     -9.398372
  C      -3.572169     -3.957423    -11.307732
  H      -4.351401     -4.301125    -12.022674
  H      -2.611236     -4.496157    -11.463080
  H      -3.289727     -2.921818    -11.603439
  C       0.318059      3.103060      1.787890
  H       1.378214      3.439111      1.829132
  H      -0.177110      3.880692      1.163865
  C       0.255743      1.724181      1.047023
  H      -0.766984      1.307075      1.174403
  H       0.869568      0.989839      1.619919
  C       0.879186      1.751552     -0.353871
  H       1.658582      2.541673     -0.280836
  H       0.077383      2.041765     -1.071259
  C       1.431654      0.404028     -0.839952
  H       2.278269      0.176357     -0.153152
  H       0.679990     -0.416061     -0.799157
  C       1.886568      0.472229     -2.295135
  H       1.103267      0.967944     -2.910363
  H       2.836127      1.047465     -2.378372
  C       2.216789     -0.911339     -2.946763
  H       1.345756     -1.602429     -2.911947
  H       2.910043     -1.416983     -2.235219
  C       2.820865     -0.745024     -4.331267
  H       3.822687     -0.287681     -4.397564
  C       2.030046     -0.649362     -5.400727
  H       2.507574     -0.457758     -6.377715
  C       0.534223     -0.911704     -5.522866
  H      -0.017662     -1.198986     -4.602870
  H       0.546976     -1.829295     -6.156720
  C      -0.128236      0.231148     -6.270589
  H      -0.003726      1.184331     -5.711782
  H      -1.208220     -0.035032     -6.250944
  C       0.184363      0.360528     -7.761667
  H       0.970891      1.136275     -7.903408
  H       0.558195     -0.602317     -8.173386
  C      -1.071421      0.853646     -8.553533
  H      -1.740213     -0.027049     -8.457867
  H      -1.512197      1.717223     -8.009377
  C      -0.792558      1.158943    -10.045595
  H      -0.037292      1.972007    -10.114365
  H      -1.787341      1.509274    -10.400868
  C      -0.373497     -0.106833    -10.814917
  H      -0.055908      0.233358    -11.828402
  H       0.582994     -0.587417    -10.508370
  C      -1.513744     -1.170506    -10.906046
  H      -1.798116     -1.497793     -9.876762
  H      -2.490501     -0.776167    -11.264992
  C      -1.120439     -2.372295    -11.786230
  H      -0.838894     -2.120808    -12.832417
  H      -0.352120     -2.957166    -11.233940
  H      -1.986175     -3.054986    -11.947338
138
Coordinates from ORCA-job /wrk/rja7/qm_final_3_replicates/qm_final_1.1/qm/7/freq E -2722.459653498283
  N       5.658486      3.245910     12.044002
  C       4.317768      3.408550     11.381769
  H       3.959229      4.442031     11.507285
  H       3.629617      2.717205     11.906592
  C       6.092763      1.816527     12.265871
  H       5.907132      1.241003     11.346674
  H       7.154570      1.686611     12.527708
  H       5.489655      1.283629     13.017441
  C       5.546892      3.938728     13.429437
  H       5.213641      4.974682     13.292515
  H       4.878271      3.366638     14.093424
  H       6.516483      3.772836     13.926193
  C       6.783420      3.999187     11.334719
  H       6.525752      5.060632     11.198831
  H       6.946973      3.569166     10.334565
  H       7.720296      3.920386     11.905168
  C       4.190510      2.891912      9.893484
  H       3.237916      3.262154      9.452731
  H       5.022280      3.394297      9.337703
  P       3.245592      0.425430     10.280662
  O       2.858552      0.818815     11.694272
  O       3.773723     -0.962024     10.068126
  O       4.487745      1.506760      9.865959
  O       2.114864      0.914358      9.221441
  C       2.461336      0.595122      7.813030
  H       2.659742     -0.495590      7.716176
  H       3.381621      1.164493      7.557893
  C       1.243981      0.983768      6.930882
  H       1.046975      2.071218      7.051401
  O       0.091970      0.181278      7.304644
  C      -1.148719      0.742661      7.279762
  O      -1.372337      1.934794      7.078147
  C      -2.190767     -0.371746      7.412477
  H      -3.218161      0.057428      7.374662
  H      -2.153998     -0.878646      8.402959
  C       1.543582      0.778633      5.427458
  H       1.425688     -0.304348      5.188973
  H       2.571547      1.106454      5.159526
  O       0.522376      1.393428      4.624594
  C       0.726036      2.640379      4.139808
  O       1.712090      3.340101      4.367194
  C      -0.435641      3.089562      3.269087
  H      -1.255908      2.342835      3.414809
  H      -0.838756      4.080014      3.571620
  C      -2.039482     -1.374712      6.209204
  H      -2.664596     -2.230711      6.552954
  H      -0.969766     -1.681038      6.189576
  C      -2.441779     -0.790048      4.837635
  H      -1.709203     -0.008183      4.514671
  H      -3.422736     -0.282617      4.992052
  C      -2.435862     -1.886615      3.758972
  H      -3.372129     -2.470043      3.922959
  H      -1.505292     -2.487112      3.871714
  C      -2.449783     -1.307574      2.310764
  H      -1.590108     -0.601859      2.254319
  H      -3.416405     -0.797649      2.099349
  C      -2.240973     -2.386772      1.213347
  H      -2.793413     -3.262408      1.628954
  H      -1.161932     -2.639168      1.101180
  C      -2.828891     -2.025671     -0.164215
  H      -3.880056     -1.665300     -0.062883
  H      -2.853111     -2.990623     -0.725333
  C      -2.037832     -1.014569     -0.985608
  H      -1.342013     -0.412646     -0.372256
  C      -2.111469     -0.823941     -2.321607
  H      -1.391342     -0.113720     -2.768946
  C      -3.006541     -1.604831     -3.249737
  H      -3.602520     -2.339614     -2.670225
  H      -2.277715     -2.050818     -3.969173
  C      -3.992631     -0.745727     -4.090874
  H      -3.541878      0.207649     -4.445402
  H      -4.873579     -0.591888     -3.424779
  C      -4.548372     -1.557061     -5.270686
  H      -5.483300     -1.084113     -5.650169
  H      -4.794076     -2.590958     -4.931210
  C      -3.621763     -1.714715     -6.512084
  H      -2.658354     -2.221550     -6.263628
  H      -3.227791     -0.712052     -6.812434
  C      -4.361918     -2.505178     -7.589813
  H      -5.322534     -1.978322     -7.806190
  H      -4.720201     -3.466363     -7.153461
  C      -3.644886     -2.663684     -8.969683
  H      -2.550666     -2.888576     -8.873007
  H      -3.643319     -1.640317     -9.406235
  C      -4.428309     -3.737335     -9.725929
  H      -5.523847     -3.595836     -9.566227
  H      -4.289411     -4.727750     -9.228455
  C      -4.172555     -3.814139    -11.232405
  H      -5.000951     -4.283019    -11.808172
  H      -3.188184     -4.256371    -11.507960
  H      -4.064838     -2.771657    -11.611887
  C       0.043394      3.110213      1.803399
  H       1.084704      3.508395      1.818993
  H      -0.512870      3.859753      1.192674
  C       0.049416      1.731190      1.069170
  H      -0.942723      1.248897      1.216446
  H       0.724135      1.041299      1.636119
  C       0.630111      1.788907     -0.359835
  H       1.360670      2.628084     -0.326302
  H      -0.205655      2.020419     -1.063077
  C       1.277810      0.471225     -0.832691
  H       2.152853      0.317759     -0.157686
  H       0.585527     -0.399503     -0.755938
  C       1.732420      0.540529     -2.296235
  H       0.918466      0.962934     -2.928618
  H       2.635050      1.189206     -2.386972
  C       2.182958     -0.829792     -2.906769
  H       1.371957     -1.592176     -2.866144
  H       2.912331     -1.259157     -2.176421
  C       2.797041     -0.643792     -4.284370
  H       3.759346     -0.099481     -4.324335
  C       2.043096     -0.649374     -5.407293
  H       2.551455     -0.427171     -6.365752
  C       0.588139     -1.068411     -5.612377
  H       0.021226     -1.401044     -4.717505
  H       0.728717     -1.989225     -6.233211
  C      -0.165475     -0.005865     -6.420927
  H      -0.185983      0.959984     -5.867693
  H      -1.214468     -0.390350     -6.467920
  C       0.266537      0.179481     -7.886569
  H       0.970961      1.043010     -7.951199
  H       0.788156     -0.728727     -8.260973
  C      -0.948726      0.529816     -8.808552
  H      -1.523897     -0.418718     -8.794016
  H      -1.547880      1.330568     -8.320599
  C      -0.534532      0.890991    -10.259371
  H       0.121124      1.790048    -10.232899
  H      -1.508404      1.129309    -10.746302
  C       0.143656     -0.296167    -10.971655
  H       0.543824      0.100342    -11.937969
  H       1.105596     -0.642980    -10.526643
  C      -0.797096     -1.509606    -11.227324
  H      -1.181012     -1.908274    -10.249393
  H      -1.756921     -1.243721    -11.727167
  C      -0.090300     -2.619493    -12.036589
  H       0.307056     -2.290444    -13.022825
  H       0.672393     -3.100797    -11.383801
  H      -0.804659     -3.422147    -12.330531
138
Coordinates from ORCA-job /wrk/rja7/qm_final_3_replicates/qm_final_1.1/qm/7/freq E -2722.483800284630
  N       5.678975      3.260374     12.058439
  C       4.331056      3.371895     11.379038
  H       3.927856      4.393700     11.510330
  H       3.664988      2.644142     11.898164
  C       6.168377      1.844190     12.272197
  H       6.017394      1.268422     11.341795
  H       7.237576      1.775317     12.547882
  H       5.567890      1.292296     13.018922
  C       5.524813      3.929860     13.449632
  H       5.149106      4.956944     13.323961
  H       4.863345      3.314134     14.089441
  H       6.499228      3.810349     13.961320
  C       6.777065      4.062192     11.361034
  H       6.469202      5.116413     11.233595
  H       6.964016      3.641536     10.355936
  H       7.713712      4.016104     11.944043
  C       4.248359      2.871183      9.888121
  H       3.279836      3.206780      9.452079
  H       5.058198      3.406562      9.327368
  P       3.352048      0.367506     10.267089
  O       2.946075      0.752625     11.691901
  O       3.920089     -1.009210     10.011328
  O       4.575644      1.494310      9.845174
  O       2.190474      0.846569      9.206443
  C       2.515208      0.564658      7.794138
  H       2.739975     -0.519659      7.674178
  H       3.414497      1.161662      7.523860
  C       1.282164      0.946319      6.945595
  H       1.060629      2.026663      7.092585
  O       0.152920      0.117025      7.322296
  C      -1.104525      0.669805      7.325084
  O      -1.343445      1.862217      7.151851
  C      -2.142078     -0.450977      7.451038
  H      -3.167067     -0.013254      7.436429
  H      -2.086320     -0.975612      8.432025
  C       1.565911      0.769642      5.433905
  H       1.473559     -0.311639      5.175684
  H       2.582682      1.128516      5.162136
  O       0.516548      1.380632      4.649015
  C       0.681722      2.650786      4.186100
  O       1.656170      3.360617      4.425051
  C      -0.503943      3.085281      3.326055
  H      -1.304231      2.314018      3.463030
  H      -0.925974      4.058585      3.657428
  C      -2.010246     -1.444355      6.236155
  H      -2.631997     -2.310957      6.561690
  H      -0.942405     -1.755129      6.197284
  C      -2.429559     -0.840772      4.874744
  H      -1.698160     -0.053255      4.557922
  H      -3.410611     -0.333343      5.034255
  C      -2.445267     -1.931320      3.779098
  H      -3.379802     -2.519194      3.942376
  H      -1.518473     -2.541504      3.876225
  C      -2.470349     -1.339533      2.338418
  H      -1.610615     -0.633604      2.276020
  H      -3.435739     -0.818694      2.143986
  C      -2.283207     -2.422073      1.230813
  H      -2.835513     -3.304552      1.634063
  H      -1.206375     -2.681761      1.107972
  C      -2.878286     -2.040522     -0.141516
  H      -3.927639     -1.674971     -0.024804
  H      -2.918935     -2.992764     -0.724443
  C      -2.077581     -1.014079     -0.941592
  H      -1.370352     -0.425875     -0.326262
  C      -2.158318     -0.794739     -2.276060
  H      -1.439319     -0.077502     -2.717481
  C      -3.065845     -1.552420     -3.219435
  H      -3.659310     -2.300070     -2.655106
  H      -2.352035     -1.994907     -3.957828
  C      -4.060843     -0.664204     -4.028942
  H      -3.607907      0.296130     -4.362177
  H      -4.934180     -0.512039     -3.351411
  C      -4.624075     -1.449247     -5.231009
  H      -5.561567     -0.969045     -5.597663
  H      -4.872239     -2.489844     -4.911374
  C      -3.691660     -1.571561     -6.473498
  H      -2.728942     -2.082944     -6.224247
  H      -3.306706     -0.556218     -6.747339
  C      -4.401926     -2.344288     -7.591458
  H      -5.366240     -1.824083     -7.815869
  H      -4.751799     -3.322947     -7.185175
  C      -3.656233     -2.475067     -8.960577
  H      -2.562796     -2.693286     -8.836161
  H      -3.658277     -1.445456     -9.385262
  C      -4.392751     -3.543232     -9.780973
  H      -5.496787     -3.419618     -9.659100
  H      -4.251306     -4.544579     -9.303607
  C      -4.080953     -3.581973    -11.287058
  H      -4.879198     -4.055360    -11.900368
  H      -3.080503     -4.008453    -11.531860
  H      -3.980006     -2.530242    -11.647334
  C      -0.043403      3.157204      1.847182
  H       0.987516      3.584904      1.854644
  H      -0.631905      3.903626      1.261393
  C      -0.008131      1.794775      1.093150
  H      -0.984146      1.279663      1.242193
  H       0.697207      1.118879      1.642774
  C       0.534630      1.888020     -0.355483
  H       1.243278      2.747179     -0.343548
  H      -0.321510      2.102502     -1.040923
  C       1.220584      0.589480     -0.839474
  H       2.112599      0.460023     -0.180090
  H       0.550706     -0.297269     -0.741061
  C       1.668803      0.661120     -2.311702
  H       0.843281      1.055649     -2.948501
  H       2.550326      1.338495     -2.410963
  C       2.155639     -0.708646     -2.897691
  H       1.360660     -1.487945     -2.842870
  H       2.900002     -1.107464     -2.162654
  C       2.765278     -0.548402     -4.281332
  H       3.718742      0.013723     -4.328672
  C       2.026680     -0.613915     -5.420759
  H       2.541764     -0.406615     -6.380633
  C       0.587843     -1.087798     -5.625694
  H       0.034873     -1.403175     -4.716015
  H       0.750509     -2.027333     -6.216153
  C      -0.214520     -0.083486     -6.478903
  H      -0.274530      0.901953     -5.962762
  H      -1.249625     -0.505851     -6.513491
  C       0.233110      0.072469     -7.951323
  H       0.907191      0.959458     -8.038062
  H       0.796691     -0.826730     -8.285145
  C      -0.980896      0.333292     -8.906747
  H      -1.525132     -0.634403     -8.874023
  H      -1.622677      1.125681     -8.459379
  C      -0.560712      0.664830    -10.367507
  H       0.054099      1.593527    -10.358965
  H      -1.530999      0.846714    -10.886777
  C       0.189671     -0.504002    -11.045070
  H       0.584740     -0.112147    -12.017429
  H       1.157571     -0.782585    -10.564182
  C      -0.665828     -1.776718    -11.293168
  H      -1.048135     -2.179230    -10.316619
  H      -1.625284     -1.568803    -11.824146
  C       0.125260     -2.867375    -12.053279
  H       0.531299     -2.531271    -13.034137
  H       0.902808     -3.292599    -11.378826
  H      -0.536818     -3.717430    -12.340922
138
Coordinates from ORCA-job /wrk/rja7/qm_final_3_replicates/qm_final_1.1/qm/7/freq E -2722.497545519177
  N       5.641518      3.355437     12.036340
  C       4.301866      3.415369     11.321693
  H       3.878920      4.435619     11.409629
  H       3.638571      2.692653     11.856354
  C       6.151113      1.953571     12.309538
  H       6.032764      1.343977     11.394849
  H       7.216150      1.929464     12.612412
  H       5.536350      1.426523     13.063998
  C       5.443572      4.065485     13.399635
  H       5.051271      5.081985     13.233813
  H       4.773532      3.454122     14.036478
  H       6.408639      3.991935     13.939802
  C       6.738367      4.150672     11.329864
  H       6.409008      5.193722     11.160183
  H       6.951529      3.694592     10.344562
  H       7.663295      4.142627     11.935254
  C       4.263893      2.867882      9.849822
  H       3.293493      3.172425      9.393308
  H       5.070389      3.394846      9.275773
  P       3.371110      0.360327     10.297478
  O       2.943812      0.787651     11.708570
  O       3.951005     -1.017967     10.059905
  O       4.597615      1.491030      9.846114
  O       2.206357      0.815075      9.211303
  C       2.528372      0.513545      7.809367
  H       2.756828     -0.572371      7.704861
  H       3.425010      1.108717      7.522932
  C       1.300578      0.889377      6.957591
  H       1.080383      1.971867      7.094430
  O       0.165870      0.071412      7.338658
  C      -1.085695      0.645167      7.329214
  O      -1.299993      1.836919      7.148444
  C      -2.148121     -0.451928      7.454614
  H      -3.159404      0.015977      7.430748
  H      -2.106503     -0.970606      8.439786
  C       1.587291      0.692891      5.448794
  H       1.495394     -0.389780      5.197830
  H       2.605220      1.049323      5.177747
  O       0.541265      1.307105      4.656512
  C       0.720771      2.580081      4.196612
  O       1.700925      3.274060      4.446100
  C      -0.455680      3.024300      3.325827
  H      -1.265021      2.261553      3.453335
  H      -0.867236      4.000945      3.660801
  C      -2.035698     -1.464853      6.253879
  H      -2.680474     -2.316992      6.573490
  H      -0.976799     -1.805426      6.223048
  C      -2.433355     -0.864796      4.882468
  H      -1.680896     -0.097638      4.565537
  H      -3.404196     -0.332356      5.023224
  C      -2.477736     -1.966014      3.793245
  H      -3.426222     -2.531936      3.954313
  H      -1.570660     -2.604182      3.899579
  C      -2.481772     -1.385185      2.348660
  H      -1.605337     -0.700385      2.280364
  H      -3.431485     -0.837119      2.149640
  C      -2.326532     -2.486278      1.250792
  H      -2.902457     -3.354734      1.651572
  H      -1.257217     -2.778366      1.132915
  C      -2.906651     -2.092925     -0.126777
  H      -3.946117     -1.698293     -0.011078
  H      -2.977014     -3.040997     -0.713393
  C      -2.070936     -1.085662     -0.918562
  H      -1.347324     -0.516669     -0.304273
  C      -2.141214     -0.859355     -2.252852
  H      -1.403738     -0.159086     -2.692023
  C      -3.066252     -1.587890     -3.205785
  H      -3.679828     -2.325234     -2.649783
  H      -2.370205     -2.051967     -3.948022
  C      -4.039255     -0.662128     -4.005307
  H      -3.558112      0.288084     -4.328206
  H      -4.904999     -0.484056     -3.324519
  C      -4.627760     -1.418518     -5.217793
  H      -5.552746     -0.908727     -5.577593
  H      -4.907487     -2.453547     -4.905580
  C      -3.698262     -1.550375     -6.460927
  H      -2.750892     -2.090587     -6.212528
  H      -3.291262     -0.540146     -6.725945
  C      -4.418937     -2.298279     -7.592455
  H      -5.371498     -1.756170     -7.818327
  H      -4.788009     -3.274011     -7.194473
  C      -3.673562     -2.445827     -8.959086
  H      -2.586341     -2.692455     -8.830735
  H      -3.651625     -1.418306     -9.389428
  C      -4.423447     -3.495421     -9.794223
  H      -5.525983     -3.346509     -9.682287
  H      -4.304431     -4.501459     -9.319859
  C      -4.098687     -3.537785    -11.300394
  H      -4.901014     -3.997146    -11.918674
  H      -3.106398     -3.989398    -11.533569
  H      -3.975348     -2.488732    -11.663019
  C       0.017418      3.101996      1.848218
  H       1.052888      3.519589      1.863648
  H      -0.561473      3.857250      1.263764
  C       0.041695      1.743191      1.092647
  H      -0.942059      1.238394      1.228525
  H       0.736127      1.058090      1.645181
  C       0.584286      1.836365     -0.358370
  H       1.306140      2.685041     -0.351515
  H      -0.267170      2.066647     -1.044607
  C       1.255054      0.528359     -0.844023
  H       2.144974      0.377338     -0.186026
  H       0.567655     -0.345376     -0.744699
  C       1.716169      0.600209     -2.315001
  H       0.903798      1.015705     -2.956023
  H       2.609381      1.263978     -2.403658
  C       2.168947     -0.778751     -2.904730
  H       1.347922     -1.531573     -2.858402
  H       2.901934     -1.205799     -2.173458
  C       2.783883     -0.632299     -4.286894
  H       3.757806     -0.104742     -4.327657
  C       2.051783     -0.669683     -5.430502
  H       2.576918     -0.473453     -6.387525
  C       0.599339     -1.095962     -5.635415
  H       0.045588     -1.391733     -4.719387
  H       0.715969     -2.039027     -6.232254
  C      -0.180968     -0.059338     -6.477586
  H      -0.200875      0.924619     -5.954830
  H      -1.231294     -0.441197     -6.505591
  C       0.268320      0.095767     -7.952279
  H       0.976969      0.955936     -8.035663
  H       0.796890     -0.821078     -8.296008
  C      -0.940073      0.409003     -8.897939
  H      -1.528555     -0.532935     -8.874719
  H      -1.548216      1.223206     -8.442024
  C      -0.518720      0.733897    -10.360569
  H       0.134171      1.636660    -10.352213
  H      -1.480341      0.960693    -10.879058
  C       0.181275     -0.457926    -11.053617
  H       0.584276     -0.078415    -12.028169
  H       1.138149     -0.772303    -10.571780
  C      -0.716458     -1.698518    -11.302229
  H      -1.109155     -2.093186    -10.325912
  H      -1.667605     -1.447160    -11.830635
  C       0.033360     -2.816326    -12.065993
  H       0.451081     -2.485377    -13.043975
  H       0.801085     -3.274284    -11.401685
  H      -0.660511     -3.641237    -12.352495
138
Coordinates from ORCA-job /wrk/rja7/qm_final_3_replicates/qm_final_1.1/qm/7/freq E -2722.514488636963
  N       5.624823      3.420780     12.023150
  C       4.297420      3.424109     11.268142
  H       3.847978      4.436841     11.322115
  H       3.641929      2.696159     11.808961
  C       6.159337      2.032031     12.338595
  H       6.082372      1.404961     11.430189
  H       7.215407      2.062549     12.672847
  H       5.525037      1.520798     13.088361
  C       5.371544      4.148487     13.363894
  H       4.957791      5.153024     13.171057
  H       4.692165      3.527696     13.982216
  H       6.322349      4.126814     13.934863
  C       6.717473      4.224260     11.320004
  H       6.359595      5.253327     11.119805
  H       6.962911      3.745610     10.352613
  H       7.626011      4.253500     11.950714
  C       4.318660      2.850352      9.812404
  H       3.343232      3.119106      9.340801
  H       5.116392      3.380188      9.228825
  P       3.445154      0.326137     10.306419
  O       2.999555      0.778957     11.706169
  O       4.043942     -1.042690     10.058488
  O       4.667761      1.476569      9.828895
  O       2.262878      0.762206      9.206331
  C       2.569242      0.461042      7.810109
  H       2.807575     -0.623813      7.704925
  H       3.456367      1.062545      7.502176
  C       1.338064      0.836509      6.968015
  H       1.114387      1.917784      7.110367
  O       0.202564      0.020886      7.352872
  C      -1.045106      0.611576      7.347692
  O      -1.241155      1.803604      7.177396
  C      -2.126891     -0.466377      7.469475
  H      -3.123845      0.030910      7.451145
  H      -2.085140     -0.988928      8.452984
  C       1.615246      0.635473      5.457251
  H       1.529457     -0.446303      5.203292
  H       2.629252      0.999701      5.181880
  O       0.561970      1.253072      4.670494
  C       0.744764      2.536453      4.228634
  O       1.727219      3.217864      4.490134
  C      -0.431199      2.990414      3.359668
  H      -1.243541      2.229986      3.472551
  H      -0.834921      3.963198      3.715640
  C      -2.042435     -1.488684      6.276221
  H      -2.703779     -2.332759      6.583619
  H      -0.992536     -1.856087      6.241515
  C      -2.432655     -0.887798      4.900536
  H      -1.666667     -0.135575      4.582498
  H      -3.395293     -0.336923      5.027701
  C      -2.510401     -1.995173      3.813928
  H      -3.466703     -2.546844      3.978055
  H      -1.621177     -2.658321      3.922294
  C      -2.508485     -1.426743      2.364941
  H      -1.621410     -0.757416      2.280122
  H      -3.445592     -0.855116      2.169576
  C      -2.391824     -2.549184      1.280662
  H      -2.982784     -3.406287      1.683655
  H      -1.330252     -2.869139      1.162271
  C      -2.966014     -2.154799     -0.102289
  H      -3.996455     -1.736821      0.016892
  H      -3.065912     -3.099304     -0.689489
  C      -2.104144     -1.166464     -0.892506
  H      -1.363404     -0.610232     -0.286805
  C      -2.169295     -0.937115     -2.226773
  H      -1.419966     -0.249874     -2.667378
  C      -3.107863     -1.639836     -3.190217
  H      -3.737241     -2.372309     -2.645457
  H      -2.432628     -2.123885     -3.938505
  C      -4.062696     -0.678035     -3.974907
  H      -3.554247      0.263128     -4.282753
  H      -4.918971     -0.474363     -3.289772
  C      -4.672740     -1.397834     -5.204407
  H      -5.584414     -0.858145     -5.555867
  H      -4.984850     -2.428037     -4.906839
  C      -3.735946     -1.527944     -6.440434
  H      -2.807015     -2.097006     -6.185228
  H      -3.310255     -0.521209     -6.686215
  C      -4.445300     -2.237942     -7.606149
  H      -5.383280     -1.675381     -7.845520
  H      -4.835562     -3.218168     -7.238489
  C      -3.665334     -2.380729     -8.950865
  H      -2.590076     -2.653445     -8.788243
  H      -3.612379     -1.351139     -9.375883
  C      -4.390320     -3.399972     -9.846216
  H      -5.494620     -3.232899     -9.781519
  H      -4.302773     -4.418600     -9.391897
  C      -3.993950     -3.413698    -11.338600
  H      -4.772416     -3.854446    -11.999125
  H      -3.000549     -3.882330    -11.529239
  H      -3.842780     -2.360598    -11.679995
  C       0.044023      3.097971      1.881396
  H       1.080940      3.512606      1.902376
  H      -0.536041      3.864845      1.313308
  C       0.059557      1.751556      1.109951
  H      -0.928483      1.250432      1.231653
  H       0.751170      1.056069      1.652401
  C       0.585648      1.860966     -0.348106
  H       1.317844      2.701532     -0.351411
  H      -0.267158      2.109755     -1.025943
  C       1.241906      0.548844     -0.847249
  H       2.134285      0.373147     -0.198588
  H       0.537962     -0.311192     -0.741621
  C       1.711424      0.622306     -2.318903
  H       0.911934      1.057657     -2.963713
  H       2.613822      1.274699     -2.398681
  C       2.129206     -0.767495     -2.905728
  H       1.280508     -1.489333     -2.862546
  H       2.851277     -1.219833     -2.178667
  C       2.749545     -0.651998     -4.288216
  H       3.746014     -0.166691     -4.325048
  C       2.034994     -0.679797     -5.439969
  H       2.577421     -0.510742     -6.392581
  C       0.572159     -1.059688     -5.645792
  H       0.017264     -1.314916     -4.717938
  H       0.636101     -2.015614     -6.230580
  C      -0.183195     -0.009476     -6.501961
  H      -0.164341      0.984068     -5.996646
  H      -1.247472     -0.346876     -6.519287
  C       0.281602      0.106282     -7.978971
  H       1.026536      0.933662     -8.075629
  H       0.777244     -0.837135     -8.300361
  C      -0.908726      0.436641     -8.939304
  H      -1.541017     -0.476960     -8.905796
  H      -1.491416      1.283924     -8.509970
  C      -0.471410      0.712683    -10.408705
  H       0.213805      1.591703    -10.419589
  H      -1.415123      0.964598    -10.948716
  C       0.197882     -0.512336    -11.078803
  H       0.615936     -0.168115    -12.060278
  H       1.138071     -0.836735    -10.570518
  C      -0.722666     -1.737484    -11.308307
  H      -1.132810     -2.102600    -10.329271
  H      -1.657572     -1.464403    -11.855830
  C       0.004075     -2.895633    -12.034075
  H       0.445122     -2.591224    -13.010752
  H       0.758556     -3.360942    -11.359768
  H      -0.711039     -3.708616    -12.303725
138
Coordinates from ORCA-job /wrk/rja7/qm_final_3_replicates/qm_final_1.1/qm/7/freq E -2722.531404510085
  N       5.623181      3.394737     11.999348
  C       4.305330      3.385363     11.210482
  H       3.863204      4.405653     11.233532
  H       3.635676      2.672764     11.760006
  C       6.130548      1.995083     12.342479
  H       6.067743      1.366029     11.431960
  H       7.178653      2.044838     12.704939
  H       5.456493      1.520545     13.084289
  C       5.349442      4.137821     13.322093
  H       4.950315      5.147405     13.110928
  H       4.638259      3.528500     13.919090
  H       6.289495      4.136855     13.914831
  C       6.733830      4.168733     11.292159
  H       6.381480      5.197341     11.068089
  H       6.985411      3.660055     10.339727
  H       7.631632      4.201225     11.941793
  C       4.373091      2.792566      9.772227
  H       3.397796      3.049331      9.289495
  H       5.173091      3.304071      9.175037
  P       3.458354      0.275029     10.329294
  O       3.012788      0.771581     11.717213
  O       4.040526     -1.098803     10.062322
  O       4.702628      1.414335      9.807443
  O       2.262454      0.720104      9.218405
  C       2.542633      0.404445      7.830775
  H       2.762851     -0.685827      7.729063
  H       3.435557      0.985301      7.494483
  C       1.324324      0.809225      6.989827
  H       1.123560      1.894839      7.131536
  O       0.162658      0.028747      7.377399
  C      -1.072943      0.661635      7.371878
  O      -1.235987      1.861393      7.214290
  C      -2.189390     -0.381849      7.486076
  H      -3.163703      0.158399      7.471296
  H      -2.153265     -0.910645      8.467052
  C       1.598973      0.583110      5.480726
  H       1.498375     -0.498199      5.231888
  H       2.619566      0.931373      5.208919
  O       0.562215      1.222065      4.678363
  C       0.780876      2.511389      4.250052
  O       1.778329      3.160443      4.534133
  C      -0.369767      2.995228      3.357118
  H      -1.206166      2.259061      3.443680
  H      -0.745906      3.975376      3.724523
  C      -2.135390     -1.411459      6.301649
  H      -2.822797     -2.244592      6.581991
  H      -1.098906     -1.816566      6.271286
  C      -2.497761     -0.807269      4.917012
  H      -1.711418     -0.072511      4.609217
  H      -3.451503     -0.233675      5.012106
  C      -2.591462     -1.920935      3.831835
  H      -3.555158     -2.464227      3.982336
  H      -1.723488     -2.609137      3.961444
  C      -2.559136     -1.374796      2.375355
  H      -1.664668     -0.715580      2.282932
  H      -3.480138     -0.781488      2.163507
  C      -2.453386     -2.529469      1.320727
  H      -3.061410     -3.377254      1.718491
  H      -1.394599     -2.870497      1.234789
  C      -2.983643     -2.165490     -0.091911
  H      -4.013337     -1.735053     -0.007215
  H      -3.086911     -3.116812     -0.667249
  C      -2.087257     -1.197753     -0.872272
  H      -1.356026     -0.628877     -0.266168
  C      -2.113154     -0.996304     -2.214331
  H      -1.355900     -0.315803     -2.654420
  C      -3.027395     -1.716638     -3.192659
  H      -3.666452     -2.444215     -2.651707
  H      -2.353952     -2.232845     -3.920748
  C      -3.973549     -0.765205     -4.005372
  H      -3.455614      0.167982     -4.323482
  H      -4.827825     -0.525175     -3.329415
  C      -4.590725     -1.506737     -5.225405
  H      -5.502141     -0.968282     -5.581165
  H      -4.916423     -2.523707     -4.896156
  C      -3.663630     -1.671886     -6.464743
  H      -2.737972     -2.242278     -6.196882
  H      -3.247409     -0.673157     -6.753050
  C      -4.384625     -2.416164     -7.606976
  H      -5.328188     -1.864145     -7.852487
  H      -4.759316     -3.389397     -7.203009
  C      -3.633262     -2.614749     -8.959035
  H      -2.554899     -2.886401     -8.810245
  H      -3.593522     -1.612293     -9.448050
  C      -4.364300     -3.673366     -9.808260
  H      -5.468226     -3.500896     -9.735213
  H      -4.258557     -4.672442     -9.314738
  C      -3.989052     -3.754578    -11.308411
  H      -4.775807     -4.240715    -11.926084
  H      -3.001816     -4.239542    -11.485005
  H      -3.856078     -2.722453    -11.714853
  C       0.136271      3.118173      1.885014
  H       1.183096      3.506541      1.927731
  H      -0.420914      3.907272      1.323801
  C       0.125303      1.783897      1.098486
  H      -0.882022      1.312267      1.183451
  H       0.788003      1.060030      1.639927
  C       0.656558      1.904310     -0.359657
  H       1.421534      2.716353     -0.363238
  H      -0.180387      2.201530     -1.038098
  C       1.265534      0.575328     -0.880472
  H       2.146188      0.334438     -0.235924
  H       0.518969     -0.249636     -0.786908
  C       1.758252      0.652732     -2.346647
  H       0.992687      1.142861     -2.994605
  H       2.689564      1.266226     -2.403458
  C       2.085043     -0.752889     -2.945544
  H       1.177567     -1.400432     -2.917618
  H       2.775830     -1.272966     -2.233016
  C       2.703676     -0.673386     -4.329567
  H       3.742890     -0.284369     -4.364876
  C       1.992632     -0.645196     -5.484933
  H       2.545261     -0.512470     -6.438048
  C       0.503276     -0.906156     -5.671480
  H      -0.040383     -1.106276     -4.723420
  H       0.447815     -1.860909     -6.260424
  C      -0.189893      0.210761     -6.506845
  H      -0.071741      1.197712     -6.000589
  H      -1.282523     -0.020674     -6.505488
  C       0.286422      0.289144     -7.986283
  H       1.110443      1.037594     -8.086631
  H       0.693837     -0.698844     -8.299737
  C      -0.863225      0.707157     -8.956263
  H      -1.588351     -0.134814     -8.925125
  H      -1.373482      1.612381     -8.551759
  C      -0.393252      0.912519    -10.426632
  H       0.368340      1.726881    -10.453818
  H      -1.293395      1.237419    -11.002209
  C       0.188251     -0.378718    -11.058004
  H       0.642911     -0.106003    -12.046010
  H       1.085842     -0.748604    -10.504155
  C      -0.812528     -1.542055    -11.255803
  H      -1.264259     -1.841564    -10.271240
  H      -1.705218     -1.206805    -11.837098
  C      -0.167342     -2.783626    -11.919542
  H       0.320594     -2.541896    -12.891832
  H       0.547252     -3.281720    -11.224985
  H      -0.940955     -3.549360    -12.165652
138
Coordinates from ORCA-job /wrk/rja7/qm_final_3_replicates/qm_final_1.1/qm/7/freq E -2722.546461669411
  N       5.746613      3.349782     11.996690
  C       4.432935      3.352282     11.174373
  H       4.002155      4.374453     11.226853
  H       3.763501      2.629544     11.700906
  C       6.242393      1.922927     12.289598
  H       6.209504      1.351230     11.345494
  H       7.271760      1.986768     12.690791
  H       5.534287      1.440530     12.987071
  C       5.445280      4.033060     13.336588
  H       5.054390      5.051072     13.158057
  H       4.707459      3.409994     13.876777
  H       6.371106      4.039201     13.944361
  C       6.862277      4.138005     11.315054
  H       6.506168      5.167738     11.118901
  H       7.119007      3.648786     10.358334
  H       7.748634      4.153476     11.976676
  C       4.521684      2.823914      9.713961
  H       3.528842      3.078947      9.260813
  H       5.295372      3.371508      9.118416
  P       3.665420      0.229829     10.176084
  O       3.264469      0.644692     11.597699
  O       4.269367     -1.091525      9.766163
  O       4.863944      1.445094      9.647651
  O       2.383745      0.693840      9.146870
  C       2.596239      0.456704      7.740707
  H       2.851357     -0.618538      7.570961
  H       3.450414      1.078814      7.370197
  C       1.335437      0.860538      6.955275
  H       1.093065      1.928704      7.153569
  O       0.211066      0.022657      7.351112
  C      -1.039066      0.615521      7.400081
  O      -1.229932      1.812182      7.292044
  C      -2.130250     -0.455706      7.526748
  H      -3.105409      0.079439      7.555458
  H      -2.030119     -0.995985      8.497114
  C       1.558685      0.683379      5.430320
  H       1.514117     -0.394370      5.159301
  H       2.542809      1.103411      5.127883
  O       0.462738      1.275876      4.667289
  C       0.585717      2.597002      4.289240
  O       1.540846      3.301431      4.575312
  C      -0.610275      3.016647      3.427319
  H      -1.391204      2.228373      3.490283
  H      -1.038021      3.954999      3.845692
  C      -2.100577     -1.490043      6.351363
  H      -2.763970     -2.344008      6.625190
  H      -1.064088     -1.890416      6.285594
  C      -2.501440     -0.904540      4.969994
  H      -1.740213     -0.154391      4.656269
  H      -3.470309     -0.356690      5.060692
  C      -2.597407     -2.010185      3.877674
  H      -3.532124     -2.596799      4.043237
  H      -1.721052     -2.691867      3.988292
  C      -2.612048     -1.462541      2.420091
  H      -1.745036     -0.772636      2.295754
  H      -3.547425     -0.880054      2.240434
  C      -2.524171     -2.614243      1.366746
  H      -3.099469     -3.484463      1.761717
  H      -1.462821     -2.942194      1.260013
  C      -3.078971     -2.257886     -0.041526
  H      -4.114584     -1.847322      0.064985
  H      -3.186150     -3.200852     -0.626261
  C      -2.203796     -1.272586     -0.821294
  H      -1.471300     -0.692636     -0.227813
  C      -2.235954     -1.054956     -2.159083
  H      -1.502519     -0.344169     -2.588484
  C      -3.128775     -1.761688     -3.167268
  H      -3.755564     -2.527739     -2.663722
  H      -2.466152     -2.266390     -3.910533
  C      -4.083462     -0.786654     -3.941590
  H      -3.555081      0.156459     -4.211132
  H      -4.929419     -0.545063     -3.257449
  C      -4.704272     -1.451242     -5.206164
  H      -5.605120     -0.877906     -5.533407
  H      -5.058961     -2.473245     -4.928207
  C      -3.757691     -1.569290     -6.431001
  H      -2.853386     -2.174067     -6.169278
  H      -3.333973     -0.564861     -6.674126
  C      -4.455292     -2.219060     -7.641837
  H      -5.376036     -1.634408     -7.894124
  H      -4.848642     -3.217036     -7.324426
  C      -3.622593     -2.349143     -8.943329
  H      -2.571216     -2.663849     -8.728883
  H      -3.524417     -1.329225     -9.389548
  C      -4.285847     -3.323034     -9.937152
  H      -5.385935     -3.118676     -9.964397
  H      -4.235879     -4.359250     -9.519814
  C      -3.742091     -3.295486    -11.384638
  H      -4.461931     -3.734705    -12.109525
  H      -2.758565     -3.807535    -11.477916
  H      -3.554999     -2.243272    -11.709387
  C      -0.141512      3.231601      1.954649
  H       0.873336      3.695974      1.987997
  H      -0.776677      3.988234      1.435336
  C      -0.065410      1.909918      1.151006
  H      -1.040795      1.371210      1.217442
  H       0.651949      1.231341      1.675629
  C       0.414914      2.072349     -0.318656
  H       1.138800      2.921311     -0.360769
  H      -0.447635      2.335958     -0.976580
  C       1.086356      0.777905     -0.848015
  H       1.980168      0.567069     -0.212148
  H       0.376192     -0.075644     -0.732480
  C       1.579263      0.858982     -2.315721
  H       0.799377      1.307978     -2.976650
  H       2.473138      1.524535     -2.374244
  C       1.981367     -0.542742     -2.871465
  H       1.094647     -1.217118     -2.841121
  H       2.694586     -1.015779     -2.151161
  C       2.609259     -0.490608     -4.252861
  H       3.648514     -0.102341     -4.280165
  C       1.949137     -0.555493     -5.429844
  H       2.536929     -0.448098     -6.362866
  C       0.477435     -0.864423     -5.647089
  H      -0.069803     -0.997562     -4.689170
  H       0.420101     -1.851418     -6.176237
  C      -0.236892      0.179433     -6.557738
  H      -0.135848      1.203427     -6.126872
  H      -1.326306     -0.054283     -6.543929
  C       0.281986      0.159896     -8.027391
  H       1.110534      0.897320     -8.152781
  H       0.708282     -0.845806     -8.247619
  C      -0.828423      0.464456     -9.074524
  H      -1.567885     -0.368009     -9.013120
  H      -1.368517      1.396763     -8.785241
  C      -0.304550      0.570495    -10.539296
  H       0.442181      1.397299    -10.599900
  H      -1.171047      0.844173    -11.188353
  C       0.357808     -0.725379    -11.087798
  H       0.828876     -0.489559    -12.075207
  H       1.236445     -1.009714    -10.458601
  C      -0.569789     -1.952611    -11.250517
  H      -1.034934     -2.224941    -10.272157
  H      -1.443974     -1.682746    -11.892174
  C       0.151773     -3.195479    -11.823651
  H       0.671257     -2.968435    -12.783140
  H       0.881020     -3.617568    -11.094661
  H      -0.577442     -4.010251    -12.041961
138
Coordinates from ORCA-job /wrk/rja7/qm_final_3_replicates/qm_final_1.1/qm/7/freq E -2722.554990321347
  N       5.427247      3.267858     12.117385
  C       4.266115      3.336016     11.083574
  H       3.933598      4.396826     11.038163
  H       3.461199      2.695714     11.517263
  C       5.747539      1.802365     12.494626
  H       5.869577      1.232354     11.554542
  H       6.675815      1.811793     13.101571
  H       4.875351      1.388808     13.035122
  C       4.964678      3.999763     13.376555
  H       4.705135      5.046563     13.122782
  H       4.079517      3.466866     13.777682
  H       5.778539      3.966321     14.129992
  C       6.692589      3.936759     11.592122
  H       6.453538      4.983715     11.313949
  H       7.051080      3.383628     10.703133
  H       7.464956      3.914230     12.387092
  C       4.560776      2.761049      9.675509
  H       3.643879      3.021459      9.083094
  H       5.422445      3.264297      9.168536
  P       3.578899      0.234866     10.247207
  O       3.135928      0.746668     11.624003
  O       4.134849     -1.127266      9.904427
  O       4.856375      1.372815      9.700119
  O       2.356333      0.712197      9.143025
  C       2.600118      0.395122      7.761876
  H       2.784615     -0.700394      7.635534
  H       3.507659      0.933557      7.383672
  C       1.404676      0.861241      6.914263
  H       1.213056      1.942704      7.090151
  O       0.215557      0.100378      7.292322
  C      -1.003455      0.762640      7.306142
  O      -1.135860      1.972923      7.190268
  C      -2.148375     -0.248564      7.463251
  H      -3.091448      0.341859      7.475514
  H      -2.059975     -0.762348      8.449501
  C       1.671417      0.638071      5.403194
  H       1.612390     -0.444232      5.152591
  H       2.672419      1.035625      5.125458
  O       0.617034      1.248732      4.589419
  C       0.761753      2.581044      4.243216
  O       1.715671      3.269511      4.577232
  C      -0.402799      3.037277      3.349966
  H      -1.202654      2.264329      3.364019
  H      -0.818162      3.971229      3.791974
  C      -2.157569     -1.326454      6.336889
  H      -2.888733     -2.127393      6.600972
  H      -1.154177     -1.810132      6.323521
  C      -2.445881     -0.781675      4.913123
  H      -1.626072     -0.086890      4.613286
  H      -3.384137     -0.174331      4.909827
  C      -2.545580     -1.928807      3.867198
  H      -3.510503     -2.473081      4.009530
  H      -1.725677     -2.662036      4.062341
  C      -2.452114     -1.469365      2.385445
  H      -1.535269     -0.848265      2.253840
  H      -3.321608     -0.811343      2.140065
  C      -2.437121     -2.682569      1.405679
  H      -3.127303     -3.468905      1.793832
  H      -1.415714     -3.134926      1.395572
  C      -2.842583     -2.352746     -0.058130
  H      -3.827420     -1.819448     -0.041253
  H      -3.027883     -3.306702     -0.605320
  C      -1.808217     -1.524325     -0.823228
  H      -1.032531     -1.007455     -0.223276
  C      -1.763844     -1.361563     -2.168749
  H      -0.949198     -0.746499     -2.600680
  C      -2.731330     -1.961684     -3.174800
  H      -3.457023     -2.630822     -2.662732
  H      -2.160058     -2.588078     -3.902861
  C      -3.546383     -0.883254     -3.965894
  H      -2.877465     -0.056716     -4.302822
  H      -4.289897     -0.438797     -3.262966
  C      -4.344426     -1.488454     -5.157345
  H      -5.155088     -0.781596     -5.458377
  H      -4.861787     -2.411181     -4.795884
  C      -3.514587     -1.840549     -6.419460
  H      -2.709698     -2.575574     -6.165676
  H      -2.972135     -0.935173     -6.777611
  C      -4.395097     -2.428261     -7.539138
  H      -5.235918     -1.723262     -7.759239
  H      -4.896217     -3.348113     -7.145712
  C      -3.681909     -2.745429     -8.875973
  H      -2.678814     -3.211942     -8.706720
  H      -3.467766     -1.786472     -9.410319
  C      -4.547882     -3.656227     -9.773724
  H      -5.600069     -3.274791     -9.761820
  H      -4.620589     -4.667183     -9.300748
  C      -4.079888     -3.795150    -11.243973
  H      -4.893956     -4.189237    -11.892902
  H      -3.198918     -4.467602    -11.337179
  H      -3.770961     -2.807896    -11.664066
  C       0.098396      3.301609      1.891979
  H       1.105777      3.778340      1.955981
  H      -0.548872      4.056913      1.385841
  C       0.203845      2.002819      1.056397
  H      -0.780076      1.474999      1.060391
  H       0.905502      1.306063      1.577643
  C       0.703181      2.205116     -0.402769
  H       1.460715      3.026234     -0.429624
  H      -0.140513      2.535760     -1.055936
  C       1.312019      0.901415     -0.981951
  H       2.182742      0.600384     -0.349194
  H       0.551681      0.087877     -0.898203
  C       1.809805      0.986443     -2.447815
  H       1.054732      1.492608     -3.096549
  H       2.732229      1.613792     -2.500065
  C       2.119453     -0.431538     -3.018141
  H       1.182555     -1.033486     -2.974167
  H       2.828444     -0.956725     -2.331452
  C       2.684108     -0.421362     -4.427724
  H       3.762081     -0.167645     -4.510403
  C       1.963796     -0.473094     -5.575971
  H       2.509374     -0.419316     -6.539380
  C       0.459072     -0.649978     -5.689390
  H      -0.010977     -0.696944     -4.683116
  H       0.238109     -1.630587     -6.185929
  C      -0.224890      0.454912     -6.556211
  H       0.013353      1.465913     -6.147339
  H      -1.328503      0.343077     -6.460055
  C       0.196325      0.371403     -8.057365
  H       1.107695      0.990639     -8.236790
  H       0.487710     -0.680839     -8.283649
  C      -0.916164      0.794710     -9.054820
  H      -1.775652      0.089597     -8.942208
  H      -1.309698      1.801845     -8.775777
  C      -0.464219      0.807187    -10.546570
  H       0.366574      1.543279    -10.670774
  H      -1.311997      1.174142    -11.175338
  C       0.030062     -0.558348    -11.112792
  H       0.446687     -0.393245    -12.137263
  H       0.905015     -0.914649    -10.514773
  C      -1.033195     -1.683452    -11.176337
  H      -1.456452     -1.885523    -10.163495
  H      -1.899784     -1.322896    -11.782804
  C      -0.501596     -3.012628    -11.765671
  H      -0.021364     -2.856666    -12.759574
  H       0.245699     -3.491439    -11.090522
  H      -1.329385     -3.748729    -11.900902
138
Coordinates from ORCA-job /wrk/rja7/qm_final_3_replicates/qm_final_1.1/qm/7/freq E -2722.560128178023
  N       5.673527      3.099145     12.104724
  C       4.387791      3.212986     11.216290
  H       4.053012      4.269401     11.315917
  H       3.649638      2.518765     11.675919
  C       6.115428      1.623878     12.288678
  H       6.204762      1.170851     11.285297
  H       7.086100      1.640735     12.826819
  H       5.322711      1.090954     12.843888
  C       5.326759      3.673577     13.473024
  H       5.003995      4.728118     13.356402
  H       4.503494      3.071245     13.905074
  H       6.222404      3.619660     14.126099
  C       6.827988      3.879093     11.491253
  H       6.510547      4.931370     11.339509
  H       7.096618      3.420137     10.520895
  H       7.695496      3.836287     12.180818
  C       4.524976      2.807506      9.725851
  H       3.542151      3.108405      9.273397
  H       5.311638      3.401588      9.196521
  P       3.597791      0.198990      9.988820
  O       3.173680      0.542433     11.421330
  O       4.188508     -1.097843      9.487114
  O       4.820769      1.433088      9.523207
  O       2.316147      0.725351      8.977580
  C       2.525962      0.543145      7.565147
  H       2.769504     -0.522999      7.334222
  H       3.388230      1.160081      7.200298
  C       1.273900      0.993415      6.790773
  H       1.006675      2.039642      7.056555
  O       0.162128      0.110197      7.158802
  C      -1.108098      0.650560      7.248588
  O      -1.354170      1.847391      7.175738
  C      -2.155024     -0.464927      7.422420
  H      -3.147742      0.036424      7.453776
  H      -1.980745     -0.959412      8.407297
  C       1.506603      0.883792      5.262261
  H       1.569993     -0.187087      4.967639
  H       2.441472      1.412988      4.971891
  O       0.368260      1.390018      4.489570
  C       0.301057      2.742039      4.196563
  O       1.144657      3.559417      4.536351
  C      -0.937833      3.034480      3.332871
  H      -1.608243      2.148872      3.333089
  H      -1.484994      3.880280      3.808369
  C      -2.085271     -1.557188      6.314353
  H      -2.737366     -2.418157      6.597567
  H      -1.046169     -1.959904      6.288605
  C      -2.438977     -1.052199      4.893083
  H      -1.711152     -0.257844      4.607863
  H      -3.447750     -0.569876      4.889041
  C      -2.398323     -2.171770      3.817060
  H      -3.265060     -2.862632      3.960933
  H      -1.487089     -2.801068      3.972059
  C      -2.404966     -1.645724      2.355947
  H      -1.602473     -0.879103      2.244049
  H      -3.368755     -1.112556      2.160735
  C      -2.234701     -2.776602      1.301199
  H      -2.780983     -3.687123      1.645035
  H      -1.158803     -3.074342      1.242700
  C      -2.725213     -2.400747     -0.125157
  H      -3.779722     -2.029696     -0.050848
  H      -2.784354     -3.322880     -0.750117
  C      -1.842045     -1.363811     -0.818074
  H      -1.160882     -0.782931     -0.167158
  C      -1.818603     -1.070286     -2.143879
  H      -1.120597     -0.283423     -2.490954
  C      -2.677603     -1.688875     -3.231020
  H      -3.301541     -2.510360     -2.812606
  H      -2.033716     -2.159617     -4.014821
  C      -3.630290     -0.642719     -3.896189
  H      -3.058714      0.269107     -4.193597
  H      -4.357833     -0.313758     -3.116436
  C      -4.458755     -1.206792     -5.083974
  H      -5.333008     -0.537001     -5.269680
  H      -4.898441     -2.182078     -4.757860
  C      -3.709968     -1.422655     -6.426129
  H      -2.830254     -2.097001     -6.279648
  H      -3.293199     -0.454745     -6.796271
  C      -4.654064     -2.041079     -7.480202
  H      -5.576128     -1.413914     -7.565170
  H      -5.012469     -3.026600     -7.090327
  C      -4.076881     -2.227682     -8.904933
  H      -3.016798     -2.584550     -8.876080
  H      -4.041339     -1.241743     -9.430428
  C      -4.945894     -3.213063     -9.724999
  H      -6.021762     -2.943216     -9.581385
  H      -4.845483     -4.234971     -9.282019
  C      -4.637954     -3.278834    -11.240897
  H      -5.466733     -3.777915    -11.793293
  H      -3.707282     -3.851926    -11.445646
  H      -4.508674     -2.262176    -11.679271
  C      -0.525398      3.397955      1.869565
  H       0.370005      4.062942      1.911490
  H      -1.324391      4.003390      1.379925
  C      -0.163075      2.133518      1.050573
  H      -1.031275      1.431268      1.048563
  H       0.656720      1.597450      1.587795
  C       0.289456      2.384146     -0.415221
  H       0.897820      3.320211     -0.477448
  H      -0.599096      2.560510     -1.069593
  C       1.119410      1.192854     -0.960415
  H       2.014683      1.053519     -0.305789
  H       0.512549      0.259459     -0.872166
  C       1.607995      1.314288     -2.425851
  H       0.777557      1.648306     -3.093115
  H       2.394397      2.104202     -2.503141
  C       2.199040     -0.039023     -2.927250
  H       1.393333     -0.805479     -2.862061
  H       2.993970     -0.376411     -2.218806
  C       2.762113      0.006074     -4.337442
  H       3.803589      0.379895     -4.427991
  C       2.087193     -0.236692     -5.490745
  H       2.650855     -0.153183     -6.441553
  C       0.618876     -0.604326     -5.635587
  H       0.115075     -0.600898     -4.644686
  H       0.523020     -1.645820     -6.036580
  C      -0.149818      0.324974     -6.628043
  H      -0.033099      1.393344     -6.324916
  H      -1.242873      0.109527     -6.555951
  C       0.362543      0.139086     -8.090095
  H       1.224368      0.820990     -8.284575
  H       0.769549     -0.895729     -8.182034
  C      -0.707439      0.324154     -9.193279
  H      -1.525083     -0.419933     -9.028713
  H      -1.196476      1.324495     -9.098318
  C      -0.149604      0.166254    -10.636690
  H       0.609491      0.965474    -10.822266
  H      -0.972316      0.346814    -11.371355
  C       0.541763     -1.194921    -10.955282
  H       0.984924     -1.144508    -11.979489
  H       1.410088     -1.331061    -10.263890
  C      -0.369983     -2.444949    -10.855002
  H      -0.813390     -2.536071     -9.833718
  H      -1.234260     -2.304763    -11.548710
  C       0.355301     -3.768248    -11.203328
  H       0.861443     -3.707521    -12.195195
  H       1.139168     -4.012598    -10.447894
  H      -0.356205     -4.626980    -11.228537
138
Coordinates from ORCA-job /wrk/rja7/qm_final_3_replicates/qm_final_1.1/qm/7/freq E -2722.566646041403
  N       5.553345      3.054291     12.208975
  C       4.327631      3.285827     11.266781
  H       4.049392      4.357114     11.386527
  H       3.525743      2.618669     11.656715
  C       5.906870      1.553556     12.320211
  H       6.069445      1.166596     11.297068
  H       6.822662      1.468535     12.943019
  H       5.044366      1.015948     12.757824
  C       5.164245      3.566190     13.591619
  H       4.915588      4.645156     13.525608
  H       4.281891      2.994085     13.942200
  H       6.015617      3.407198     14.286785
  C       6.776960      3.808039     11.708344
  H       6.522322      4.882798     11.595978
  H       7.081820      3.388409     10.730368
  H       7.601833      3.687923     12.441137
  C       4.531932      2.918022      9.776353
  H       3.571071      3.221496      9.281205
  H       5.338873      3.535696      9.306401
  P       3.656805      0.307293     10.019391
  O       3.194536      0.659228     11.438268
  O       4.284661     -0.989973      9.563830
  O       4.862376      1.553373      9.573156
  O       2.401049      0.801951      8.972322
  C       2.631993      0.577821      7.567467
  H       2.858320     -0.498008      7.367812
  H       3.511915      1.171010      7.207347
  C       1.392566      1.030056      6.775138
  H       1.131766      2.080365      7.031099
  O       0.272737      0.154364      7.136004
  C      -0.995121      0.696415      7.225442
  O      -1.244316      1.892855      7.147287
  C      -2.038757     -0.418385      7.423700
  H      -3.033562      0.077932      7.468345
  H      -1.850555     -0.901311      8.411996
  C       1.642740      0.911999      5.252601
  H       1.724008     -0.160511      4.966415
  H       2.573867      1.452253      4.968729
  O       0.509297      1.404518      4.470825
  C       0.453946      2.752543      4.170196
  O       1.318083      3.557230      4.487671
  C      -0.789547      3.063624      3.321689
  H      -1.490029      2.201784      3.364687
  H      -1.301237      3.942512      3.775660
  C      -1.997536     -1.513726      6.315533
  H      -2.668690     -2.354145      6.616508
  H      -0.968005     -1.940038      6.281880
  C      -2.371155     -0.997655      4.902419
  H      -1.647232     -0.202545      4.606525
  H      -3.377632     -0.510877      4.928749
  C      -2.354481     -2.107657      3.817829
  H      -3.205306     -2.811793      3.993120
  H      -1.426790     -2.723047      3.928656
  C      -2.438812     -1.566773      2.364765
  H      -1.650960     -0.789089      2.225434
  H      -3.418026     -1.044940      2.221519
  C      -2.293049     -2.677458      1.284920
  H      -2.829114     -3.592171      1.634716
  H      -1.218553     -2.972091      1.194586
  C      -2.824960     -2.289170     -0.124193
  H      -3.882097     -1.932344     -0.023517
  H      -2.888296     -3.208856     -0.753736
  C      -1.982282     -1.230790     -0.835148
  H      -1.303223     -0.634297     -0.194776
  C      -1.982308     -0.947745     -2.162726
  H      -1.308070     -0.144866     -2.520990
  C      -2.836141     -1.597634     -3.235262
  H      -3.443049     -2.426556     -2.805462
  H      -2.175244     -2.061751     -4.009599
  C      -3.801309     -0.583400     -3.926501
  H      -3.233242      0.317005     -4.265035
  H      -4.526001     -0.226340     -3.155832
  C      -4.612618     -1.194240     -5.101059
  H      -5.475461     -0.526492     -5.340289
  H      -5.067214     -2.154676     -4.750167
  C      -3.819603     -1.470441     -6.407183
  H      -2.942340     -2.129195     -6.195996
  H      -3.387162     -0.515311     -6.796702
  C      -4.703997     -2.144860     -7.483875
  H      -5.626468     -1.532632     -7.642325
  H      -5.070989     -3.120302     -7.077538
  C      -4.029660     -2.375354     -8.864113
  H      -2.974178     -2.723098     -8.741464
  H      -3.956099     -1.402308     -9.408391
  C      -4.821056     -3.392374     -9.726642
  H      -5.906533     -3.125176     -9.696226
  H      -4.758846     -4.398939     -9.243453
  C      -4.361114     -3.503302    -11.202439
  H      -5.115216     -4.042608    -11.820781
  H      -3.396124     -4.053784    -11.295849
  H      -4.213295     -2.497370    -11.660081
  C      -0.394835      3.358627      1.839132
  H       0.492339      4.036682      1.838350
  H      -1.210597      3.926769      1.332382
  C      -0.030013      2.064605      1.065787
  H      -0.894534      1.358828      1.102590
  H       0.797940      1.550792      1.612904
  C       0.406588      2.272863     -0.411027
  H       1.017878      3.205355     -0.496981
  H      -0.493610      2.439248     -1.052579
  C       1.219996      1.070732     -0.958081
  H       2.129866      0.941435     -0.322061
  H       0.620969      0.133801     -0.845379
  C       1.656406      1.195062     -2.440832
  H       0.789061      1.492491     -3.078350
  H       2.406287      2.017357     -2.547165
  C       2.288162     -0.125725     -2.982321
  H       1.527135     -0.936630     -2.907283
  H       3.117193     -0.429193     -2.298142
  C       2.819002     -0.017908     -4.403832
  H       3.843486      0.396016     -4.510001
  C       2.132330     -0.280455     -5.546474
  H       2.669207     -0.143150     -6.506845
  C       0.685831     -0.734682     -5.672621
  H       0.199258     -0.793242     -4.674795
  H       0.654880     -1.771364     -6.096960
  C      -0.157679      0.176277     -6.622109
  H      -0.113833      1.234874     -6.268734
  H      -1.229614     -0.125983     -6.543621
  C       0.309256      0.100419     -8.108764
  H       1.127931      0.836795     -8.292827
  H       0.760633     -0.904792     -8.285003
  C      -0.818439      0.322098     -9.149217
  H      -1.598989     -0.458942     -8.994309
  H      -1.330975      1.296702     -8.959001
  C      -0.335891      0.284709    -10.626711
  H       0.373718      1.131136    -10.799865
  H      -1.210583      0.472799    -11.296335
  C       0.376771     -1.028695    -11.063553
  H       0.732980     -0.911307    -12.115907
  H       1.303646     -1.168399    -10.455173
  C      -0.488492     -2.311091    -10.953273
  H      -0.839785     -2.456320     -9.901828
  H      -1.416189     -2.179047    -11.563040
  C       0.254569     -3.589488    -11.415970
  H       0.660639     -3.479023    -12.448961
  H       1.114303     -3.819888    -10.742872
  H      -0.417809     -4.478423    -11.409347
138
Coordinates from ORCA-job /wrk/rja7/qm_final_3_replicates/qm_final_1.1/qm/7/freq E -2722.562186071758
  N       5.411937      3.205170     12.259452
  C       4.220324      3.343968     11.258964
  H       3.979242      4.430821     11.233156
  H       3.385855      2.757602     11.703954
  C       5.748537      1.733498     12.570912
  H       5.975960      1.226980     11.615210
  H       6.622291      1.723491     13.256818
  H       4.859257      1.244998     13.013980
  C       4.986357      3.884665     13.555494
  H       4.760520      4.951496     13.352814
  H       4.082415      3.372263     13.940475
  H       5.810385      3.796043     14.294225
  C       6.660391      3.884456     11.717579
  H       6.426168      4.939600     11.464039
  H       6.996495      3.345346     10.811579
  H       7.457877      3.851242     12.488865
  C       4.459479      2.793864      9.830907
  H       3.536179      3.085946      9.262491
  H       5.311938      3.325865      9.336672
  P       3.413751      0.279566     10.240862
  O       2.859136      0.787923     11.574814
  O       3.985465     -1.091613      9.971503
  O       4.722328      1.400869      9.777651
  O       2.296475      0.765422      9.056164
  C       2.601666      0.396612      7.699638
  H       2.722162     -0.709311      7.597401
  H       3.563218      0.866941      7.368524
  C       1.467097      0.919283      6.804436
  H       1.305299      2.003553      6.991528
  O       0.242298      0.185285      7.133280
  C      -0.958430      0.860567      7.125297
  O      -1.078082      2.069377      6.977393
  C      -2.117738     -0.130608      7.325708
  H      -3.057727      0.463770      7.305615
  H      -2.022525     -0.577127      8.344256
  C       1.785246      0.702647      5.311202
  H       1.783106     -0.383719      5.068524
  H       2.774819      1.146710      5.058946
  O       0.743863      1.278856      4.472559
  C       0.867864      2.616931      4.162772
  O       1.820933      3.304243      4.498396
  C      -0.299340      3.083299      3.286564
  H      -1.116659      2.330749      3.335456
  H      -0.689473      4.036826      3.708839
  C      -2.158138     -1.267736      6.261400
  H      -2.939624     -2.004406      6.568759
  H      -1.187191     -1.814658      6.290084
  C      -2.425983     -0.768660      4.817360
  H      -1.614386     -0.066605      4.510274
  H      -3.372259     -0.173034      4.798979
  C      -2.499626     -1.918074      3.781566
  H      -3.418433     -2.527711      3.970852
  H      -1.637252     -2.614658      3.935113
  C      -2.519420     -1.434775      2.307295
  H      -1.654994     -0.748494      2.141422
  H      -3.437781     -0.820345      2.131222
  C      -2.470320     -2.600864      1.280650
  H      -3.115033     -3.432294      1.654736
  H      -1.432326     -3.013576      1.241651
  C      -2.914717     -2.235425     -0.164610
  H      -3.932227     -1.768797     -0.120556
  H      -3.052992     -3.179660     -0.744201
  C      -1.964919     -1.299893     -0.911205
  H      -1.248927     -0.725213     -0.290135
  C      -1.916309     -1.113596     -2.251475
  H      -1.172187     -0.395017     -2.651439
  C      -2.809581     -1.771788     -3.285283
  H      -3.483488     -2.518352     -2.805574
  H      -2.168064     -2.340177     -4.004684
  C      -3.682851     -0.757455     -4.084188
  H      -3.036691      0.057768     -4.493924
  H      -4.388357     -0.265266     -3.372268
  C      -4.493073     -1.421442     -5.227750
  H      -5.290628     -0.720554     -5.574873
  H      -5.034922     -2.312893     -4.821354
  C      -3.646197     -1.865178     -6.449221
  H      -2.825742     -2.546582     -6.118998
  H      -3.131409     -0.970447     -6.879860
  C      -4.472776     -2.590815     -7.541372
  H      -5.345403     -1.954549     -7.831837
  H      -4.920584     -3.515527     -7.099619
  C      -3.665593     -2.960223     -8.818220
  H      -2.654049     -3.344977     -8.539722
  H      -3.474462     -2.031775     -9.410153
  C      -4.390043     -4.002003     -9.711643
  H      -5.453440     -3.687927     -9.854950
  H      -4.445428     -4.973528     -9.161386
  C      -3.723020     -4.232372    -11.092222
  H      -4.393995     -4.795177    -11.781760
  H      -2.771473     -4.811806    -11.005135
  H      -3.473869     -3.264599    -11.587853
  C       0.162664      3.277880      1.809214
  H       1.123631      3.847123      1.808552
  H      -0.575165      3.916716      1.268223
  C       0.380878      1.927478      1.077673
  H      -0.567638      1.339490      1.112086
  H       1.123721      1.323666      1.653381
  C       0.863624      2.051237     -0.391596
  H       1.598837      2.889963     -0.476432
  H      -0.001874      2.335129     -1.039746
  C       1.500090      0.747120     -0.937589
  H       2.382956      0.488660     -0.303244
  H       0.782069     -0.100793     -0.823369
  C       1.923972      0.840798     -2.426758
  H       1.084414      1.257167     -3.035416
  H       2.764031      1.571586     -2.532116
  C       2.370286     -0.524231     -3.041159
  H       1.521702     -1.245999     -2.982756
  H       3.173269     -0.951727     -2.393550
  C       2.882580     -0.395174     -4.469639
  H       3.949373     -0.112347     -4.583103
  C       2.137771     -0.512574     -5.596754
  H       2.650512     -0.368007     -6.569163
  C       0.647949     -0.808014     -5.678282
  H       0.206276     -0.900825     -4.661467
  H       0.492852     -1.800796     -6.174672
  C      -0.146997      0.266340     -6.489171
  H       0.026594      1.268781     -6.027981
  H      -1.234749      0.055371     -6.366219
  C       0.179024      0.325727     -8.012502
  H       1.062769      0.984643     -8.190879
  H       0.483666     -0.689608     -8.361791
  C      -1.006446      0.842368     -8.873098
  H      -1.870236      0.153967     -8.732040
  H      -1.346337      1.832526     -8.482196
  C      -0.698643      0.991699    -10.390248
  H       0.097237      1.765214    -10.526801
  H      -1.608879      1.395682    -10.896700
  C      -0.254546     -0.311696    -11.111754
  H      -0.020411     -0.066125    -12.175940
  H       0.708339     -0.676041    -10.679390
  C      -1.296778     -1.460108    -11.070817
  H      -1.528086     -1.727230    -10.011205
  H      -2.264982     -1.107116    -11.506065
  C      -0.823223     -2.729981    -11.821922
  H      -0.546183     -2.506204    -12.879191
  H       0.073610     -3.175055    -11.328777
  H      -1.613705     -3.513909    -11.843439
138
Coordinates from ORCA-job /wrk/rja7/qm_final_3_replicates/qm_final_1.1/qm/7/freq E -2722.571145708442
  N       5.356531      3.274395     12.284911
  C       4.140411      3.364583     11.307799
  H       3.801231      4.423767     11.352775
  H       3.372052      2.676724     11.724348
  C       5.838860      1.824537     12.484854
  H       6.124355      1.420837     11.496422
  H       6.703330      1.844722     13.181588
  H       5.001493      1.213592     12.873311
  C       4.886760      3.814342     13.630879
  H       4.559716      4.866795     13.508687
  H       4.040047      3.193365     13.983956
  H       5.725341      3.749431     14.355042
  C       6.523231      4.112246     11.784226
  H       6.182058      5.153275     11.606826
  H       6.899881      3.674220     10.840779
  H       7.330413      4.106687     12.545580
  C       4.402482      2.927969      9.843444
  H       3.446562      3.165646      9.304655
  H       5.192370      3.567500      9.373501
  P       3.617490      0.304936     10.120524
  O       3.050765      0.683005     11.492991
  O       4.317860     -0.986800      9.768848
  O       4.799393      1.573360      9.706988
  O       2.423801      0.724164      8.986136
  C       2.722553      0.437353      7.605351
  H       2.926960     -0.650696      7.456245
  H       3.635509      0.995388      7.273403
  C       1.524614      0.895018      6.754108
  H       1.268768      1.950172      6.994760
  O       0.382478      0.035219      7.080808
  C      -0.874040      0.594445      7.137400
  O      -1.105937      1.792535      7.036651
  C      -1.935571     -0.501045      7.347882
  H      -2.921404      0.012816      7.385411
  H      -1.760973     -0.969189      8.345917
  C       1.826262      0.771432      5.243793
  H       1.927607     -0.300875      4.962909
  H       2.759936      1.322662      4.990249
  O       0.718140      1.263471      4.432263
  C       0.679294      2.615785      4.154792
  O       1.551883      3.403302      4.491251
  C      -0.556909      2.964874      3.314698
  H      -1.284608      2.127991      3.368401
  H      -1.037207      3.862809      3.764851
  C      -1.931809     -1.606314      6.248862
  H      -2.651698     -2.402672      6.557591
  H      -0.927054     -2.088672      6.226472
  C      -2.274499     -1.071467      4.836331
  H      -1.515686     -0.310790      4.541375
  H      -3.255522     -0.536104      4.873252
  C      -2.321800     -2.169009      3.745386
  H      -3.192846     -2.844626      3.936330
  H      -1.414613     -2.819420      3.823791
  C      -2.426818     -1.597916      2.306661
  H      -1.601999     -0.861331      2.155761
  H      -3.379199     -1.019110      2.208600
  C      -2.377353     -2.681512      1.194683
  H      -2.987087     -3.556905      1.524423
  H      -1.332143     -3.063325      1.089681
  C      -2.878677     -2.209175     -0.199479
  H      -3.902660     -1.769685     -0.084480
  H      -3.018772     -3.105296     -0.850350
  C      -1.960346     -1.204994     -0.895103
  H      -1.234240     -0.675387     -0.247203
  C      -1.946057     -0.908868     -2.217366
  H      -1.216722     -0.153424     -2.574104
  C      -2.863369     -1.482357     -3.279241
  H      -3.526797     -2.266181     -2.846878
  H      -2.242555     -1.989996     -4.059480
  C      -3.747502     -0.397543     -3.965747
  H      -3.101224      0.435157     -4.338233
  H      -4.415444      0.048707     -3.190279
  C      -4.621463     -0.956281     -5.117494
  H      -5.412050     -0.212314     -5.380475
  H      -5.169608     -1.859499     -4.747666
  C      -3.847153     -1.345681     -6.403689
  H      -3.026301     -2.060643     -6.156152
  H      -3.333479     -0.441126     -6.814407
  C      -4.756978     -1.996683     -7.475718
  H      -5.630730     -1.328948     -7.678153
  H      -5.195714     -2.932541     -7.048911
  C      -4.048328     -2.322687     -8.820202
  H      -3.032933     -2.747967     -8.632530
  H      -3.868439     -1.373318     -9.381376
  C      -4.870618     -3.303801     -9.696598
  H      -5.928721     -2.947792     -9.754069
  H      -4.922700     -4.292589     -9.177828
  C      -4.311066     -3.507475    -11.126748
  H      -5.044100     -4.033440    -11.781333
  H      -3.371431     -4.111240    -11.125758
  H      -4.074374     -2.531436    -11.610804
  C      -0.168894      3.231561      1.826618
  H       0.709397      3.920922      1.801588
  H      -1.001425      3.772324      1.317276
  C       0.200193      1.924349      1.075432
  H      -0.665492      1.221261      1.127300
  H       1.027087      1.418485      1.630309
  C       0.629240      2.105945     -0.405579
  H       1.262685      3.022464     -0.504055
  H      -0.276460      2.291305     -1.034158
  C       1.409112      0.884517     -0.956947
  H       2.322967      0.745835     -0.329054
  H       0.801893     -0.044956     -0.831088
  C       1.808996      1.000841     -2.449883
  H       0.919443      1.282205     -3.064497
  H       2.542022      1.834846     -2.582845
  C       2.456856     -0.306311     -3.008839
  H       1.727370     -1.145095     -2.917028
  H       3.311403     -0.575835     -2.342626
  C       2.955177     -0.175508     -4.441718
  H       3.970463      0.252296     -4.570937
  C       2.253050     -0.463359     -5.567101
  H       2.758846     -0.289281     -6.538248
  C       0.826569     -0.982769     -5.663229
  H       0.378771     -1.105135     -4.652219
  H       0.837751     -2.004504     -6.123199
  C      -0.104639     -0.079823     -6.532844
  H      -0.109212      0.957822     -6.119553
  H      -1.148723     -0.456502     -6.422427
  C       0.260344     -0.039669     -8.047102
  H       1.045015      0.733253     -8.230931
  H       0.718281     -1.015011     -8.338295
  C      -0.955534      0.247361     -8.967957
  H      -1.710490     -0.556713     -8.812683
  H      -1.456418      1.192433     -8.644423
  C      -0.613889      0.369187    -10.479886
  H       0.053573      1.253369    -10.631254
  H      -1.556343      0.596951    -11.034926
  C       0.071779     -0.873112    -11.116993
  H       0.294050     -0.642453    -12.186964
  H       1.068603     -1.039644    -10.642239
  C      -0.744841     -2.190256    -11.037027
  H      -0.957737     -2.445433     -9.970056
  H      -1.746449     -2.046172    -11.513365
  C      -0.017099     -3.382269    -11.708368
  H       0.241897     -3.164098    -12.771347
  H       0.934192     -3.618768    -11.174854
  H      -0.640487     -4.303945    -11.700340
138
Coordinates from ORCA-job /wrk/rja7/qm_final_3_replicates/qm_final_1.1/qm/7/freq E -2722.560306900839
  N       5.797059      2.833338     12.219748
  C       4.600108      3.194109     11.271940
  H       4.459723      4.293163     11.374372
  H       3.730078      2.635106     11.679627
  C       6.000177      1.307619     12.324701
  H       6.208902      0.919646     11.311611
  H       6.848036      1.126846     13.017676
  H       5.057397      0.849056     12.679137
  C       5.449032      3.368199     13.604290
  H       5.322621      4.468351     13.550762
  H       4.503545      2.896594     13.935822
  H       6.267714      3.110546     14.306728
  C       7.089880      3.474164     11.738896
  H       6.937295      4.566942     11.626578
  H       7.372632      3.030759     10.765762
  H       7.889902      3.281317     12.482514
  C       4.749514      2.792215      9.779479
  H       3.825519      3.199191      9.287885
  H       5.614289      3.321204      9.304616
  P       3.624173      0.264290     10.006569
  O       3.192230      0.645039     11.426563
  O       4.151789     -1.077639      9.557217
  O       4.934055      1.401044      9.571595
  O       2.402476      0.840498      8.963802
  C       2.592286      0.549089      7.562773
  H       2.670803     -0.552817      7.395020
  H       3.545972      1.009753      7.196547
  C       1.422298      1.134878      6.741420
  H       1.282486      2.209486      6.991255
  O       0.196921      0.399608      7.076944
  C      -1.001800      1.076470      7.139746
  O      -1.125671      2.287904      7.020299
  C      -2.150794      0.075979      7.369794
  H      -3.092238      0.667586      7.404190
  H      -2.000733     -0.385995      8.374430
  C       1.661321      0.980466      5.223958
  H       1.653375     -0.095809      4.941863
  H       2.631851      1.442674      4.935592
  O       0.566876      1.572347      4.458603
  C       0.634879      2.926928      4.194679
  O       1.585250      3.631273      4.503917
  C      -0.591558      3.393942      3.400123
  H      -1.400148      2.635183      3.478043
  H      -0.960858      4.334766      3.866934
  C      -2.240837     -1.055619      6.297315
  H      -3.010102     -1.791648      6.634840
  H      -1.270051     -1.603583      6.285277
  C      -2.581071     -0.581393      4.856705
  H      -1.801617      0.135187      4.506272
  H      -3.542314     -0.010178      4.865692
  C      -2.662105     -1.755642      3.843324
  H      -3.532758     -2.409729      4.099369
  H      -1.756795     -2.401192      3.964690
  C      -2.790417     -1.328066      2.353574
  H      -1.975912     -0.603341      2.114583
  H      -3.746967     -0.767025      2.206280
  C      -2.714047     -2.533466      1.371304
  H      -3.306961     -3.380157      1.793615
  H      -1.655791     -2.891974      1.332295
  C      -3.186649     -2.274496     -0.091403
  H      -4.231811     -1.870685     -0.075683
  H      -3.265249     -3.253036     -0.621015
  C      -2.290066     -1.310008     -0.864796
  H      -1.654490     -0.657868     -0.239188
  C      -2.176135     -1.160897     -2.212466
  H      -1.469196     -0.388317     -2.576847
  C      -2.917344     -1.904620     -3.313056
  H      -3.558541     -2.708750     -2.885965
  H      -2.168823     -2.417738     -3.966621
  C      -3.810918     -0.975518     -4.193782
  H      -3.201598     -0.125246     -4.587438
  H      -4.584265     -0.518392     -3.531208
  C      -4.507404     -1.704077     -5.378797
  H      -5.323034     -1.057257     -5.784169
  H      -5.020104     -2.618906     -4.989218
  C      -3.562987     -2.096847     -6.550386
  H      -2.703321     -2.694997     -6.162009
  H      -3.115245     -1.169788     -6.981703
  C      -4.260602     -2.914874     -7.667478
  H      -5.174665     -2.373004     -8.014803
  H      -4.637036     -3.871778     -7.227758
  C      -3.362462     -3.220156     -8.901345
  H      -2.330973     -3.501232     -8.571270
  H      -3.236047     -2.288747     -9.504787
  C      -3.944745     -4.341987     -9.804849
  H      -5.021103     -4.123220    -10.012193
  H      -3.944543     -5.300803     -9.230169
  C      -3.192640     -4.550879    -11.141274
  H      -3.767882     -5.210461    -11.831269
  H      -2.195240     -5.023678    -10.985412
  H      -3.025109     -3.583677    -11.669025
  C      -0.215429      3.622700      1.903415
  H       0.721263      4.228375      1.858364
  H      -1.004345      4.234787      1.405507
  C       0.004557      2.280020      1.159687
  H      -0.932939      1.677052      1.222138
  H       0.775008      1.691085      1.712590
  C       0.453040      2.394973     -0.320251
  H       1.202963      3.217791     -0.427253
  H      -0.415010      2.694474     -0.957622
  C       1.058788      1.068936     -0.844715
  H       1.933325      0.806984     -0.199832
  H       0.317186      0.241652     -0.713629
  C       1.519714      1.098133     -2.323015
  H       0.704736      1.496680     -2.974645
  H       2.372173      1.811728     -2.440958
  C       1.979192     -0.305745     -2.828670
  H       1.122025     -1.014792     -2.755099
  H       2.756601     -0.689291     -2.124658
  C       2.555873     -0.285899     -4.236718
  H       3.635872     -0.044431     -4.310587
  C       1.878480     -0.462476     -5.397374
  H       2.457447     -0.384221     -6.339736
  C       0.391932     -0.723082     -5.569058
  H      -0.119999     -0.764384     -4.581776
  H       0.241098     -1.727204     -6.041991
  C      -0.315542      0.339438     -6.464427
  H      -0.150850      1.354761     -6.029698
  H      -1.414417      0.161723     -6.418023
  C       0.156157      0.333254     -7.948490
  H       1.098601      0.924337     -8.046213
  H       0.420888     -0.710258     -8.243983
  C      -0.892337      0.899480     -8.941426
  H      -1.821577      0.285771     -8.873441
  H      -1.192105      1.927317     -8.620000
  C      -0.403979      0.976519    -10.416265
  H       0.457338      1.686718    -10.472878
  H      -1.215488      1.430458    -11.036050
  C       0.041405     -0.368779    -11.060015
  H       0.409195     -0.158541    -12.093514
  H       0.925022     -0.773996    -10.509256
  C      -1.054882     -1.464029    -11.136476
  H      -1.437646     -1.705517    -10.115990
  H      -1.935922     -1.068805    -11.697761
  C      -0.551137     -2.764318    -11.810984
  H      -0.138807     -2.565843    -12.828257
  H       0.263025     -3.236746    -11.211759
  H      -1.365187     -3.516327    -11.917987
138
Coordinates from ORCA-job /wrk/rja7/qm_final_3_replicates/qm_final_1.1/qm/7/freq E -2722.571341890456
  N       5.647341      3.028319     12.204858
  C       4.473609      3.329480     11.210858
  H       4.276399      4.421234     11.298703
  H       3.618069      2.730966     11.593588
  C       5.907289      1.510837     12.319952
  H       6.174132      1.130319     11.317132
  H       6.730402      1.367536     13.050683
  H       4.965102      1.021116     12.633568
  C       5.223495      3.548828     13.574117
  H       5.052181      4.642782     13.514084
  H       4.285750      3.037535     13.867806
  H       6.024369      3.329844     14.309503
  C       6.927513      3.725847     11.771834
  H       6.727182      4.810064     11.651345
  H       7.269194      3.295091     10.811370
  H       7.704875      3.570385     12.547755
  C       4.696774      2.926043      9.730135
  H       3.764590      3.276716      9.211079
  H       5.544351      3.493703      9.268985
  P       3.715841      0.343739      9.987951
  O       3.246291      0.729071     11.395648
  O       4.320975     -0.974054      9.565247
  O       4.966061      1.545880      9.546342
  O       2.479760      0.844975      8.921739
  C       2.682177      0.547338      7.525326
  H       2.811067     -0.551543      7.367744
  H       3.611032      1.046902      7.145921
  C       1.483306      1.075670      6.709565
  H       1.299569      2.144403      6.956158
  O       0.294591      0.290418      7.062917
  C      -0.930275      0.918077      7.132897
  O      -1.104904      2.121637      7.001244
  C      -2.035081     -0.124467      7.387360
  H      -2.999621      0.428851      7.424555
  H      -1.854728     -0.568623      8.394900
  C       1.712110      0.921807      5.189587
  H       1.754288     -0.155161      4.913964
  H       2.655459      1.428855      4.887968
  O       0.582801      1.459128      4.430701
  C       0.589861      2.818087      4.164772
  O       1.511510      3.562481      4.467734
  C      -0.657910      3.231959      3.373725
  H      -1.436621      2.443564      3.458397
  H      -1.059530      4.159423      3.840438
  C      -2.087032     -1.269100      6.327597
  H      -2.819561     -2.038764      6.671629
  H      -1.094975     -1.777380      6.305226
  C      -2.462999     -0.807193      4.892441
  H      -1.720217     -0.053332      4.541833
  H      -3.450229     -0.282373      4.913887
  C      -2.506693     -1.966257      3.859558
  H      -3.339870     -2.668731      4.111968
  H      -1.571820     -2.572839      3.950417
  C      -2.682079     -1.496900      2.388320
  H      -1.907828     -0.724621      2.164625
  H      -3.666957     -0.977934      2.279174
  C      -2.575227     -2.654426      1.354334
  H      -3.122016     -3.548282      1.740356
  H      -1.504343     -2.966907      1.276469
  C      -3.091033     -2.325580     -0.078067
  H      -4.151907     -1.970019     -0.009917
  H      -3.141645     -3.267587     -0.672387
  C      -2.253104     -1.271171     -0.799055
  H      -1.637025     -0.631986     -0.142844
  C      -2.176025     -1.030164     -2.135933
  H      -1.516610     -0.202674     -2.468009
  C      -2.908669     -1.746450     -3.259854
  H      -3.493161     -2.606507     -2.862460
  H      -2.161234     -2.183969     -3.967061
  C      -3.882124     -0.810791     -4.045470
  H      -3.331639      0.090144     -4.411445
  H      -4.642248     -0.431546     -3.321504
  C      -4.621058     -1.499705     -5.228785
  H      -5.485804     -0.864209     -5.539504
  H      -5.070918     -2.453196     -4.855730
  C      -3.761600     -1.791247     -6.491149
  H      -2.848201     -2.370807     -6.210591
  H      -3.389081     -0.827932     -6.917487
  C      -4.542384     -2.595289     -7.561598
  H      -5.507104     -2.076643     -7.785523
  H      -4.832887     -3.578888     -7.115175
  C      -3.799640     -2.841306     -8.904412
  H      -2.722721     -3.098378     -8.723884
  H      -3.779763     -1.897169     -9.500193
  C      -4.476828     -3.964957     -9.736998
  H      -5.575977     -3.767383     -9.787186
  H      -4.374822     -4.929524     -9.180885
  C      -3.924152     -4.146930    -11.170063
  H      -4.579770     -4.816734    -11.772821
  H      -2.906342     -4.597228    -11.164712
  H      -3.860103     -3.173736    -11.708364
  C      -0.295684      3.472382      1.873772
  H       0.612885      4.118816      1.824450
  H      -1.112175      4.046976      1.375288
  C      -0.018281      2.137424      1.136421
  H      -0.928659      1.494314      1.199991
  H       0.775764      1.585274      1.693479
  C       0.424163      2.260892     -0.345058
  H       1.140891      3.111665     -0.460330
  H      -0.454759      2.520950     -0.984801
  C       1.085252      0.955493     -0.856456
  H       1.968042      0.732494     -0.207616
  H       0.377055      0.102295     -0.718955
  C       1.553212      0.985939     -2.331538
  H       0.726477      1.339266     -2.994195
  H       2.374338      1.734478     -2.453855
  C       2.075172     -0.405409     -2.809331
  H       1.248885     -1.149430     -2.730848
  H       2.864839     -0.745607     -2.096089
  C       2.658722     -0.375787     -4.212843
  H       3.727232     -0.084289     -4.274714
  C       2.008074     -0.597561     -5.382040
  H       2.597432     -0.493033     -6.315682
  C       0.542321     -0.944808     -5.580268
  H       0.014338     -1.017539     -4.602755
  H       0.459808     -1.954631     -6.057864
  C      -0.210881      0.080470     -6.480225
  H      -0.114034      1.097378     -6.029373
  H      -1.299420     -0.163578     -6.460846
  C       0.310369      0.137218     -7.945837
  H       1.223100      0.779443     -7.991448
  H       0.642272     -0.882078     -8.258111
  C      -0.724074      0.688732     -8.960540
  H      -1.629408      0.035811     -8.953913
  H      -1.080712      1.691358     -8.617373
  C      -0.172991      0.844387    -10.406723
  H       0.657248      1.592334    -10.393322
  H      -0.972093      1.287301    -11.050734
  C       0.365099     -0.450663    -11.079970
  H       0.774032     -0.181510    -12.084270
  H       1.237626     -0.838776    -10.498648
  C      -0.674693     -1.584935    -11.267364
  H      -1.107776     -1.893622    -10.284538
  H      -1.535425     -1.195918    -11.860672
  C      -0.075011     -2.825536    -11.974240
  H       0.385497     -2.552894    -12.952821
  H       0.725547     -3.295391    -11.355185
  H      -0.846843     -3.604556    -12.167929
138
Coordinates from ORCA-job /wrk/rja7/qm_final_3_replicates/qm_final_1.1/qm/7/freq E -2722.573770053101
  N       5.459752      3.197637     12.253463
  C       4.274223      3.353278     11.239291
  H       4.000298      4.432052     11.274525
  H       3.458328      2.714539     11.642153
  C       5.860595      1.721884     12.460194
  H       6.179145      1.311641     11.484372
  H       6.684119      1.702044     13.206039
  H       4.966840      1.158757     12.793199
  C       4.976680      3.750767     13.588990
  H       4.710559      4.821193     13.468424
  H       4.084215      3.174320     13.904232
  H       5.786354      3.642101     14.340599
  C       6.677898      3.977887     11.786323
  H       6.388121      5.033860     11.603264
  H       7.062260      3.523460     10.852638
  H       7.460218      3.932802     12.572455
  C       4.542309      2.903987      9.779937
  H       3.597695      3.176873      9.236453
  H       5.358845      3.511378      9.312640
  P       3.654743      0.301369     10.063211
  O       3.104064      0.698099     11.438421
  O       4.313702     -1.007956      9.696817
  O       4.876345      1.534156      9.633176
  O       2.458883      0.757360      8.939377
  C       2.718004      0.448189      7.557916
  H       2.869998     -0.649238      7.412534
  H       3.648645      0.960736      7.201538
  C       1.532964      0.955887      6.719589
  H       1.326927      2.020857      6.964527
  O       0.354135      0.148707      7.056747
  C      -0.878785      0.760400      7.112115
  O      -1.066444      1.962911      6.980531
  C      -1.978213     -0.290198      7.353862
  H      -2.946289      0.257548      7.379943
  H      -1.809987     -0.735612      8.363154
  C       1.803778      0.814280      5.204904
  H       1.874366     -0.260561      4.925781
  H       2.745163      1.341020      4.930375
  O       0.687952      1.335143      4.417436
  C       0.680117      2.694604      4.154305
  O       1.582961      3.452535      4.478951
  C      -0.556679      3.088818      3.336561
  H      -1.324497      2.289135      3.409466
  H      -0.981287      4.011502      3.792208
  C      -2.011789     -1.428179      6.290220
  H      -2.750735     -2.199140      6.618234
  H      -1.021257     -1.939590      6.276291
  C      -2.356972     -0.936335      4.860895
  H      -1.600023     -0.182957      4.540703
  H      -3.339291     -0.401970      4.878905
  C      -2.404833     -2.067092      3.801425
  H      -3.252525     -2.761946      4.026681
  H      -1.481518     -2.693484      3.881992
  C      -2.555077     -1.543947      2.348145
  H      -1.760370     -0.782926      2.159019
  H      -3.526829     -0.998057      2.251405
  C      -2.483397     -2.662508      1.272470
  H      -3.065622     -3.548514      1.623324
  H      -1.426196     -3.015345      1.181384
  C      -2.990225     -2.249025     -0.139869
  H      -4.034649     -1.852804     -0.045712
  H      -3.083746     -3.163243     -0.772791
  C      -2.111965     -1.211481     -0.837307
  H      -1.451662     -0.617099     -0.176599
  C      -2.056117     -0.946318     -2.166230
  H      -1.366137     -0.146521     -2.505404
  C      -2.864929     -1.609713     -3.266680
  H      -3.480369     -2.442905     -2.855293
  H      -2.168025     -2.077848     -4.005692
  C      -3.808890     -0.612389     -4.007471
  H      -3.217439      0.257659     -4.385624
  H      -4.521790     -0.193614     -3.257350
  C      -4.623248     -1.252110     -5.165124
  H      -5.458445     -0.565741     -5.447293
  H      -5.116818     -2.180773     -4.782993
  C      -3.817754     -1.596176     -6.446788
  H      -2.934354     -2.229646     -6.189546
  H      -3.397479     -0.656661     -6.883533
  C      -4.674906     -2.348732     -7.496199
  H      -5.610438     -1.769641     -7.695945
  H      -5.015498     -3.313699     -7.044810
  C      -3.973934     -2.638663     -8.851910
  H      -2.915655     -2.965436     -8.687675
  H      -3.901902     -1.694365     -9.444784
  C      -4.731812     -3.711381     -9.680497
  H      -5.816580     -3.443328     -9.718767
  H      -4.686777     -4.684133     -9.130991
  C      -4.199617     -3.916113    -11.120067
  H      -4.897292     -4.541078    -11.724261
  H      -3.208608     -4.426819    -11.125035
  H      -4.079325     -2.944055    -11.652506
  C      -0.179025      3.330547      1.840144
  H       0.715048      3.997803      1.797967
  H      -1.005403      3.884224      1.333997
  C       0.139941      2.003990      1.102807
  H      -0.752693      1.334672      1.157380
  H       0.945247      1.470083      1.661926
  C       0.577234      2.149420     -0.378446
  H       1.268459      3.021870     -0.489249
  H      -0.312923      2.387980     -1.011855
  C       1.277078      0.871329     -0.908204
  H       2.172718      0.670866     -0.269605
  H       0.602434     -0.008219     -0.772624
  C       1.715139      0.937234     -2.392201
  H       0.859622      1.261264     -3.033504
  H       2.500165      1.722985     -2.520176
  C       2.289091     -0.420516     -2.906527
  H       1.502362     -1.205985     -2.821232
  H       3.110148     -0.733470     -2.217096
  C       2.832114     -0.342174     -4.325654
  H       3.881550      0.006351     -4.419085
  C       2.155328     -0.593503     -5.474466
  H       2.704370     -0.449975     -6.427291
  C       0.706876     -1.031184     -5.620251
  H       0.224593     -1.147423     -4.623750
  H       0.675039     -2.041992     -6.102666
  C      -0.154435     -0.056990     -6.483863
  H      -0.116673      0.961976     -6.027579
  H      -1.219591     -0.383358     -6.424560
  C       0.290039      0.044763     -7.972091
  H       1.149542      0.753136     -8.057307
  H       0.680944     -0.945601     -8.308514
  C      -0.835616      0.516059     -8.929023
  H      -1.682770     -0.208704     -8.880382
  H      -1.253471      1.485148     -8.560147
  C      -0.379508      0.718243    -10.401446
  H       0.384159      1.534033    -10.429970
  H      -1.246247      1.091498    -11.000330
  C       0.228223     -0.531080    -11.099237
  H       0.559254     -0.236596    -12.125048
  H       1.159483     -0.840640    -10.565222
  C      -0.722010     -1.750576    -11.217979
  H      -1.068732     -2.078335    -10.207262
  H      -1.647485     -1.444724    -11.765005
  C      -0.059682     -2.948241    -11.944215
  H       0.318876     -2.654872    -12.951713
  H       0.812211     -3.336671    -11.366258
  H      -0.771219     -3.792955    -12.083166
138
Coordinates from ORCA-job /wrk/rja7/qm_final_3_replicates/qm_final_1.1/qm/7/freq E -2722.574833627805
  N       5.481537      3.128260     12.270538
  C       4.290124      3.314661     11.268862
  H       4.029824      4.396176     11.321256
  H       3.468830      2.679925     11.666825
  C       5.871384      1.645501     12.444420
  H       6.186983      1.254852     11.459637
  H       6.694833      1.603087     13.189369
  H       4.972539      1.081312     12.763247
  C       5.013400      3.658959     13.620483
  H       4.756630      4.734108     13.523405
  H       4.117676      3.084252     13.929736
  H       5.826755      3.527738     14.364640
  C       6.702127      3.908086     11.809084
  H       6.419703      4.969839     11.648907
  H       7.075917      3.468994     10.863718
  H       7.490435      3.841300     12.587801
  C       4.550632      2.883688      9.804078
  H       3.606154      3.170882      9.267301
  H       5.370003      3.492369      9.343315
  P       3.647750      0.282552     10.058090
  O       3.096257      0.666180     11.437043
  O       4.300950     -1.025505      9.677892
  O       4.874451      1.513706      9.638417
  O       2.456002      0.758112      8.939211
  C       2.711938      0.454162      7.556560
  H       2.850041     -0.644547      7.406588
  H       3.649657      0.956476      7.203922
  C       1.535429      0.980895      6.718718
  H       1.341695      2.046533      6.970471
  O       0.346526      0.186151      7.048202
  C      -0.878334      0.813358      7.104373
  O      -1.052128      2.017626      6.973903
  C      -1.988715     -0.224349      7.347178
  H      -2.951140      0.333163      7.374086
  H      -1.825145     -0.671833      8.356397
  C       1.809339      0.843894      5.204224
  H       1.873559     -0.229932      4.919546
  H       2.755671      1.364582      4.935419
  O       0.699503      1.376341      4.416352
  C       0.705076      2.736763      4.159407
  O       1.615214      3.483898      4.487692
  C      -0.526112      3.147034      3.342230
  H      -1.308213      2.360608      3.418985
  H      -0.934384      4.078580      3.794636
  C      -2.032472     -1.360452      6.282469
  H      -2.782209     -2.122385      6.607153
  H      -1.048073     -1.883705      6.271452
  C      -2.368062     -0.865094      4.851996
  H      -1.604001     -0.117740      4.532307
  H      -3.345697     -0.321995      4.866528
  C      -2.422686     -1.999611      3.796898
  H      -3.272602     -2.689947      4.027746
  H      -1.500882     -2.628202      3.877817
  C      -2.576253     -1.485486      2.341083
  H      -1.778529     -0.730375      2.141495
  H      -3.545268     -0.934394      2.245411
  C      -2.516889     -2.615832      1.277227
  H      -3.110582     -3.490440      1.637239
  H      -1.463604     -2.981719      1.191777
  C      -3.019892     -2.215727     -0.140291
  H      -4.061364     -1.810810     -0.050048
  H      -3.119609     -3.137344     -0.761180
  C      -2.138130     -1.192407     -0.853789
  H      -1.477493     -0.586198     -0.203809
  C      -2.083683     -0.952480     -2.187271
  H      -1.393681     -0.159867     -2.542996
  C      -2.894828     -1.637562     -3.273146
  H      -3.505954     -2.465714     -2.845845
  H      -2.196843     -2.115464     -4.005153
  C      -3.845672     -0.660055     -4.031381
  H      -3.258154      0.203694     -4.429643
  H      -4.558800     -0.226384     -3.290003
  C      -4.652705     -1.328977     -5.177759
  H      -5.491520     -0.654371     -5.477519
  H      -5.141958     -2.254567     -4.782650
  C      -3.831122     -1.685031     -6.445244
  H      -2.941630     -2.300208     -6.165878
  H      -3.420803     -0.745775     -6.891195
  C      -4.656726     -2.464858     -7.499502
  H      -5.599587     -1.906581     -7.723327
  H      -4.987087     -3.432676     -7.046483
  C      -3.917564     -2.747763     -8.835845
  H      -2.858608     -3.052913     -8.640658
  H      -3.849062     -1.803135     -9.429131
  C      -4.626449     -3.835339     -9.686610
  H      -5.714189     -3.588115     -9.762743
  H      -4.581820     -4.806977     -9.134930
  C      -4.037820     -4.027160    -11.106471
  H      -4.696030     -4.671003    -11.734573
  H      -3.033441     -4.510437    -11.074582
  H      -3.923605     -3.052461    -11.635913
  C      -0.144695      3.377790      1.845165
  H       0.754080      4.038521      1.800525
  H      -0.967862      3.934872      1.337351
  C       0.160082      2.047800      1.108967
  H      -0.738886      1.387032      1.165650
  H       0.961354      1.503858      1.664167
  C       0.594791      2.193394     -0.372740
  H       1.298393      3.056139     -0.481476
  H      -0.293642      2.447605     -1.002638
  C       1.271993      0.906691     -0.910841
  H       2.167801      0.687545     -0.278492
  H       0.583814      0.037465     -0.773130
  C       1.705474      0.974248     -2.395857
  H       0.850488      1.306061     -3.033957
  H       2.495859      1.754785     -2.522927
  C       2.263126     -0.386382     -2.918444
  H       1.469168     -1.164403     -2.832117
  H       3.083808     -0.710484     -2.233521
  C       2.804725     -0.309036     -4.338284
  H       3.856237      0.033029     -4.432699
  C       2.126855     -0.561678     -5.484959
  H       2.674306     -0.422796     -6.439340
  C       0.679302     -1.001949     -5.624801
  H       0.200844     -1.120903     -4.626672
  H       0.649514     -2.012919     -6.107296
  C      -0.187436     -0.031414     -6.487651
  H      -0.157600      0.986612     -6.028375
  H      -1.249615     -0.364714     -6.433063
  C       0.257525      0.072115     -7.974922
  H       1.119915      0.777481     -8.058286
  H       0.645719     -0.918871     -8.313296
  C      -0.867982      0.548090     -8.928891
  H      -1.716449     -0.175885     -8.883416
  H      -1.284057      1.515831     -8.554341
  C      -0.415174      0.754162    -10.401798
  H       0.346426      1.571988    -10.430645
  H      -1.283595      1.126748    -10.998622
  C       0.192220     -0.494179    -11.102328
  H       0.520266     -0.198629    -12.128944
  H       1.124772     -0.803987    -10.571291
  C      -0.757547     -1.714925    -11.217522
  H      -1.098468     -2.041201    -10.204791
  H      -1.686100     -1.409583    -11.760526
  C      -0.098975     -2.914059    -11.944892
  H       0.271939     -2.622505    -12.955763
  H       0.777379     -3.299509    -11.371920
  H      -0.810829     -3.760247    -12.076544
138
Coordinates from ORCA-job /wrk/rja7/qm_final_3_replicates/qm_final_1.1/qm/7/freq E -2722.575599097130
  N       5.428082      3.114542     12.310399
  C       4.256252      3.309950     11.288579
  H       4.001387      4.392735     11.336352
  H       3.424436      2.680421     11.672273
  C       5.808493      1.630109     12.487148
  H       6.148577      1.242199     11.509927
  H       6.611381      1.580889     13.253248
  H       4.898795      1.067507     12.778314
  C       4.937309      3.642684     13.653778
  H       4.687515      4.719100     13.555486
  H       4.033701      3.070660     13.944023
  H       5.735146      3.504535     14.413103
  C       6.659962      3.893326     11.877030
  H       6.384535      4.956581     11.716344
  H       7.052464      3.458288     10.937647
  H       7.432279      3.820271     12.670807
  C       4.543137      2.878855      9.828943
  H       3.608451      3.166454      9.275273
  H       5.369866      3.488160      9.382726
  P       3.649815      0.274917     10.077952
  O       3.083374      0.655042     11.452304
  O       4.312437     -1.030370      9.705524
  O       4.874485      1.510006      9.669657
  O       2.470147      0.750585      8.949341
  C       2.735678      0.446747      7.568175
  H       2.868869     -0.652745      7.419177
  H       3.678820      0.944242      7.223104
  C       1.567325      0.981533      6.723766
  H       1.376568      2.046697      6.979922
  O       0.374596      0.189410      7.043695
  C      -0.847075      0.821823      7.098828
  O      -1.014942      2.026294      6.968425
  C      -1.961990     -0.211239      7.338902
  H      -2.922684      0.349211      7.365002
  H      -1.802918     -0.660792      8.347932
  C       1.852225      0.849982      5.210642
  H       1.918175     -0.222590      4.921660
  H       2.801642      1.369950      4.952048
  O       0.749893      1.386980      4.415800
  C       0.760572      2.747715      4.161017
  O       1.670419      3.492732      4.494263
  C      -0.465321      3.160710      3.338746
  H      -1.254388      2.381512      3.420638
  H      -0.866327      4.099448      3.782427
  C      -2.006215     -1.344590      6.271094
  H      -2.762594     -2.102489      6.589498
  H      -1.024868     -1.873440      6.264036
  C      -2.332389     -0.842731      4.840970
  H      -1.565028     -0.096411      4.527238
  H      -3.308331     -0.296495      4.853044
  C      -2.386254     -1.974417      3.783346
  H      -3.235141     -2.665755      4.014520
  H      -1.462799     -2.600801      3.860457
  C      -2.545349     -1.456984      2.329491
  H      -1.747920     -0.702218      2.127181
  H      -3.514377     -0.904698      2.240404
  C      -2.495451     -2.586643      1.265368
  H      -3.097121     -3.455456      1.626095
  H      -1.445620     -2.961839      1.178163
  C      -3.002982     -2.181932     -0.148400
  H      -4.041720     -1.771967     -0.050111
  H      -3.110274     -3.102503     -0.768894
  C      -2.123588     -1.161976     -0.869416
  H      -1.459174     -0.552103     -0.226943
  C      -2.081794     -0.930700     -2.205051
  H      -1.395380     -0.141373     -2.574722
  C      -2.906488     -1.625450     -3.275022
  H      -3.509940     -2.451582     -2.834676
  H      -2.215563     -2.105349     -4.012339
  C      -3.870161     -0.658304     -4.030721
  H      -3.288915      0.201799     -4.445423
  H      -4.575566     -0.216982     -3.286659
  C      -4.684518     -1.342918     -5.162926
  H      -5.527928     -0.674838     -5.464754
  H      -5.167875     -2.267046     -4.757579
  C      -3.863377     -1.705354     -6.428167
  H      -2.968932     -2.310209     -6.142645
  H      -3.461155     -0.765896     -6.880539
  C      -4.675434     -2.496260     -7.483747
  H      -5.622097     -1.948561     -7.717308
  H      -4.999460     -3.468072     -7.034434
  C      -3.912529     -2.765570     -8.808417
  H      -2.855707     -3.062070     -8.591819
  H      -3.841653     -1.814490     -9.391073
  C      -4.588979     -3.849712     -9.687979
  H      -5.675925     -3.610232     -9.794310
  H      -4.553260     -4.827166     -9.145994
  C      -3.952434     -4.017723    -11.090336
  H      -4.579059     -4.664552    -11.746778
  H      -2.941725     -4.484460    -11.029791
  H      -3.834487     -3.035583    -11.605111
  C      -0.081817      3.377934      1.840546
  H       0.815298      4.040378      1.790480
  H      -0.907495      3.928988      1.329972
  C       0.221936      2.045839      1.108628
  H      -0.675666      1.383531      1.171105
  H       1.026500      1.501681      1.658850
  C       0.645172      2.194297     -0.376052
  H       1.350754      3.054813     -0.487881
  H      -0.248381      2.453067     -0.996735
  C       1.310474      0.906688     -0.926474
  H       2.214071      0.679560     -0.308023
  H       0.620902      0.040713     -0.779367
  C       1.722178      0.978645     -2.417219
  H       0.856822      1.307822     -3.042639
  H       2.507626      1.762538     -2.552872
  C       2.271750     -0.378953     -2.954888
  H       1.480043     -1.157701     -2.858983
  H       3.102667     -0.706437     -2.283521
  C       2.795520     -0.296092     -4.381309
  H       3.844487      0.050321     -4.486084
  C       2.108319     -0.553966     -5.520875
  H       2.645552     -0.414224     -6.480734
  C       0.663222     -1.006902     -5.646576
  H       0.195116     -1.133438     -4.644785
  H       0.640636     -2.017556     -6.130327
  C      -0.221210     -0.046773     -6.503603
  H      -0.205088      0.970525     -6.042170
  H      -1.278009     -0.395893     -6.446936
  C       0.213445      0.059433     -7.993394
  H       1.072629      0.768180     -8.082191
  H       0.604268     -0.930014     -8.333461
  C      -0.921302      0.529421     -8.939242
  H      -1.764804     -0.200691     -8.890687
  H      -1.341191      1.492868     -8.557955
  C      -0.481898      0.741008    -10.416116
  H       0.270744      1.566882    -10.450302
  H      -1.358925      1.105369    -11.005233
  C       0.129917     -0.501306    -11.124954
  H       0.446854     -0.200191    -12.153461
  H       1.069312     -0.806153    -10.603602
  C      -0.811701     -1.729412    -11.235148
  H      -1.138800     -2.058864    -10.220040
  H      -1.748082     -1.430251    -11.768127
  C      -0.153251     -2.923766    -11.969731
  H       0.202060     -2.630257    -12.985620
  H       0.732749     -3.301716    -11.406900
  H      -0.861036     -3.774913    -12.091538
138
Coordinates from ORCA-job /wrk/rja7/qm_final_3_replicates/qm_final_1.1/qm/7/freq E -2722.576422821637
  N       5.427961      3.084679     12.330103
  C       4.258126      3.289456     11.306962
  H       4.005715      4.372643     11.363470
  H       3.424446      2.658735     11.684723
  C       5.817468      1.600745     12.489777
  H       6.177859      1.230790     11.512629
  H       6.607636      1.545725     13.269153
  H       4.906739      1.026764     12.755704
  C       4.929661      3.592220     13.678953
  H       4.675779      4.669020     13.594160
  H       4.027118      3.012573     13.958545
  H       5.725301      3.447369     14.439623
  C       6.656653      3.877742     11.914390
  H       6.375154      4.941745     11.768166
  H       7.058672      3.459776     10.970818
  H       7.425049      3.797708     12.711563
  C       4.547161      2.872586      9.843176
  H       3.612278      3.163338      9.291519
  H       5.372056      3.489413      9.403747
  P       3.664098      0.260904     10.063065
  O       3.088734      0.624165     11.439120
  O       4.337483     -1.037120      9.683047
  O       4.882157      1.506674      9.668867
  O       2.485374      0.738814      8.935768
  C       2.748506      0.437957      7.553223
  H       2.874008     -0.661874      7.400478
  H       3.694825      0.930185      7.209563
  C       1.582429      0.984189      6.712475
  H       1.398040      2.048440      6.976772
  O       0.385378      0.197171      7.028545
  C      -0.833141      0.836180      7.094260
  O      -0.996693      2.042224      6.967445
  C      -1.950605     -0.192928      7.339746
  H      -2.909666      0.370049      7.372757
  H      -1.786920     -0.644747      8.347038
  C       1.865553      0.861752      5.198789
  H       1.934188     -0.208654      4.902182
  H       2.814005      1.385283      4.943563
  O       0.761627      1.402806      4.408840
  C       0.769833      2.766082      4.166681
  O       1.678562      3.509294      4.507753
  C      -0.456052      3.185929      3.347578
  H      -1.252152      2.413734      3.433515
  H      -0.846809      4.129706      3.789716
  C      -2.002841     -1.323584      6.269249
  H      -2.765397     -2.076472      6.584864
  H      -1.025439     -1.859692      6.262127
  C      -2.325450     -0.817284      4.839468
  H      -1.556453     -0.071188      4.527799
  H      -3.300421     -0.269143      4.851232
  C      -2.379578     -1.948410      3.780883
  H      -3.221465     -2.646077      4.018752
  H      -1.450637     -2.567517      3.850354
  C      -2.555403     -1.433354      2.327950
  H      -1.762379     -0.676669      2.115408
  H      -3.526676     -0.883300      2.249399
  C      -2.514598     -2.565448      1.265892
  H      -3.123686     -3.428178      1.629158
  H      -1.467916     -2.949496      1.179293
  C      -3.022460     -2.161515     -0.147927
  H      -4.059563     -1.747653     -0.047783
  H      -3.133924     -3.082953     -0.766237
  C      -2.141930     -1.145113     -0.873031
  H      -1.480957     -0.529299     -0.232849
  C      -2.098775     -0.922172     -2.210952
  H      -1.413161     -0.134554     -2.585514
  C      -2.921759     -1.624715     -3.277669
  H      -3.520409     -2.452726     -2.834950
  H      -2.228916     -2.102574     -4.014409
  C      -3.891865     -0.665793     -4.036013
  H      -3.314244      0.192481     -4.459451
  H      -4.595318     -0.219941     -3.292679
  C      -4.706423     -1.361333     -5.162033
  H      -5.552155     -0.698176     -5.468162
  H      -5.186491     -2.284162     -4.749808
  C      -3.882551     -1.729234     -6.424154
  H      -2.983138     -2.323269     -6.132230
  H      -3.489183     -0.790560     -6.884731
  C      -4.681757     -2.534674     -7.478236
  H      -5.633680     -1.999196     -7.718452
  H      -4.995295     -3.509615     -7.028008
  C      -3.904569     -2.795978     -8.796720
  H      -2.847997     -3.086483     -8.568640
  H      -3.833345     -1.842245     -9.374821
  C      -4.563034     -3.880665     -9.688750
  H      -5.647773     -3.641804     -9.817091
  H      -4.536971     -4.858566     -9.146929
  C      -3.896618     -4.047055    -11.077487
  H      -4.501477     -4.703868    -11.744399
  H      -2.882394     -4.501565    -10.992862
  H      -3.777779     -3.065808    -11.593352
  C      -0.074677      3.399039      1.848350
  H       0.817224      4.068246      1.794809
  H      -0.905692      3.941736      1.337198
  C       0.234496      2.068138      1.117564
  H      -0.659089      1.400678      1.183302
  H       1.044366      1.527130      1.663311
  C       0.651931      2.222048     -0.368192
  H       1.361586      3.079396     -0.478226
  H      -0.242987      2.488488     -0.983694
  C       1.304947      0.932945     -0.929282
  H       2.211225      0.694503     -0.318876
  H       0.609766      0.071323     -0.779598
  C       1.708952      1.009915     -2.421638
  H       0.838458      1.334256     -3.042474
  H       2.488874      1.798959     -2.559365
  C       2.258806     -0.344658     -2.965796
  H       1.467993     -1.124032     -2.867722
  H       3.093405     -0.673859     -2.299514
  C       2.777694     -0.257711     -4.393570
  H       3.824333      0.095204     -4.501010
  C       2.091525     -0.528386     -5.531489
  H       2.627073     -0.392209     -6.492868
  C       0.650471     -0.995215     -5.651729
  H       0.184739     -1.119289     -4.648583
  H       0.635875     -2.009419     -6.128611
  C      -0.241890     -0.049008     -6.516475
  H      -0.242012      0.970259     -6.059185
  H      -1.293958     -0.411856     -6.464228
  C       0.196511      0.051642     -8.005684
  H       1.058224      0.757243     -8.095927
  H       0.586131     -0.940552     -8.339243
  C      -0.934078      0.520864     -8.956950
  H      -1.778372     -0.208316     -8.912512
  H      -1.355239      1.484702     -8.577984
  C      -0.487486      0.729167    -10.431972
  H       0.260991      1.558868    -10.464950
  H      -1.362263      1.086845    -11.028636
  C       0.132547     -0.514130    -11.131715
  H       0.457822     -0.215411    -12.158342
  H       1.067721     -0.816779    -10.601382
  C      -0.808507     -1.742532    -11.248238
  H      -1.145503     -2.070113    -10.235274
  H      -1.739251     -1.444040    -11.790756
  C      -0.143574     -2.938653    -11.973940
  H       0.216516     -2.648977    -12.989268
  H       0.740296     -3.311811    -11.404513
  H      -0.849258     -3.791285    -12.095586
138
Coordinates from ORCA-job /wrk/rja7/qm_final_3_replicates/qm_final_1.1/qm/7/freq E -2722.577441077915
  N       5.315159      3.126512     12.380579
  C       4.168033      3.307175     11.328766
  H       3.891952      4.384849     11.379970
  H       3.338962      2.658586     11.684650
  C       5.750123      1.655292     12.536328
  H       6.170657      1.315162     11.572668
  H       6.503794      1.614246     13.351839
  H       4.848882      1.044875     12.748354
  C       4.764903      3.603641     13.720856
  H       4.480324      4.672899     13.639547
  H       3.873749      2.994111     13.972163
  H       5.543937      3.474845     14.501060
  C       6.527033      3.966484     12.010681
  H       6.213916      5.022372     11.871167
  H       6.972066      3.577738     11.073694
  H       7.274560      3.900552     12.828498
  C       4.504874      2.901999      9.871952
  H       3.576332      3.168618      9.297830
  H       5.322550      3.543918      9.455165
  P       3.694858      0.266665     10.070470
  O       3.082756      0.607339     11.437194
  O       4.413141     -1.011294      9.703466
  O       4.882565      1.547022      9.703289
  O       2.524464      0.714397      8.925648
  C       2.806410      0.414548      7.546292
  H       2.938079     -0.684703      7.395172
  H       3.753969      0.911276      7.213125
  C       1.643346      0.956742      6.698391
  H       1.449465      2.017453      6.970186
  O       0.451567      0.158393      7.003900
  C      -0.769756      0.790499      7.080853
  O      -0.939518      1.996198      6.958050
  C      -1.880327     -0.244623      7.332106
  H      -2.842260      0.312849      7.372168
  H      -1.708206     -0.696948      8.337708
  C       1.937310      0.848711      5.185898
  H       2.025940     -0.218006      4.881453
  H       2.879281      1.389117      4.941715
  O       0.831205      1.379119      4.392195
  C       0.818960      2.744665      4.162994
  O       1.712334      3.499660      4.518752
  C      -0.409161      3.153186      3.341633
  H      -1.202910      2.379405      3.434341
  H      -0.800825      4.099853      3.776484
  C      -1.932959     -1.373111      6.259363
  H      -2.699705     -2.123246      6.571243
  H      -0.957637     -1.912810      6.253952
  C      -2.250541     -0.860071      4.831248
  H      -1.481934     -0.110935      4.526328
  H      -3.226525     -0.313785      4.843371
  C      -2.300905     -1.984555      3.766311
  H      -3.129985     -2.695476      4.009918
  H      -1.362220     -2.590370      3.819091
  C      -2.502546     -1.459080      2.320922
  H      -1.715848     -0.697753      2.101360
  H      -3.477113     -0.912198      2.264494
  C      -2.478998     -2.580392      1.248017
  H      -3.100879     -3.436653      1.605169
  H      -1.438996     -2.980113      1.153676
  C      -2.989596     -2.150916     -0.156603
  H      -4.020326     -1.724861     -0.042954
  H      -3.116988     -3.062093     -0.786614
  C      -2.099402     -1.137280     -0.873688
  H      -1.433308     -0.531948     -0.229353
  C      -2.059675     -0.902899     -2.209850
  H      -1.367366     -0.120420     -2.582353
  C      -2.900176     -1.584831     -3.275502
  H      -3.500727     -2.414034     -2.837911
  H      -2.220168     -2.056629     -4.027722
  C      -3.869958     -0.605499     -4.007413
  H      -3.286361      0.246684     -4.434903
  H      -4.553109     -0.154849     -3.248272
  C      -4.715099     -1.279760     -5.123010
  H      -5.553555     -0.600013     -5.411972
  H      -5.203643     -2.196879     -4.708020
  C      -3.917563     -1.656346     -6.398645
  H      -3.022046     -2.263706     -6.123711
  H      -3.518003     -0.722750     -6.863759
  C      -4.743753     -2.445082     -7.443580
  H      -5.691842     -1.895274     -7.665390
  H      -5.061185     -3.420406     -6.997104
  C      -3.985864     -2.703519     -8.773424
  H      -2.936003     -3.026325     -8.558373
  H      -3.891997     -1.741167     -9.333839
  C      -4.680786     -3.753609     -9.677519
  H      -5.755039     -3.472724     -9.808187
  H      -4.693324     -4.737589     -9.146445
  C      -4.013025     -3.929929    -11.063885
  H      -4.627336     -4.572173    -11.736242
  H      -3.008623     -4.404723    -10.974477
  H      -3.869785     -2.949685    -11.575088
  C      -0.033029      3.360930      1.840350
  H       0.840280      4.053559      1.779107
  H      -0.879816      3.877128      1.327442
  C       0.306156      2.035084      1.113581
  H      -0.569254      1.345022      1.188637
  H       1.134372      1.515933      1.652793
  C       0.705606      2.198969     -0.376239
  H       1.407560      3.062210     -0.488356
  H      -0.198716      2.461817     -0.979387
  C       1.360000      0.918494     -0.954975
  H       2.277680      0.682132     -0.360915
  H       0.674221      0.050568     -0.798754
  C       1.738714      1.007601     -2.452981
  H       0.850063      1.310176     -3.059005
  H       2.496199      1.816135     -2.601905
  C       2.308274     -0.333451     -3.010191
  H       1.534300     -1.128198     -2.901927
  H       3.159174     -0.648818     -2.357831
  C       2.804293     -0.233192     -4.444880
  H       3.840409      0.145023     -4.566598
  C       2.112270     -0.529298     -5.573473
  H       2.634533     -0.389650     -6.541451
  C       0.681169     -1.030919     -5.673998
  H       0.229047     -1.157605     -4.664981
  H       0.685210     -2.049268     -6.142064
  C      -0.241745     -0.114963     -6.539403
  H      -0.271382      0.906968     -6.089336
  H      -1.282093     -0.509298     -6.479507
  C       0.181183     -0.017643     -8.033152
  H       1.037912      0.692140     -8.137171
  H       0.573080     -1.009984     -8.363420
  C      -0.961880      0.438856     -8.975844
  H      -1.798311     -0.298849     -8.924285
  H      -1.389956      1.398328     -8.593690
  C      -0.529013      0.650299    -10.454760
  H       0.203486      1.493729    -10.495661
  H      -1.414605      0.990243    -11.045838
  C       0.105276     -0.584094    -11.157654
  H       0.419741     -0.280416    -12.186183
  H       1.047977     -0.873967    -10.633746
  C      -0.820036     -1.825000    -11.270958
  H      -1.145133     -2.160160    -10.256693
  H      -1.758604     -1.537854    -11.805648
  C      -0.144138     -3.009862    -12.004967
  H       0.196307     -2.715636    -13.025732
  H       0.753824     -3.366324    -11.447049
  H      -0.836677     -3.874507    -12.116207
138
Coordinates from ORCA-job /wrk/rja7/qm_final_3_replicates/qm_final_1.1/qm/7/freq E -2722.578638299423
  N       5.373996      3.058817     12.385658
  C       4.253655      3.286265     11.312374
  H       4.043303      4.379432     11.344191
  H       3.383162      2.694725     11.666113
  C       5.744609      1.572183     12.560277
  H       6.198997      1.215571     11.618439
  H       6.455915      1.503412     13.411231
  H       4.811150      0.997071     12.728014
  C       4.823535      3.569815     13.713436
  H       4.588869      4.650017     13.619179
  H       3.901908      3.004412     13.958295
  H       5.584312      3.413585     14.506210
  C       6.625803      3.845433     12.032724
  H       6.359860      4.913015     11.886053
  H       7.071559      3.437329     11.104163
  H       7.356122      3.749930     12.862758
  C       4.585969      2.845787      9.863296
  H       3.677204      3.149484      9.275754
  H       5.437169      3.445706      9.450615
  P       3.653589      0.250063     10.077315
  O       3.043018      0.629285     11.435314
  O       4.323232     -1.060913      9.733822
  O       4.897197      1.473450      9.707970
  O       2.508249      0.726162      8.920936
  C       2.781785      0.397885      7.545586
  H       2.866838     -0.707363      7.405907
  H       3.750477      0.851205      7.211867
  C       1.642744      0.978840      6.689212
  H       1.480499      2.043387      6.966683
  O       0.424952      0.214709      6.981369
  C      -0.779567      0.877921      7.060867
  O      -0.919443      2.087248      6.933741
  C      -1.913147     -0.131128      7.318361
  H      -2.863418      0.446048      7.355632
  H      -1.748343     -0.579951      8.326650
  C       1.941179      0.874127      5.177937
  H       2.017028     -0.191370      4.866102
  H       2.891322      1.403678      4.941123
  O       0.845050      1.427011      4.385660
  C       0.847550      2.796239      4.177910
  O       1.747985      3.536169      4.547738
  C      -0.374523      3.233292      3.362111
  H      -1.192224      2.487136      3.467176
  H      -0.729806      4.196635      3.791101
  C      -1.989814     -1.267165      6.254023
  H      -2.777351     -1.993989      6.569316
  H      -1.028590     -1.831327      6.258891
  C      -2.293389     -0.764195      4.818788
  H      -1.518237     -0.023422      4.511366
  H      -3.265810     -0.211487      4.819675
  C      -2.342460     -1.899140      3.764927
  H      -3.152559     -2.623958      4.030856
  H      -1.390729     -2.485082      3.807250
  C      -2.580800     -1.395081      2.316843
  H      -1.811686     -0.623393      2.071965
  H      -3.565308     -0.865280      2.273022
  C      -2.555267     -2.529567      1.258310
  H      -3.180191     -3.378915      1.626892
  H      -1.515684     -2.932275      1.173986
  C      -3.063346     -2.123968     -0.155400
  H      -4.097389     -1.703047     -0.052849
  H      -3.182583     -3.045801     -0.771274
  C      -2.177308     -1.115629     -0.884422
  H      -1.540088     -0.478335     -0.241870
  C      -2.109478     -0.915149     -2.225326
  H      -1.423708     -0.127630     -2.599226
  C      -2.905291     -1.638070     -3.298475
  H      -3.488344     -2.481352     -2.862994
  H      -2.195028     -2.096194     -4.030528
  C      -3.891197     -0.698949     -4.061542
  H      -3.323809      0.156522     -4.504178
  H      -4.590251     -0.247116     -3.317848
  C      -4.710883     -1.415717     -5.170096
  H      -5.561866     -0.761499     -5.480113
  H      -5.181756     -2.334697     -4.739093
  C      -3.893910     -1.797949     -6.432083
  H      -2.976058     -2.360734     -6.137218
  H      -3.531957     -0.863388     -6.924505
  C      -4.680885     -2.646884     -7.460126
  H      -5.651330     -2.144699     -7.697276
  H      -4.954936     -3.626253     -6.994868
  C      -3.903932     -2.897141     -8.781330
  H      -2.847458     -3.186210     -8.552828
  H      -3.832000     -1.938284     -9.351344
  C      -4.558556     -3.977858     -9.678759
  H      -5.633200     -3.717092     -9.843156
  H      -4.568339     -4.950607     -9.127475
  C      -3.852528     -4.172366    -11.042628
  H      -4.422732     -4.862642    -11.706149
  H      -2.831759     -4.601131    -10.912097
  H      -3.736348     -3.204549    -11.583395
  C      -0.004732      3.421011      1.856826
  H       0.868536      4.112296      1.782455
  H      -0.854127      3.932699      1.343407
  C       0.321652      2.087370      1.138031
  H      -0.558497      1.404362      1.223111
  H       1.150164      1.565209      1.673198
  C       0.715591      2.241347     -0.353666
  H       1.447706      3.079120     -0.465210
  H      -0.181675      2.539500     -0.951109
  C       1.319511      0.940753     -0.940931
  H       2.228193      0.665077     -0.349721
  H       0.600653      0.098738     -0.788606
  C       1.705017      1.024469     -2.436999
  H       0.821755      1.335866     -3.046626
  H       2.471346      1.824862     -2.583592
  C       2.260585     -0.324065     -2.990900
  H       1.472788     -1.105744     -2.888086
  H       3.103273     -0.652860     -2.334668
  C       2.766140     -0.229810     -4.422174
  H       3.804978      0.142860     -4.537676
  C       2.081507     -0.530756     -5.553989
  H       2.610834     -0.399965     -6.519039
  C       0.648013     -1.024381     -5.657593
  H       0.196102     -1.152590     -4.648632
  H       0.644581     -2.040257     -6.130563
  C      -0.271292     -0.098713     -6.515981
  H      -0.308700      0.917137     -6.052893
  H      -1.309938     -0.498617     -6.468155
  C       0.157375      0.018270     -8.005779
  H       1.039703      0.698175     -8.093604
  H       0.513224     -0.980645     -8.356174
  C      -0.966477      0.536840     -8.939329
  H      -1.826999     -0.174630     -8.912247
  H      -1.365280      1.498089     -8.530981
  C      -0.518193      0.778876    -10.409112
  H       0.235009      1.604678    -10.421559
  H      -1.390935      1.158198    -10.995432
  C       0.087375     -0.449918    -11.145928
  H       0.421097     -0.122000    -12.160859
  H       1.015002     -0.785748    -10.622921
  C      -0.874986     -1.656276    -11.311844
  H      -1.222542     -2.017707    -10.314435
  H      -1.797680     -1.319272    -11.845401
  C      -0.228895     -2.834421    -12.082782
  H       0.120772     -2.516988    -13.093401
  H       0.658885     -3.230794    -11.535667
  H      -0.943609     -3.676705    -12.222274
138
Coordinates from ORCA-job /wrk/rja7/qm_final_3_replicates/qm_final_1.1/qm/7/freq E -2722.579857238160
  N       5.328972      2.993602     12.467807
  C       4.210896      3.243742     11.397799
  H       3.975739      4.329964     11.476568
  H       3.352436      2.617147     11.718844
  C       5.754518      1.513612     12.555983
  H       6.273130      1.245458     11.617054
  H       6.423833      1.413342     13.437747
  H       4.836240      0.893812     12.631302
  C       4.748829      3.401962     13.818000
  H       4.465821      4.474483     13.783030
  H       3.852041      2.782987     14.025453
  H       5.513037      3.237125     14.606324
  C       6.552089      3.848971     12.178466
  H       6.247563      4.914399     12.107722
  H       7.016148      3.526118     11.225166
  H       7.283025      3.718814     13.003752
  C       4.569887      2.881417      9.934294
  H       3.658399      3.188637      9.352361
  H       5.408297      3.523183      9.559846
  P       3.713245      0.253593     10.022295
  O       3.069206      0.561425     11.384681
  O       4.431900     -1.021319      9.640533
  O       4.920831      1.528213      9.719942
  O       2.567810      0.734302      8.869359
  C       2.851841      0.445369      7.487439
  H       2.950798     -0.655108      7.321475
  H       3.815743      0.918360      7.167567
  C       1.706363      1.030546      6.642811
  H       1.529309      2.085340      6.946421
  O       0.500453      0.242565      6.920206
  C      -0.709883      0.890704      7.045788
  O      -0.865360      2.102043      6.956042
  C      -1.824423     -0.135972      7.314220
  H      -2.780354      0.428696      7.385722
  H      -1.626993     -0.599042      8.310185
  C       2.005183      0.964128      5.129419
  H       2.116894     -0.091712      4.795821
  H       2.937569      1.529019      4.903482
  O       0.890601      1.494305      4.346520
  C       0.840853      2.867185      4.165410
  O       1.714758      3.633685      4.545479
  C      -0.392946      3.269416      3.348525
  H      -1.202480      2.517576      3.478532
  H      -0.751293      4.240025      3.757736
  C      -1.914121     -1.256208      6.235001
  H      -2.701807     -1.984679      6.546205
  H      -0.954704     -1.823464      6.223839
  C      -2.233095     -0.734033      4.809692
  H      -1.466597      0.017719      4.505115
  H      -3.210270     -0.189654      4.826087
  C      -2.283323     -1.856363      3.742458
  H      -3.052038     -2.616675      4.031506
  H      -1.308015     -2.403784      3.737519
  C      -2.600622     -1.345832      2.312340
  H      -1.864737     -0.551008      2.039599
  H      -3.599790     -0.842255      2.318573
  C      -2.593239     -2.471709      1.245018
  H      -3.224256     -3.317393      1.612492
  H      -1.558431     -2.884121      1.150093
  C      -3.110570     -2.052415     -0.161648
  H      -4.139216     -1.621290     -0.046537
  H      -3.246235     -2.969169     -0.781705
  C      -2.219900     -1.051316     -0.893808
  H      -1.596323     -0.399521     -0.252394
  C      -2.132908     -0.872140     -2.236854
  H      -1.445351     -0.087314     -2.613775
  C      -2.912911     -1.611815     -3.310348
  H      -3.480652     -2.466003     -2.876018
  H      -2.194630     -2.056758     -4.042554
  C      -3.915893     -0.689596     -4.072903
  H      -3.359351      0.165024     -4.530473
  H      -4.611164     -0.234534     -3.327536
  C      -4.740288     -1.424865     -5.166332
  H      -5.593939     -0.776490     -5.481294
  H      -5.206683     -2.337976     -4.718128
  C      -3.928350     -1.825045     -6.426019
  H      -3.007261     -2.380832     -6.127621
  H      -3.572664     -0.897661     -6.936468
  C      -4.717115     -2.688217     -7.441693
  H      -5.692057     -2.193186     -7.676206
  H      -4.979878     -3.667459     -6.969871
  C      -3.945324     -2.940057     -8.765571
  H      -2.899386     -3.267840     -8.538347
  H      -3.838386     -1.973844     -9.317345
  C      -4.627722     -3.981563     -9.687572
  H      -5.682762     -3.665142     -9.880339
  H      -4.700764     -4.956518     -9.144735
  C      -3.893677     -4.201056    -11.033224
  H      -4.457234     -4.891229    -11.702440
  H      -2.882324     -4.642403    -10.872241
  H      -3.750183     -3.240790    -11.581096
  C      -0.041315      3.433943      1.835241
  H       0.793451      4.168496      1.735605
  H      -0.920521      3.888582      1.317648
  C       0.344557      2.104599      1.139010
  H      -0.496223      1.377028      1.252157
  H       1.209787      1.637970      1.667182
  C       0.703764      2.254034     -0.361903
  H       1.423246      3.100226     -0.491524
  H      -0.208390      2.538430     -0.943386
  C       1.313684      0.959357     -0.956172
  H       2.231921      0.690707     -0.376296
  H       0.604396      0.111163     -0.796477
  C       1.683442      1.048758     -2.456042
  H       0.783484      1.322849     -3.059284
  H       2.417218      1.877078     -2.614394
  C       2.275523     -0.284692     -3.008274
  H       1.505630     -1.083813     -2.905436
  H       3.126188     -0.593079     -2.352100
  C       2.778584     -0.181218     -4.439548
  H       3.803254      0.229291     -4.555483
  C       2.109034     -0.519297     -5.571428
  H       2.637466     -0.381926     -6.536122
  C       0.691055     -1.057535     -5.671588
  H       0.244837     -1.188351     -4.660545
  H       0.714229     -2.077507     -6.135323
  C      -0.258148     -0.167650     -6.536828
  H      -0.338915      0.847765     -6.077834
  H      -1.280849     -0.608087     -6.494215
  C       0.169912     -0.043440     -8.025461
  H       1.062633      0.623051     -8.112360
  H       0.507993     -1.046941     -8.381137
  C      -0.949926      0.495367     -8.952602
  H      -1.817477     -0.207899     -8.931359
  H      -1.339777      1.456241     -8.534902
  C      -0.504466      0.743706    -10.422320
  H       0.245114      1.572760    -10.435407
  H      -1.379772      1.120044    -11.007129
  C       0.100438     -0.483147    -11.162236
  H       0.426917     -0.158537    -12.180743
  H       1.031025     -0.815683    -10.641942
  C      -0.862322     -1.690896    -11.313417
  H      -1.203168     -2.043859    -10.310675
  H      -1.787933     -1.356154    -11.843583
  C      -0.225547     -2.877895    -12.078669
  H       0.102004     -2.574362    -13.100954
  H       0.675419     -3.261898    -11.544315
  H      -0.939835     -3.725220    -12.190008
138
Coordinates from ORCA-job /wrk/rja7/qm_final_3_replicates/qm_final_1.1/qm/7/freq E -2722.580368350570
  N       5.368219      2.949389     12.505104
  C       4.299116      3.288888     11.410373
  H       4.207887      4.398863     11.434127
  H       3.364593      2.795796     11.748815
  C       5.594337      1.432534     12.674039
  H       6.107256      1.052580     11.771745
  H       6.211172      1.291959     13.587156
  H       4.597252      0.946119     12.736684
  C       4.839926      3.495751     13.826959
  H       4.682843      4.589982     13.731907
  H       3.878436      2.996426     14.062568
  H       5.579844      3.287532     14.627654
  C       6.694876      3.621784     12.186441
  H       6.538234      4.715475     12.079309
  H       7.102761      3.206113     11.244491
  H       7.405650      3.419180     13.014336
  C       4.630460      2.822472      9.969154
  H       3.754351      3.182833      9.363236
  H       5.522851      3.374761      9.577628
  P       3.570684      0.266061     10.108131
  O       2.917101      0.649696     11.446829
  O       4.201946     -1.065703      9.771081
  O       4.874584      1.438599      9.808032
  O       2.492611      0.804085      8.919340
  C       2.794047      0.483198      7.548914
  H       2.864739     -0.622719      7.405644
  H       3.776726      0.922806      7.238196
  C       1.678164      1.080280      6.673483
  H       1.500016      2.135246      6.975843
  O       0.462311      0.297533      6.916398
  C      -0.742892      0.955286      7.028437
  O      -0.887558      2.165474      6.923255
  C      -1.868283     -0.060104      7.288389
  H      -2.821298      0.511962      7.334269
  H      -1.692463     -0.510610      8.294161
  C       2.017509      1.018706      5.168211
  H       2.154496     -0.034281      4.835210
  H       2.947300      1.597726      4.968496
  O       0.917476      1.533824      4.356100
  C       0.845823      2.907535      4.187441
  O       1.684215      3.688672      4.612842
  C      -0.384434      3.293150      3.358313
  H      -1.192063      2.540765      3.495720
  H      -0.745556      4.268577      3.753117
  C      -1.944662     -1.195830      6.225263
  H      -2.751863     -1.906615      6.526950
  H      -0.993994     -1.777273      6.248192
  C      -2.219622     -0.690668      4.785466
  H      -1.439227      0.050550      4.490989
  H      -3.193030     -0.139584      4.768913
  C      -2.253818     -1.826357      3.732830
  H      -2.988994     -2.609069      4.047664
  H      -1.259761     -2.338220      3.711456
  C      -2.617689     -1.340473      2.305897
  H      -1.902819     -0.537840      2.001311
  H      -3.624602     -0.853534      2.332864
  C      -2.626463     -2.480160      1.255172
  H      -3.281810     -3.304022      1.629583
  H      -1.601810     -2.919419      1.172994
  C      -3.126869     -2.064342     -0.158527
  H      -4.140943     -1.598369     -0.050303
  H      -3.291588     -2.983962     -0.766637
  C      -2.202135     -1.105650     -0.902952
  H      -1.586909     -0.437224     -0.270577
  C      -2.084530     -0.972935     -2.247752
  H      -1.378151     -0.210697     -2.636242
  C      -2.862413     -1.728169     -3.311270
  H      -3.414619     -2.588970     -2.870195
  H      -2.145850     -2.163346     -4.050477
  C      -3.886427     -0.818443     -4.061744
  H      -3.343122      0.036527     -4.534033
  H      -4.572617     -0.364220     -3.307835
  C      -4.723200     -1.564266     -5.137837
  H      -5.586467     -0.922306     -5.439451
  H      -5.174230     -2.481031     -4.681715
  C      -3.927031     -1.954224     -6.409144
  H      -2.998991     -2.507230     -6.128569
  H      -3.583511     -1.021540     -6.918369
  C      -4.725386     -2.807873     -7.425189
  H      -5.708136     -2.316760     -7.634574
  H      -4.970768     -3.799556     -6.970476
  C      -3.970048     -3.021607     -8.762881
  H      -2.940055     -3.408335     -8.556419
  H      -3.818320     -2.031112     -9.258420
  C      -4.693723     -3.975413     -9.743883
  H      -5.720673     -3.582144     -9.947067
  H      -4.843489     -4.966900     -9.249097
  C      -3.938550     -4.176438    -11.080566
  H      -4.502755     -4.836524    -11.778656
  H      -2.939169     -4.641977    -10.910898
  H      -3.763635     -3.204897    -11.599093
  C      -0.033383      3.447695      1.843469
  H       0.759934      4.225745      1.733555
  H      -0.934544      3.849175      1.319675
  C       0.421883      2.136071      1.155647
  H      -0.366322      1.356010      1.296547
  H       1.328554      1.733634      1.665554
  C       0.730540      2.297976     -0.354649
  H       1.434117      3.155390     -0.498492
  H      -0.202540      2.573262     -0.906125
  C       1.345301      1.020052     -0.979473
  H       2.279782      0.755813     -0.424318
  H       0.651217      0.160204     -0.819430
  C       1.681888      1.141690     -2.485209
  H       0.758393      1.381460     -3.067197
  H       2.374913      2.003544     -2.648009
  C       2.315586     -0.159407     -3.066455
  H       1.579957     -0.989613     -2.960202
  H       3.189641     -0.443119     -2.430226
  C       2.788786     -0.018550     -4.504811
  H       3.780528      0.463442     -4.631396
  C       2.132430     -0.398765     -5.629898
  H       2.643018     -0.227889     -6.598651
  C       0.753276     -1.031278     -5.717730
  H       0.328007     -1.193279     -4.702026
  H       0.840759     -2.046867     -6.183034
  C      -0.268044     -0.212521     -6.571330
  H      -0.426422      0.792553     -6.109089
  H      -1.251432     -0.733614     -6.522517
  C       0.131704     -0.055186     -8.062928
  H       1.008178      0.631474     -8.156396
  H       0.481374     -1.048028     -8.437870
  C      -1.020805      0.463735     -8.961360
  H      -1.862151     -0.271172     -8.939213
  H      -1.437353      1.401880     -8.519090
  C      -0.612761      0.752865    -10.434769
  H       0.086822      1.624333    -10.450542
  H      -1.518330      1.081530    -11.001906
  C       0.052025     -0.430022    -11.194663
  H       0.342749     -0.081467    -12.215979
  H       1.008984     -0.707906    -10.690300
  C      -0.836528     -1.694580    -11.333059
  H      -1.138154     -2.065220    -10.324969
  H      -1.789955     -1.418152    -11.848425
  C      -0.142987     -2.843677    -12.106325
  H       0.131586     -2.529946    -13.141098
  H       0.797172     -3.161238    -11.596610
  H      -0.802183     -3.737789    -12.187949
138
Coordinates from ORCA-job /wrk/rja7/qm_final_3_replicates/qm_final_1.1/qm/7/freq E -2722.581382759304
  N       5.352349      2.944669     12.593063
  C       4.230194      3.260026     11.545379
  H       4.053077      4.355958     11.634905
  H       3.345530      2.676773     11.875252
  C       5.685355      1.440120     12.678707
  H       6.190115      1.137634     11.743246
  H       6.341968      1.297582     13.562979
  H       4.726896      0.881553     12.750532
  C       4.828027      3.386516     13.955236
  H       4.583334      4.468024     13.919048
  H       3.916870      2.801373     14.192094
  H       5.607358      3.198465     14.722871
  C       6.619595      3.721106     12.268836
  H       6.387588      4.805745     12.225240
  H       7.015528      3.380823     11.292655
  H       7.372761      3.525610     13.060376
  C       4.555861      2.903175     10.071324
  H       3.645610      3.244556      9.506482
  H       5.405903      3.528994      9.696531
  P       3.626957      0.306325     10.094054
  O       2.966521      0.623030     11.446203
  O       4.316681     -0.984276      9.714717
  O       4.871251      1.546963      9.829732
  O       2.523788      0.831334      8.922428
  C       2.833109      0.547298      7.544613
  H       2.932107     -0.553344      7.379655
  H       3.805677      1.016694      7.245143
  C       1.705262      1.131731      6.674582
  H       1.502572      2.179376      6.986885
  O       0.505617      0.319054      6.901059
  C      -0.713499      0.949648      7.016303
  O      -0.883762      2.157754      6.924014
  C      -1.820105     -0.091141      7.256135
  H      -2.783542      0.462535      7.309717
  H      -1.637858     -0.553672      8.255382
  C       2.053423      1.092373      5.170047
  H       2.215879      0.044850      4.830914
  H       2.970769      1.693898      4.979109
  O       0.947553      1.586509      4.353507
  C       0.850522      2.957758      4.179454
  O       1.675749      3.755383      4.599588
  C      -0.380679      3.313747      3.337871
  H      -1.178132      2.553516      3.489379
  H      -0.756885      4.291805      3.711759
  C      -1.879009     -1.211159      6.174736
  H      -2.670887     -1.940948      6.471687
  H      -0.917593     -1.775155      6.182286
  C      -2.175400     -0.687416      4.745746
  H      -1.410552      0.071602      4.457244
  H      -3.158482     -0.153507      4.748457
  C      -2.201300     -1.804753      3.673048
  H      -2.904976     -2.614402      3.991527
  H      -1.193179     -2.285715      3.618430
  C      -2.612831     -1.303607      2.263980
  H      -1.926399     -0.477385      1.957222
  H      -3.631475     -0.844764      2.322361
  C      -2.619470     -2.422960      1.191302
  H      -3.260410     -3.261097      1.558592
  H      -1.590961     -2.848658      1.088656
  C      -3.140988     -1.987489     -0.209506
  H      -4.153780     -1.523793     -0.081694
  H      -3.314019     -2.899309     -0.827082
  C      -2.227084     -1.020810     -0.956372
  H      -1.624031     -0.340452     -0.324695
  C      -2.099865     -0.898502     -2.301422
  H      -1.399912     -0.130355     -2.689900
  C      -2.860561     -1.671670     -3.364774
  H      -3.392004     -2.545434     -2.923253
  H      -2.134235     -2.088910     -4.104798
  C      -3.905108     -0.785039     -4.114992
  H      -3.379420      0.076006     -4.596330
  H      -4.594967     -0.339241     -3.359421
  C      -4.736242     -1.551008     -5.181111
  H      -5.606758     -0.921135     -5.487350
  H      -5.176117     -2.467916     -4.714574
  C      -3.940057     -1.947865     -6.450468
  H      -3.009902     -2.495484     -6.166392
  H      -3.598481     -1.017673     -6.966339
  C      -4.739860     -2.812943     -7.457188
  H      -5.720274     -2.320982     -7.675955
  H      -4.990898     -3.796187     -6.987403
  C      -3.982555     -3.053624     -8.788943
  H      -2.968328     -3.474051     -8.572814
  H      -3.793849     -2.068916     -9.283715
  C      -4.727577     -3.985801     -9.776092
  H      -5.737724     -3.558289     -9.993583
  H      -4.917939     -4.969868     -9.280679
  C      -3.963648     -4.214268    -11.103793
  H      -4.534899     -4.868673    -11.801555
  H      -2.974083     -4.697221    -10.922893
  H      -3.766267     -3.250611    -11.628947
  C      -0.031490      3.440400      1.819681
  H       0.740093      4.237507      1.690810
  H      -0.942291      3.804242      1.285656
  C       0.462645      2.125864      1.163247
  H      -0.301052      1.325833      1.325529
  H       1.381558      1.766499      1.683215
  C       0.763487      2.258658     -0.351565
  H       1.466160      3.113289     -0.515994
  H      -0.173562      2.523617     -0.901171
  C       1.373758      0.969529     -0.958317
  H       2.307318      0.711290     -0.399223
  H       0.676642      0.114465     -0.788914
  C       1.703949      1.068083     -2.467709
  H       0.779490      1.312292     -3.046431
  H       2.406413      1.919204     -2.645721
  C       2.320692     -0.246630     -3.037467
  H       1.577339     -1.069229     -2.924001
  H       3.191278     -0.533077     -2.397685
  C       2.795290     -0.124314     -4.477402
  H       3.785556      0.359111     -4.609558
  C       2.139923     -0.517869     -5.598654
  H       2.650344     -0.351855     -6.568427
  C       0.764770     -1.159834     -5.685339
  H       0.343493     -1.331239     -4.669294
  H       0.860196     -2.171847     -6.156936
  C      -0.265955     -0.342039     -6.528191
  H      -0.431179      0.655945     -6.052741
  H      -1.244821     -0.872865     -6.483532
  C       0.128802     -0.156984     -8.017809
  H       1.020752      0.510945     -8.096995
  H       0.450965     -1.147075     -8.423038
  C      -1.015739      0.416998     -8.893408
  H      -1.871206     -0.301215     -8.893907
  H      -1.410641      1.346579     -8.414966
  C      -0.607368      0.756505    -10.356552
  H       0.115843      1.608496    -10.340056
  H      -1.507717      1.133684    -10.901050
  C       0.019675     -0.409906    -11.172886
  H       0.323049     -0.019873    -12.175153
  H       0.967557     -0.743153    -10.685389
  C      -0.908937     -1.636536    -11.376032
  H      -1.221090     -2.048577    -10.387710
  H      -1.854031     -1.305297    -11.874268
  C      -0.252166     -2.765157    -12.209084
  H       0.027970     -2.408991    -13.228532
  H       0.679320     -3.135520    -11.719533
  H      -0.937622     -3.634364    -12.332748
138
Coordinates from ORCA-job /wrk/rja7/qm_final_3_replicates/qm_final_1.1/qm/7/freq E -2722.581783868889
  N       5.333955      2.912221     12.692830
  C       4.234333      3.251198     11.626386
  H       4.041402      4.341088     11.748476
  H       3.349429      2.648749     11.917322
  C       5.666019      1.405384     12.751699
  H       6.188938      1.124062     11.820353
  H       6.305976      1.243881     13.644743
  H       4.709551      0.842248     12.792831
  C       4.773434      3.320102     14.050477
  H       4.524118      4.400917     14.033924
  H       3.859292      2.725443     14.248145
  H       5.533284      3.117628     14.833526
  C       6.608590      3.696218     12.422186
  H       6.377300      4.781652     12.404489
  H       7.028356      3.382902     11.447024
  H       7.341278      3.479132     13.227045
  C       4.584266      2.946583     10.144606
  H       3.677898      3.298088      9.580072
  H       5.433112      3.591172      9.801147
  P       3.666758      0.349918     10.072512
  O       2.998525      0.624677     11.428498
  O       4.360697     -0.926386      9.656442
  O       4.911207      1.600847      9.860062
  O       2.569633      0.906903      8.907316
  C       2.884439      0.652742      7.524403
  H       3.013862     -0.441882      7.342101
  H       3.843109      1.153638      7.230457
  C       1.739069      1.216569      6.662796
  H       1.513820      2.258888      6.977794
  O       0.557168      0.377308      6.891034
  C      -0.674636      0.981273      7.007770
  O      -0.869106      2.186774      6.929342
  C      -1.759534     -0.081625      7.252240
  H      -2.732215      0.454711      7.313588
  H      -1.561971     -0.542645      8.249377
  C       2.079854      1.186419      5.155502
  H       2.278742      0.143707      4.821005
  H       2.972384      1.821208      4.955619
  O       0.950719      1.632505      4.343153
  C       0.798160      2.997279      4.157152
  O       1.595561      3.830516      4.561146
  C      -0.445331      3.292041      3.309200
  H      -1.208340      2.499927      3.471176
  H      -0.864861      4.256686      3.671711
  C      -1.809605     -1.200518      6.169196
  H      -2.586647     -1.943713      6.472101
  H      -0.839585     -1.749660      6.165399
  C      -2.127841     -0.678471      4.744259
  H      -1.372032      0.085863      4.448734
  H      -3.114734     -0.151997      4.759890
  C      -2.159471     -1.793295      3.668361
  H      -2.849118     -2.611358      3.995750
  H      -1.147565     -2.263929      3.596767
  C      -2.595478     -1.291253      2.266624
  H      -1.919151     -0.460081      1.950865
  H      -3.615752     -0.838492      2.340705
  C      -2.615340     -2.406639      1.189874
  H      -3.253869     -3.244887      1.560782
  H      -1.589075     -2.834402      1.074099
  C      -3.150596     -1.964577     -0.204423
  H      -4.149637     -1.475969     -0.061927
  H      -3.356108     -2.874334     -0.814743
  C      -2.226720     -1.024302     -0.971514
  H      -1.618039     -0.335567     -0.353553
  C      -2.091009     -0.934697     -2.318824
  H      -1.380524     -0.182440     -2.718600
  C      -2.858803     -1.715767     -3.372467
  H      -3.390310     -2.585123     -2.921687
  H      -2.137906     -2.140920     -4.112462
  C      -3.903892     -0.829568     -4.123656
  H      -3.376160      0.026305     -4.612018
  H      -4.586146     -0.375782     -3.366098
  C      -4.747476     -1.590679     -5.184389
  H      -5.610467     -0.949660     -5.488724
  H      -5.198480     -2.500145     -4.714177
  C      -3.962458     -1.999111     -6.457677
  H      -3.054554     -2.585045     -6.178490
  H      -3.584494     -1.074304     -6.957098
  C      -4.792504     -2.814871     -7.481770
  H      -5.746840     -2.275518     -7.704009
  H      -5.094800     -3.789667     -7.024520
  C      -4.033461     -3.078269     -8.807817
  H      -3.055050     -3.572013     -8.584631
  H      -3.770767     -2.098444     -9.278652
  C      -4.820951     -3.937237     -9.829801
  H      -5.795908     -3.438534    -10.055351
  H      -5.085557     -4.917442     -9.361890
  C      -4.047979     -4.183022    -11.149122
  H      -4.643470     -4.791425    -11.868018
  H      -3.089826     -4.723740    -10.963553
  H      -3.790082     -3.222126    -11.652500
  C      -0.107447      3.413596      1.787994
  H       0.617595      4.250809      1.643953
  H      -1.038471      3.715860      1.251016
  C       0.460817      2.118459      1.151326
  H      -0.253563      1.277078      1.329205
  H       1.400704      1.825905      1.675332
  C       0.745677      2.241812     -0.366965
  H       1.418698      3.116379     -0.549481
  H      -0.205050      2.470070     -0.909559
  C       1.389891      0.965745     -0.966200
  H       2.328333      0.733930     -0.403973
  H       0.713066      0.094508     -0.795421
  C       1.716620      1.065826     -2.477040
  H       0.789351      1.304607     -3.053529
  H       2.412850      1.921674     -2.656182
  C       2.345475     -0.242826     -3.047773
  H       1.607501     -1.071804     -2.946132
  H       3.212317     -0.525576     -2.401040
  C       2.833891     -0.110434     -4.482484
  H       3.815808      0.393001     -4.601317
  C       2.200603     -0.514254     -5.612346
  H       2.718282     -0.332121     -6.575330
  C       0.842213     -1.187234     -5.718346
  H       0.418795     -1.379916     -4.707064
  H       0.966219     -2.190900     -6.200825
  C      -0.203998     -0.383271     -6.555248
  H      -0.380859      0.610682     -6.075465
  H      -1.175357     -0.927282     -6.507557
  C       0.178477     -0.185058     -8.046224
  H       1.077093      0.473449     -8.125245
  H       0.483542     -1.173319     -8.468369
  C      -0.969626      0.411543     -8.902159
  H      -1.839493     -0.289275     -8.885508
  H      -1.336499      1.349288     -8.417480
  C      -0.582904      0.742716    -10.373382
  H       0.161211      1.576641    -10.371426
  H      -1.485511      1.142896    -10.897083
  C       0.000364     -0.435215    -11.206207
  H       0.280836     -0.050532    -12.217188
  H       0.956735     -0.782954    -10.746135
  C      -0.951390     -1.648739    -11.379205
  H      -1.235016     -2.057501    -10.381123
  H      -1.907980     -1.304851    -11.846034
  C      -0.339283     -2.785203    -12.235029
  H      -0.089202     -2.432116    -13.263371
  H       0.603274     -3.169198    -11.778237
  H      -1.040589     -3.644734    -12.335061
138
Coordinates from ORCA-job /wrk/rja7/qm_final_3_replicates/qm_final_1.1/qm/7/freq E -2722.581922633979
  N       5.433576      2.876582     12.701559
  C       4.285369      3.272334     11.710235
  H       4.114565      4.361304     11.875419
  H       3.405994      2.672188     12.026869
  C       5.725185      1.360305     12.684728
  H       6.184989      1.102903     11.712243
  H       6.413903      1.146688     13.531044
  H       4.759254      0.816866     12.759935
  C       4.961277      3.252760     14.101226
  H       4.738750      4.339914     14.134610
  H       4.043070      2.672978     14.329847
  H       5.758924      3.006669     14.834441
  C       6.711889      3.634889     12.384017
  H       6.509724      4.726969     12.420164
  H       7.065116      3.346561     11.373571
  H       7.484183      3.370086     13.137594
  C       4.554785      3.004260     10.208391
  H       3.622066      3.370377      9.699435
  H       5.388086      3.652586      9.834003
  P       3.603774      0.425006     10.098355
  O       2.944412      0.703429     11.458646
  O       4.278512     -0.858886      9.668407
  O       4.863373      1.662530      9.886840
  O       2.510819      1.002898      8.934070
  C       2.822855      0.746555      7.551772
  H       2.979967     -0.345377      7.376197
  H       3.766681      1.269948      7.248555
  C       1.662526      1.273069      6.690288
  H       1.406573      2.311572      6.994255
  O       0.503835      0.403682      6.923383
  C      -0.745530      0.973872      7.048289
  O      -0.977165      2.175175      6.989840
  C      -1.799906     -0.124678      7.262272
  H      -2.787849      0.381311      7.340692
  H      -1.586817     -0.611921      8.243741
  C       2.010204      1.237279      5.183756
  H       2.251928      0.198277      4.865164
  H       2.877146      1.905097      4.979418
  O       0.867344      1.625602      4.359400
  C       0.660491      2.979571      4.141795
  O       1.420875      3.851957      4.534938
  C      -0.586233      3.202136      3.273266
  H      -1.315148      2.378469      3.445484
  H      -1.053970      4.153260      3.611823
  C      -1.815613     -1.206155      6.142274
  H      -2.567464     -1.985124      6.418486
  H      -0.827960     -1.723188      6.118900
  C      -2.152400     -0.644808      4.736086
  H      -1.419292      0.152665      4.467951
  H      -3.154925     -0.149019      4.768021
  C      -2.145192     -1.724577      3.622578
  H      -2.796987     -2.582289      3.925834
  H      -1.114680     -2.149477      3.531085
  C      -2.607678     -1.196384      2.240389
  H      -1.970450     -0.326212      1.948472
  H      -3.646464     -0.790746      2.330426
  C      -2.583355     -2.277676      1.128320
  H      -3.187295     -3.152364      1.472846
  H      -1.541095     -2.660862      0.998546
  C      -3.140449     -1.816785     -0.251650
  H      -4.147656     -1.350864     -0.089610
  H      -3.335381     -2.716998     -0.879630
  C      -2.244486     -0.841379     -1.007736
  H      -1.682581     -0.116256     -0.386019
  C      -2.082960     -0.765077     -2.354387
  H      -1.401364      0.014614     -2.752186
  C      -2.798741     -1.596097     -3.407780
  H      -3.273783     -2.495396     -2.952421
  H      -2.053921     -1.979479     -4.146862
  C      -3.901421     -0.781072     -4.159392
  H      -3.433803      0.104749     -4.655649
  H      -4.606522     -0.367425     -3.399431
  C      -4.705890     -1.603005     -5.206340
  H      -5.602669     -1.012852     -5.516492
  H      -5.107080     -2.525547     -4.716527
  C      -3.911453     -1.995657     -6.480163
  H      -2.990714     -2.561007     -6.198448
  H      -3.553273     -1.064049     -6.982771
  C      -4.729129     -2.840228     -7.492526
  H      -5.688654     -2.315013     -7.727546
  H      -5.023167     -3.806083     -7.010646
  C      -3.975392     -3.136930     -8.815572
  H      -3.008067     -3.652340     -8.587236
  H      -3.691066     -2.171254     -9.302631
  C      -4.786367     -3.998361     -9.819013
  H      -5.748990     -3.479739    -10.052941
  H      -5.073379     -4.961566     -9.328771
  C      -4.029166     -4.292551    -11.139155
  H      -4.638086     -4.919476    -11.830706
  H      -3.073319     -4.834664    -10.948758
  H      -3.772836     -3.350758    -11.677429
  C      -0.239978      3.310664      1.751902
  H       0.433315      4.188363      1.596628
  H      -1.181913      3.541750      1.198809
  C       0.414973      2.041320      1.147444
  H      -0.242212      1.158214      1.343171
  H       1.371720      1.828384      1.680329
  C       0.693281      2.150738     -0.373334
  H       1.337145      3.043680     -0.571281
  H      -0.266426      2.342263     -0.915407
  C       1.373741      0.887282     -0.960276
  H       2.313090      0.678326     -0.390364
  H       0.713610      0.001011     -0.795874
  C       1.708386      0.993223     -2.469432
  H       0.781650      1.228124     -3.048386
  H       2.399214      1.854808     -2.643656
  C       2.346892     -0.309520     -3.040997
  H       1.606526     -1.139016     -2.962135
  H       3.203808     -0.599009     -2.382863
  C       2.855457     -0.159907     -4.465972
  H       3.824347      0.372313     -4.568947
  C       2.248192     -0.577451     -5.606619
  H       2.771971     -0.375590     -6.563092
  C       0.910508     -1.286455     -5.731147
  H       0.491967     -1.511570     -4.724512
  H       1.061791     -2.275744     -6.235916
  C      -0.155270     -0.483571     -6.544779
  H      -0.343309      0.495870     -6.039735
  H      -1.119362     -1.041872     -6.504993
  C       0.213212     -0.238528     -8.031960
  H       1.121658      0.407827     -8.100754
  H       0.493407     -1.215614     -8.495312
  C      -0.937333      0.410905     -8.844231
  H      -1.819844     -0.272905     -8.837393
  H      -1.276787      1.336894     -8.318622
  C      -0.572808      0.782396    -10.309970
  H       0.183980      1.604907    -10.298483
  H      -1.479153      1.211501    -10.804112
  C      -0.024781     -0.381370    -11.183995
  H       0.219689      0.019215    -12.198786
  H       0.947319     -0.739533    -10.765238
  C      -0.984769     -1.590612    -11.335417
  H      -1.217916     -2.024484    -10.331656
  H      -1.962520     -1.235753    -11.745217
  C      -0.418239     -2.705721    -12.249574
  H      -0.221292     -2.326903    -13.280428
  H       0.546810     -3.101853    -11.853550
  H      -1.124534     -3.563284    -12.334630
138
Coordinates from ORCA-job /wrk/rja7/qm_final_3_replicates/qm_final_1.1/qm/7/freq E -2722.582548480059
  N       5.282196      2.987127     12.822271
  C       4.173071      3.348615     11.776123
  H       3.990773      4.440497     11.902355
  H       3.284879      2.752048     12.072888
  C       5.578908      1.473654     12.858014
  H       6.074640      1.192857     11.910072
  H       6.237535      1.283586     13.733193
  H       4.616016      0.924644     12.910895
  C       4.753693      3.402399     14.190835
  H       4.533009      4.490089     14.186607
  H       3.825991      2.830654     14.398486
  H       5.519476      3.173716     14.961946
  C       6.570064      3.739758     12.534441
  H       6.363884      4.831290     12.528173
  H       6.967828      3.422639     11.549616
  H       7.310914      3.503682     13.327518
  C       4.500671      3.035130     10.294809
  H       3.583300      3.368693      9.738319
  H       5.337268      3.685959      9.932369
  P       3.593375      0.436351     10.196848
  O       2.883714      0.706865     11.531758
  O       4.295944     -0.841278      9.794795
  O       4.845125      1.688468     10.025714
  O       2.535512      0.997498      8.991714
  C       2.891203      0.724911      7.622803
  H       3.054119     -0.368551      7.464375
  H       3.844196      1.246320      7.345484
  C       1.759782      1.243026      6.718750
  H       1.502315      2.288519      6.996632
  O       0.588073      0.385393      6.929687
  C      -0.660920      0.962770      6.992698
  O      -0.882891      2.163088      6.899474
  C      -1.729216     -0.126967      7.186327
  H      -2.714921      0.386763      7.236819
  H      -1.545644     -0.609359      8.175911
  C       2.151438      1.179074      5.223635
  H       2.370168      0.129638      4.923599
  H       3.042610      1.819928      5.038338
  O       1.047464      1.601280      4.365282
  C       0.915742      2.960386      4.125010
  O       1.712156      3.796327      4.524786
  C      -0.314020      3.243647      3.251280
  H      -1.085335      2.459659      3.421993
  H      -0.734280      4.218306      3.584858
  C      -1.730116     -1.214260      6.070720
  H      -2.478044     -1.996152      6.349214
  H      -0.739327     -1.725318      6.052878
  C      -2.068078     -0.659664      4.662107
  H      -1.332538      0.132844      4.389269
  H      -3.068606     -0.160324      4.696485
  C      -2.069444     -1.740869      3.549911
  H      -2.724628     -2.594518      3.856872
  H      -1.041469     -2.170967      3.453892
  C      -2.537118     -1.207499      2.171227
  H      -1.900253     -0.337123      1.879393
  H      -3.575239     -0.801793      2.267819
  C      -2.521435     -2.280219      1.050768
  H      -3.110963     -3.162870      1.399809
  H      -1.478594     -2.652517      0.897359
  C      -3.112499     -1.810408     -0.312306
  H      -4.115349     -1.346804     -0.120227
  H      -3.321834     -2.705500     -0.942395
  C      -2.241042     -0.823377     -1.081029
  H      -1.692031     -0.081892     -0.467014
  C      -2.088943     -0.750933     -2.429402
  H      -1.428547      0.043513     -2.833056
  C      -2.789514     -1.603020     -3.476730
  H      -3.218778     -2.524328     -3.019818
  H      -2.042914     -1.948336     -4.232148
  C      -3.938598     -0.827317     -4.199685
  H      -3.517728      0.079806     -4.699175
  H      -4.643125     -0.448632     -3.421303
  C      -4.732704     -1.670395     -5.237291
  H      -5.651826     -1.107035     -5.531625
  H      -5.097252     -2.606411     -4.744818
  C      -3.947058     -2.035215     -6.525137
  H      -3.011809     -2.584383     -6.259149
  H      -3.611967     -1.092232     -7.022470
  C      -4.761176     -2.888263     -7.532661
  H      -5.727827     -2.374164     -7.762044
  H      -5.042501     -3.856390     -7.047737
  C      -4.011702     -3.177516     -8.859873
  H      -3.035858     -3.676629     -8.633224
  H      -3.746376     -2.209821     -9.352957
  C      -4.815872     -4.058782     -9.851990
  H      -5.789891     -3.559959    -10.081054
  H      -5.080839     -5.024255     -9.354130
  C      -4.064509     -4.346029    -11.176040
  H      -4.664636     -4.993331    -11.856475
  H      -3.093483     -4.862136    -10.991422
  H      -3.837745     -3.402785    -11.724611
  C       0.044509      3.324636      1.732871
  H       0.775765      4.154305      1.577716
  H      -0.879302      3.614826      1.176980
  C       0.608820      2.009336      1.134103
  H      -0.104585      1.174396      1.341311
  H       1.553395      1.734462      1.660657
  C       0.881974      2.089795     -0.388316
  H       1.586821      2.933045     -0.594966
  H      -0.066752      2.348240     -0.922459
  C       1.465202      0.778841     -0.974958
  H       2.394115      0.507103     -0.414653
  H       0.746122     -0.058846     -0.799265
  C       1.790191      0.859796     -2.487744
  H       0.877669      1.164681     -3.056142
  H       2.541805      1.667774     -2.667242
  C       2.333409     -0.480703     -3.070684
  H       1.545946     -1.264065     -2.980411
  H       3.182128     -0.822803     -2.427219
  C       2.829211     -0.352674     -4.502308
  H       3.811304      0.152073     -4.615973
  C       2.199921     -0.751461     -5.636872
  H       2.719485     -0.557858     -6.597304
  C       0.847599     -1.432932     -5.756049
  H       0.446102     -1.689850     -4.750320
  H       0.975388     -2.404669     -6.299312
  C      -0.220595     -0.581893     -6.513651
  H      -0.377842      0.378642     -5.964170
  H      -1.194667     -1.123323     -6.474423
  C       0.119325     -0.273950     -7.995479
  H       1.040662      0.355076     -8.052678
  H       0.364696     -1.231417     -8.515901
  C      -1.034874      0.443459     -8.743117
  H      -1.929441     -0.224697     -8.758223
  H      -1.344388      1.341257     -8.154290
  C      -0.691841      0.901604    -10.188976
  H       0.077305      1.711035    -10.139044
  H      -1.601656      1.374946    -10.634006
  C      -0.175411     -0.207388    -11.148283
  H       0.033146      0.255692    -12.144271
  H       0.812140     -0.587878    -10.789006
  C      -1.136914     -1.409201    -11.340316
  H      -1.318407     -1.916673    -10.361083
  H      -2.135810     -1.034960    -11.675545
  C      -0.609517     -2.447756    -12.361576
  H      -0.460993     -1.990806    -13.368568
  H       0.373302     -2.868373    -12.041150
  H      -1.316502     -3.299736    -12.480912
138
Coordinates from ORCA-job /wrk/rja7/qm_final_3_replicates/qm_final_1.1/qm/7/freq E -2722.582883173671
  N       5.257246      3.046559     12.798873
  C       4.156194      3.370804     11.733880
  H       3.975617      4.465203     11.826548
  H       3.265712      2.785347     12.042249
  C       5.555672      1.537408     12.902366
  H       6.056214      1.215842     11.971702
  H       6.207802      1.386328     13.788602
  H       4.593059      0.990386     12.974911
  C       4.723140      3.516694     14.147584
  H       4.508782      4.603781     14.099524
  H       3.792923      2.959523     14.376323
  H       5.484131      3.314122     14.928980
  C       6.545460      3.788838     12.485466
  H       6.338396      4.877644     12.428924
  H       6.951233      3.431089     11.519463
  H       7.281679      3.589885     13.291426
  C       4.496845      3.018409     10.262103
  H       3.587814      3.346145      9.689034
  H       5.343396      3.651915      9.892399
  P       3.559942      0.433920     10.235542
  O       2.853809      0.752714     11.560180
  O       4.245017     -0.864634      9.875597
  O       4.827290      1.662494     10.027019
  O       2.515948      0.978566      9.014148
  C       2.875277      0.668714      7.654178
  H       3.018663     -0.430699      7.520180
  H       3.839787      1.166051      7.372189
  C       1.759028      1.191278      6.732558
  H       1.516932      2.244556      6.994184
  O       0.571720      0.357904      6.949538
  C      -0.664768      0.959916      6.976205
  O      -0.857922      2.159831      6.833412
  C      -1.760194     -0.102611      7.172400
  H      -2.734309      0.433964      7.199837
  H      -1.603186     -0.573452      8.171637
  C       2.158519      1.106668      5.240860
  H       2.356923      0.051491      4.948680
  H       3.063424      1.728125      5.057142
  O       1.068737      1.548047      4.375716
  C       0.960221      2.909301      4.138778
  O       1.762577      3.735793      4.547061
  C      -0.262531      3.212018      3.265717
  H      -1.039030      2.430715      3.419660
  H      -0.676926      4.184642      3.612120
  C      -1.770010     -1.207390      6.074123
  H      -2.536929     -1.968950      6.356631
  H      -0.789993     -1.738319      6.076467
  C      -2.075076     -0.669753      4.652792
  H      -1.311160      0.091476      4.370872
  H      -3.058562     -0.137402      4.668077
  C      -2.104634     -1.772382      3.564765
  H      -2.797636     -2.591376      3.881963
  H      -1.093660     -2.244804      3.490793
  C      -2.534452     -1.249427      2.170359
  H      -1.857277     -0.414534      1.866312
  H      -3.554784     -0.797500      2.248291
  C      -2.556836     -2.343924      1.073428
  H      -3.176997     -3.197554      1.440590
  H      -1.528237     -2.755023      0.925070
  C      -3.133916     -1.874066     -0.294528
  H      -4.119442     -1.374619     -0.104215
  H      -3.373320     -2.768165     -0.914203
  C      -2.232951     -0.922214     -1.070859
  H      -1.668813     -0.188600     -0.462108
  C      -2.080769     -0.860605     -2.418561
  H      -1.404073     -0.082131     -2.826007
  C      -2.800132     -1.700504     -3.460990
  H      -3.217675     -2.628947     -3.007424
  H      -2.068754     -2.030265     -4.236669
  C      -3.964481     -0.916521     -4.145863
  H      -3.555399     -0.000624     -4.639047
  H      -4.654046     -0.552571     -3.347758
  C      -4.776018     -1.742542     -5.181038
  H      -5.698221     -1.173053     -5.452305
  H      -5.133691     -2.686155     -4.698705
  C      -4.005688     -2.089790     -6.481221
  H      -3.077507     -2.659339     -6.235916
  H      -3.658890     -1.141851     -6.959253
  C      -4.838423     -2.899605     -7.505038
  H      -5.799935     -2.366710     -7.710061
  H      -5.128381     -3.880810     -7.053440
  C      -4.094216     -3.141578     -8.842638
  H      -3.111607     -3.632149     -8.633079
  H      -3.844545     -2.156875     -9.308744
  C      -4.891725     -4.002147     -9.855161
  H      -5.875404     -3.512594    -10.061382
  H      -5.137365     -4.987586     -9.388216
  C      -4.141838     -4.231166    -11.189758
  H      -4.732915     -4.865466    -11.889832
  H      -3.160859     -4.735705    -11.024973
  H      -3.932305     -3.265457    -11.705928
  C       0.106264      3.314865      1.752967
  H       0.857114      4.129690      1.617437
  H      -0.808673      3.637439      1.199935
  C       0.643421      1.998883      1.132044
  H      -0.089728      1.176764      1.318563
  H       1.577808      1.688169      1.656455
  C       0.928640      2.101156     -0.386277
  H       1.639700      2.943592     -0.573422
  H      -0.013886      2.371849     -0.924772
  C       1.515285      0.797417     -0.982696
  H       2.437715      0.518391     -0.415603
  H       0.794548     -0.039599     -0.821243
  C       1.855483      0.892013     -2.490909
  H       0.948460      1.196405     -3.067583
  H       2.606611      1.703486     -2.655278
  C       2.412706     -0.441496     -3.077482
  H       1.632575     -1.231400     -2.988786
  H       3.263479     -0.777106     -2.433940
  C       2.907382     -0.305822     -4.509146
  H       3.878281      0.220040     -4.620586
  C       2.289562     -0.716497     -5.645643
  H       2.809898     -0.515796     -6.603596
  C       0.946276     -1.416965     -5.770896
  H       0.552185     -1.696135     -4.768543
  H       1.089598     -2.377821     -6.327933
  C      -0.138346     -0.577890     -6.517349
  H      -0.311052      0.376214     -5.961612
  H      -1.103678     -1.135224     -6.478416
  C       0.191455     -0.258423     -7.999104
  H       1.102358      0.385531     -8.055419
  H       0.452799     -1.209537     -8.523275
  C      -0.976856      0.442110     -8.741952
  H      -1.863688     -0.237890     -8.751798
  H      -1.293886      1.335629     -8.150631
  C      -0.647993      0.909305    -10.189070
  H       0.131518      1.708758    -10.141071
  H      -1.558559      1.400069    -10.613175
  C      -0.163754     -0.190451    -11.176559
  H       0.030851      0.290147    -12.166368
  H       0.825956     -0.591566    -10.846741
  C      -1.146842     -1.373963    -11.379938
  H      -1.306511     -1.908856    -10.415682
  H      -2.150766     -0.976223    -11.672677
  C      -0.665557     -2.385563    -12.449196
  H      -0.538299     -1.898280    -13.444626
  H       0.318739     -2.831601    -12.170492
  H      -1.389309     -3.221774    -12.575420
138
Coordinates from ORCA-job /wrk/rja7/qm_final_3_replicates/qm_final_1.1/qm/7/freq E -2722.583152000323
  N       5.238858      2.964166     12.891389
  C       4.169844      3.348538     11.811043
  H       4.020971      4.445404     11.931710
  H       3.255501      2.782932     12.085909
  C       5.487177      1.443944     12.971255
  H       6.004627      1.124771     12.048962
  H       6.107201      1.257335     13.873976
  H       4.503911      0.929513     13.005594
  C       4.691886      3.421567     14.238648
  H       4.513975      4.516229     14.210125
  H       3.738845      2.890683     14.435191
  H       5.429624      3.179103     15.031524
  C       6.555749      3.672281     12.620045
  H       6.383168      4.768314     12.583693
  H       6.970444      3.322749     11.654683
  H       7.268293      3.431984     13.436413
  C       4.532014      3.030989     10.335454
  H       3.640428      3.395143      9.756831
  H       5.398926      3.655561      9.998980
  P       3.537376      0.466490     10.224125
  O       2.816076      0.771044     11.544389
  O       4.205685     -0.835696      9.844343
  O       4.833123      1.675506     10.061970
  O       2.519075      1.053710      8.997211
  C       2.891005      0.761424      7.636962
  H       3.049307     -0.335109      7.495018
  H       3.851192      1.272928      7.365294
  C       1.776120      1.276461      6.708801
  H       1.520583      2.325778      6.973002
  O       0.595912      0.429727      6.913663
  C      -0.648718      1.017519      6.934016
  O      -0.855221      2.217079      6.807011
  C      -1.731497     -0.058221      7.127050
  H      -2.711131      0.467600      7.165609
  H      -1.561858     -0.539235      8.119377
  C       2.182752      1.198941      5.218401
  H       2.403009      0.147817      4.927538
  H       3.076527      1.837094      5.037257
  O       1.084371      1.616423      4.350418
  C       0.947559      2.974602      4.107160
  O       1.741982      3.817268      4.497474
  C      -0.278718      3.248101      3.228558
  H      -1.047540      2.461888      3.394760
  H      -0.701609      4.222065      3.560972
  C      -1.733919     -1.151413      6.016775
  H      -2.497118     -1.921359      6.286548
  H      -0.750534     -1.676336      6.016926
  C      -2.037110     -0.603014      4.598220
  H      -1.278842      0.168287      4.327021
  H      -3.025875     -0.080335      4.611146
  C      -2.050217     -1.698086      3.500852
  H      -2.730270     -2.530438      3.811559
  H      -1.031880     -2.154206      3.424557
  C      -2.490036     -1.175187      2.109160
  H      -1.830221     -0.325231      1.808672
  H      -3.518676     -0.742987      2.190937
  C      -2.492565     -2.265768      1.006622
  H      -3.095571     -3.133494      1.369578
  H      -1.456064     -2.655410      0.855503
  C      -3.083242     -1.802634     -0.359690
  H      -4.079458     -1.327766     -0.161372
  H      -3.304425     -2.697693     -0.984758
  C      -2.212089     -0.821713     -1.133214
  H      -1.694831     -0.053628     -0.525430
  C      -2.042892     -0.766701     -2.479987
  H      -1.400817      0.041603     -2.886297
  C      -2.704459     -1.652150     -3.524445
  H      -3.031054     -2.619389     -3.076235
  H      -1.962957     -1.907078     -4.317833
  C      -3.949179     -0.964845     -4.172519
  H      -3.631718     -0.018893     -4.676893
  H      -4.637972     -0.655928     -3.350965
  C      -4.731795     -1.852631     -5.180168
  H      -5.697168     -1.347282     -5.426963
  H      -5.011842     -2.813201     -4.679952
  C      -3.981749     -2.159474     -6.502691
  H      -3.020918     -2.684003     -6.285045
  H      -3.696765     -1.194964     -6.989417
  C      -4.804808     -3.006307     -7.505365
  H      -5.792766     -2.513649     -7.685212
  H      -5.041766     -3.998411     -7.046688
  C      -4.090103     -3.219098     -8.864519
  H      -3.088941     -3.685155     -8.686443
  H      -3.880739     -2.224889     -9.330606
  C      -4.891801     -4.091691     -9.863687
  H      -5.893400     -3.625685    -10.036741
  H      -5.097564     -5.088017     -9.400432
  C      -4.176170     -4.286586    -11.222809
  H      -4.765100     -4.939580    -11.907369
  H      -3.173003     -4.756127    -11.090508
  H      -4.018270     -3.311498    -11.740080
  C       0.088175      3.333823      1.713673
  H       0.824044      4.160009      1.564491
  H      -0.832651      3.631348      1.156180
  C       0.644738      2.017662      1.111861
  H      -0.070760      1.184876      1.320207
  H       1.590675      1.733340      1.630619
  C       0.911597      2.099626     -0.411741
  H       1.606994      2.950522     -0.619965
  H      -0.039487      2.346683     -0.946161
  C       1.511754      0.795424     -0.994525
  H       2.441223      0.533794     -0.430583
  H       0.801481     -0.048146     -0.817439
  C       1.846591      0.876868     -2.504415
  H       0.933998      1.160454     -3.082889
  H       2.585748      1.697079     -2.680422
  C       2.412883     -0.458565     -3.076169
  H       1.633998     -1.249064     -2.980500
  H       3.265472     -0.784723     -2.429992
  C       2.906125     -0.332620     -4.508205
  H       3.867379      0.210154     -4.625396
  C       2.296430     -0.767889     -5.639594
  H       2.813675     -0.571996     -6.600306
  C       0.960846     -1.484439     -5.752931
  H       0.584430     -1.775989     -4.746842
  H       1.105814     -2.439012     -6.320112
  C      -0.142415     -0.649693     -6.477666
  H      -0.321815      0.294941     -5.907562
  H      -1.101475     -1.217548     -6.439223
  C       0.174442     -0.305205     -7.956441
  H       1.092568      0.328651     -8.010918
  H       0.420006     -1.249122     -8.501531
  C      -0.992680      0.425198     -8.670350
  H      -1.889069     -0.241777     -8.687809
  H      -1.292598      1.309018     -8.055609
  C      -0.671839      0.918120    -10.109530
  H       0.128041      1.696878    -10.054278
  H      -1.574529      1.441376    -10.511627
  C      -0.230010     -0.172697    -11.125376
  H      -0.044364      0.320672    -12.110695
  H       0.756102     -0.602646    -10.820836
  C      -1.244266     -1.329197    -11.328340
  H      -1.387249     -1.883449    -10.371969
  H      -2.246497     -0.900245    -11.580569
  C      -0.817790     -2.326481    -12.433827
  H      -0.710818     -1.818577    -13.421309
  H       0.165410     -2.798381    -12.197455
  H      -1.562477     -3.145421    -12.554470
138
Coordinates from ORCA-job /wrk/rja7/qm_final_3_replicates/qm_final_1.1/qm/7/freq E -2722.583343319342
  N       5.275250      2.965466     12.859008
  C       4.172905      3.346574     11.812749
  H       4.005222      4.438947     11.950294
  H       3.276402      2.759974     12.102558
  C       5.550388      1.448112     12.903187
  H       6.048252      1.154367     11.961542
  H       6.196780      1.254314     13.785322
  H       4.576631      0.917200     12.954023
  C       4.756365      3.391358     14.227725
  H       4.558983      4.482986     14.221673
  H       3.817923      2.840350     14.438950
  H       5.517987      3.148540     14.997724
  C       6.572660      3.701694     12.567177
  H       6.378740      4.794513     12.551338
  H       6.968393      3.373777     11.586513
  H       7.309792      3.462362     13.361949
  C       4.507449      3.049596     10.327713
  H       3.598006      3.403891      9.770802
  H       5.356047      3.691648      9.978791
  P       3.560634      0.467928     10.207970
  O       2.843281      0.755752     11.534088
  O       4.251291     -0.820329      9.821579
  O       4.831488      1.702205     10.040477
  O       2.524481      1.040357      8.989367
  C       2.890508      0.753434      7.626588
  H       3.057379     -0.341721      7.483027
  H       3.844586      1.273416      7.349500
  C       1.765105      1.259676      6.706401
  H       1.500820      2.305904      6.974691
  O       0.595233      0.399843      6.917643
  C      -0.655279      0.974580      6.951830
  O      -0.874934      2.172736      6.839728
  C      -1.724043     -0.110591      7.165421
  H      -2.706287      0.407568      7.232003
  H      -1.526906     -0.597681      8.149734
  C       2.165493      1.191057      5.213688
  H       2.388631      0.142200      4.916544
  H       3.056974      1.832568      5.032558
  O       1.062689      1.607678      4.351071
  C       0.919239      2.966023      4.114208
  O       1.714040      3.809534      4.500771
  C      -0.316970      3.238295      3.249266
  H      -1.079768      2.447718      3.420727
  H      -0.742280      4.208375      3.590156
  C      -1.745727     -1.196306      6.047824
  H      -2.504399     -1.967876      6.325232
  H      -0.762073     -1.720898      6.028819
  C      -2.070825     -0.638830      4.637559
  H      -1.314496      0.131217      4.358709
  H      -3.057260     -0.112337      4.668523
  C      -2.102743     -1.728066      3.534779
  H      -2.788176     -2.555945      3.845720
  H      -1.089003     -2.192301      3.448095
  C      -2.546613     -1.193118      2.149076
  H      -1.877703     -0.350105      1.850106
  H      -3.569291     -0.748525      2.238861
  C      -2.565733     -2.277697      1.040427
  H      -3.184763     -3.137203      1.395741
  H      -1.535310     -2.683826      0.891088
  C      -3.138581     -1.795813     -0.327247
  H      -4.129012     -1.306712     -0.134523
  H      -3.369014     -2.682795     -0.960717
  C      -2.245901     -0.823058     -1.086231
  H      -1.724277     -0.065108     -0.469871
  C      -2.055568     -0.772393     -2.429788
  H      -1.393897      0.023880     -2.828458
  C      -2.716872     -1.652876     -3.478862
  H      -3.045040     -2.621548     -3.034393
  H      -1.973196     -1.904548     -4.270201
  C      -3.959727     -0.962279     -4.128285
  H      -3.642245     -0.008360     -4.617358
  H      -4.655933     -0.667562     -3.307753
  C      -4.731785     -1.840452     -5.152289
  H      -5.698513     -1.336214     -5.396120
  H      -5.009096     -2.809640     -4.667286
  C      -3.977544     -2.122946     -6.478066
  H      -3.017829     -2.652574     -6.267788
  H      -3.688833     -1.149375     -6.946467
  C      -4.800607     -2.954743     -7.494333
  H      -5.787367     -2.456623     -7.667272
  H      -5.041161     -3.951853     -7.048417
  C      -4.092187     -3.155828     -8.858954
  H      -3.096748     -3.641066     -8.695336
  H      -3.868342     -2.156754     -9.307868
  C      -4.913717     -3.997457     -9.868472
  H      -5.910575     -3.514613    -10.022317
  H      -5.129464     -4.999842     -9.423066
  C      -4.215761     -4.175273    -11.239204
  H      -4.822576     -4.803164    -11.931477
  H      -3.218827     -4.663380    -11.128376
  H      -4.047013     -3.192013    -11.736791
  C       0.035128      3.332457      1.730740
  H       0.762909      4.165557      1.578859
  H      -0.891612      3.625609      1.181052
  C       0.602489      2.025277      1.119641
  H      -0.104045      1.184217      1.325789
  H       1.552010      1.748395      1.635828
  C       0.865869      2.118823     -0.404747
  H       1.548653      2.980895     -0.609513
  H      -0.089424      2.354963     -0.936145
  C       1.482398      0.826179     -0.997316
  H       2.416401      0.574318     -0.436417
  H       0.784321     -0.028568     -0.825868
  C       1.813099      0.922370     -2.507209
  H       0.895154      1.195017     -3.082793
  H       2.538958      1.755115     -2.679219
  C       2.397041     -0.401756     -3.088163
  H       1.626669     -1.202420     -3.004472
  H       3.248764     -0.724215     -2.438801
  C       2.899883     -0.258060     -4.514782
  H       3.854186      0.299171     -4.620321
  C       2.307536     -0.698544     -5.652519
  H       2.831057     -0.493277     -6.607884
  C       0.983752     -1.434282     -5.779758
  H       0.597013     -1.725381     -4.777164
  H       1.150320     -2.390393     -6.338588
  C      -0.120185     -0.621270     -6.527806
  H      -0.321205      0.327085     -5.971381
  H      -1.071155     -1.203062     -6.495276
  C       0.208725     -0.292245     -8.007132
  H       1.113600      0.360276     -8.060549
  H       0.481735     -1.239261     -8.533895
  C      -0.963538      0.402332     -8.746960
  H      -1.847512     -0.279920     -8.755382
  H      -1.284667      1.296244     -8.157831
  C      -0.635562      0.858206    -10.195775
  H       0.149358      1.652872    -10.154572
  H      -1.542582      1.349630    -10.626795
  C      -0.158373     -0.260071    -11.163421
  H       0.035792      0.198352    -12.164075
  H       0.828861     -0.661582    -10.825838
  C      -1.150193     -1.440236    -11.336102
  H      -1.306207     -1.952661    -10.356764
  H      -2.152890     -1.040601    -11.629051
  C      -0.679021     -2.480199    -12.382379
  H      -0.559953     -2.018046    -13.390756
  H       0.307694     -2.918248    -12.101132
  H      -1.403506     -3.320460    -12.479401
138
Coordinates from ORCA-job /wrk/rja7/qm_final_3_replicates/qm_final_1.1/qm/7/freq E -2722.583408169461
  N       5.237739      3.019709     12.868642
  C       4.129502      3.383755     11.823297
  H       3.949544      4.475285     11.952588
  H       3.239997      2.789626     12.119363
  C       5.525352      1.504951     12.918718
  H       6.022750      1.211344     11.976570
  H       6.176424      1.319235     13.799246
  H       4.557230      0.964913     12.975180
  C       4.719031      3.449739     14.236263
  H       4.514355      4.540045     14.225071
  H       3.784546      2.893531     14.452101
  H       5.483561      3.215756     15.006117
  C       6.528623      3.764969     12.570446
  H       6.324593      4.855781     12.545245
  H       6.926983      3.432106     11.592300
  H       7.268351      3.539419     13.367012
  C       4.464155      3.076214     10.341249
  H       3.549764      3.412711      9.781425
  H       5.303527      3.725801      9.984516
  P       3.553029      0.481683     10.241634
  O       2.823087      0.772671     11.559924
  O       4.262341     -0.801916      9.873884
  O       4.809221      1.730472     10.070242
  O       2.520858      1.032167      9.009888
  C       2.895388      0.729085      7.652976
  H       3.061772     -0.367743      7.522960
  H       3.851917      1.244846      7.376330
  C       1.776503      1.227256      6.720694
  H       1.515224      2.278155      6.973661
  O       0.601051      0.376141      6.937958
  C      -0.646261      0.958836      6.959474
  O      -0.859900      2.154619      6.812910
  C      -1.724688     -0.119742      7.156206
  H      -2.703849      0.405331      7.213514
  H      -1.542525     -0.612463      8.140398
  C       2.185600      1.138767      5.231685
  H       2.405718      0.085405      4.948138
  H       3.081281      1.773906      5.048896
  O       1.090541      1.550843      4.357870
  C       0.951905      2.907959      4.111834
  O       1.742303      3.752728      4.504863
  C      -0.281641      3.178342      3.242709
  H      -1.041557      2.383877      3.409488
  H      -0.713468      4.145414      3.584069
  C      -1.743704     -1.200206      6.033075
  H      -2.510479     -1.966819      6.301629
  H      -0.763690     -1.732177      6.020079
  C      -2.054279     -0.634274      4.622786
  H      -1.281758      0.120519      4.346558
  H      -3.029661     -0.087504      4.652956
  C      -2.108252     -1.721493      3.518667
  H      -2.815846     -2.531812      3.826329
  H      -1.106313     -2.211270      3.435828
  C      -2.532774     -1.174658      2.131362
  H      -1.833636     -0.357251      1.830563
  H      -3.538845     -0.693380      2.219607
  C      -2.590958     -2.260674      1.025180
  H      -3.239397     -3.096802      1.383760
  H      -1.575685     -2.703445      0.876109
  C      -3.146429     -1.763501     -0.344609
  H      -4.113631     -1.229003     -0.154189
  H      -3.418561     -2.644000     -0.970426
  C      -2.212839     -0.838516     -1.113294
  H      -1.665235     -0.092171     -0.505228
  C      -2.008793     -0.820251     -2.455848
  H      -1.311777     -0.058695     -2.861472
  C      -2.700564     -1.689130     -3.496050
  H      -3.045038     -2.649949     -3.046507
  H      -1.969030     -1.957337     -4.292766
  C      -3.932539     -0.971131     -4.136953
  H      -3.596342     -0.021939     -4.622392
  H      -4.619399     -0.666018     -3.312255
  C      -4.724799     -1.826325     -5.164645
  H      -5.679198     -1.297755     -5.405963
  H      -5.025227     -2.791508     -4.685535
  C      -3.975872     -2.120138     -6.491270
  H      -3.032230     -2.678889     -6.281819
  H      -3.656577     -1.152174     -6.951332
  C      -4.818685     -2.921920     -7.516073
  H      -5.786511     -2.390115     -7.696449
  H      -5.097108     -3.910687     -7.073415
  C      -4.104656     -3.148489     -8.873814
  H      -3.130183     -3.671101     -8.699422
  H      -3.837975     -2.157983     -9.318803
  C      -4.945497     -3.957950     -9.894558
  H      -5.923402     -3.440203    -10.056761
  H      -5.200918     -4.953539     -9.454796
  C      -4.239698     -4.156642    -11.258479
  H      -4.861564     -4.758975    -11.960025
  H      -3.262731     -4.681727    -11.139230
  H      -4.028549     -3.178496    -11.750109
  C       0.076299      3.277048      1.725987
  H       0.800701      4.114016      1.578843
  H      -0.849187      3.566574      1.172423
  C       0.656242      1.974821      1.115994
  H      -0.045013      1.128327      1.317667
  H       1.605147      1.704742      1.637005
  C       0.924161      2.072867     -0.407215
  H       1.598469      2.942188     -0.609139
  H      -0.032757      2.300378     -0.939655
  C       1.554059      0.788040     -1.002732
  H       2.492552      0.546034     -0.444907
  H       0.866516     -0.074806     -0.831159
  C       1.874900      0.892662     -2.514586
  H       0.950447      1.158720     -3.083031
  H       2.590689      1.733882     -2.687067
  C       2.469515     -0.421710     -3.108311
  H       1.711142     -1.233434     -3.021348
  H       3.331992     -0.735963     -2.468843
  C       2.956760     -0.262774     -4.539047
  H       3.896587      0.317475     -4.649565
  C       2.366470     -0.713087     -5.674562
  H       2.876622     -0.488618     -6.632909
  C       1.060935     -1.482085     -5.797018
  H       0.700064     -1.806492     -4.795165
  H       1.243842     -2.420249     -6.380817
  C      -0.078213     -0.682446     -6.505966
  H      -0.293875      0.247168     -5.924212
  H      -1.012353     -1.290936     -6.467715
  C       0.208044     -0.311650     -7.984637
  H       1.097226      0.361708     -8.043425
  H       0.487908     -1.239214     -8.541169
  C      -0.996403      0.377281     -8.677762
  H      -1.868492     -0.320020     -8.676080
  H      -1.316076      1.252372     -8.060432
  C      -0.716716      0.872329    -10.124743
  H       0.057744      1.677291    -10.085377
  H      -1.642494      1.360600    -10.517459
  C      -0.251135     -0.213395    -11.134892
  H      -0.092837      0.274494    -12.128024
  H       0.751377     -0.608013    -10.837304
  C      -1.229672     -1.404205    -11.313212
  H      -1.348654     -1.946623    -10.344971
  H      -2.246760     -1.013999    -11.565432
  C      -0.771169     -2.405877    -12.401363
  H      -0.688334     -1.913973    -13.399289
  H       0.230342     -2.833798    -12.159413
  H      -1.483656     -3.255676    -12.502526
138
Coordinates from ORCA-job /wrk/rja7/qm_final_3_replicates/qm_final_1.1/qm/7/freq E -2722.583271183976
  N       5.167653      3.112179     12.886485
  C       4.072034      3.433009     11.812940
  H       3.870981      4.523689     11.917008
  H       3.187550      2.829749     12.105031
  C       5.480548      1.604492     12.983175
  H       6.000310      1.294242     12.058585
  H       6.119043      1.453850     13.880127
  H       4.522153      1.047526     13.038246
  C       4.616416      3.568463     14.232579
  H       4.397178      4.655473     14.190340
  H       3.685219      3.004820     14.444580
  H       5.369213      3.364488     15.022557
  C       6.451823      3.870105     12.591432
  H       6.230590      4.956350     12.528706
  H       6.875754      3.514440     11.631737
  H       7.178984      3.681069     13.409061
  C       4.437048      3.102891     10.342778
  H       3.525244      3.408002      9.761230
  H       5.267971      3.764327      9.987667
  P       3.576383      0.491503     10.282885
  O       2.831638      0.786150     11.592131
  O       4.310782     -0.784959      9.938361
  O       4.812193      1.759718     10.102055
  O       2.544043      1.008685      9.037307
  C       2.930725      0.694408      7.686337
  H       3.105867     -0.402187      7.567505
  H       3.884953      1.214501      7.410186
  C       1.813434      1.176173      6.745007
  H       1.545384      2.228146      6.986245
  O       0.642672      0.320411      6.969467
  C      -0.608043      0.896195      6.983565
  O      -0.829845      2.088046      6.812391
  C      -1.681003     -0.190355      7.161974
  H      -2.664306      0.327159      7.217490
  H      -1.501896     -0.694998      8.140411
  C       2.228546      1.074321      5.258386
  H       2.444543      0.017556      4.984054
  H       3.128519      1.703269      5.074934
  O       1.140111      1.485591      4.375322
  C       1.007360      2.842117      4.122194
  O       1.800032      3.685095      4.515487
  C      -0.224405      3.117754      3.250796
  H      -0.988115      2.325944      3.414693
  H      -0.652736      4.085817      3.593727
  C      -1.681995     -1.255813      6.025123
  H      -2.436506     -2.037874      6.283808
  H      -0.693494     -1.771941      6.005419
  C      -1.999606     -0.673759      4.623921
  H      -1.239012      0.098480      4.361506
  H      -2.984139     -0.144040      4.660835
  C      -2.035800     -1.743723      3.503005
  H      -2.731707     -2.569066      3.797587
  H      -1.027194     -2.218299      3.411995
  C      -2.469967     -1.179111      2.126364
  H      -1.783146     -0.346252      1.839558
  H      -3.482919     -0.714610      2.225311
  C      -2.519086     -2.245193      1.001237
  H      -3.144263     -3.101549      1.353442
  H      -1.497287     -2.663905      0.828827
  C      -3.107705     -1.733073     -0.348934
  H      -4.083557     -1.225306     -0.131005
  H      -3.370470     -2.607117     -0.987931
  C      -2.209868     -0.774487     -1.117955
  H      -1.686069     -0.008707     -0.511481
  C      -2.014892     -0.750277     -2.461136
  H      -1.350228      0.036132     -2.872763
  C      -2.687983     -1.645350     -3.491888
  H      -2.943549     -2.638177     -3.051200
  H      -1.973767     -1.843283     -4.324042
  C      -3.993745     -1.001464     -4.060784
  H      -3.746210     -0.015584     -4.525809
  H      -4.666766     -0.773288     -3.200402
  C      -4.762997     -1.879501     -5.085064
  H      -5.761479     -1.413695     -5.271572
  H      -4.974821     -2.878524     -4.628410
  C      -4.048886     -2.078512     -6.447433
  H      -3.061531     -2.577053     -6.292835
  H      -3.814719     -1.077857     -6.887109
  C      -4.875950     -2.905312     -7.464511
  H      -5.883709     -2.435700     -7.591696
  H      -5.070100     -3.923174     -7.043345
  C      -4.200582     -3.043651     -8.852861
  H      -3.183456     -3.492768     -8.728069
  H      -4.027707     -2.025345     -9.281543
  C      -5.016648     -3.892150     -9.861820
  H      -6.039143     -3.451859     -9.969166
  H      -5.172658     -4.916255     -9.441158
  C      -4.354457     -3.999005    -11.257699
  H      -4.957093     -4.628672    -11.952084
  H      -3.336613     -4.451385    -11.192205
  H      -4.237189     -2.994701    -11.728138
  C       0.135154      3.218339      1.734244
  H       0.875617      4.041903      1.591181
  H      -0.785058      3.528606      1.183141
  C       0.687520      1.907870      1.115528
  H      -0.032811      1.076106      1.311187
  H       1.630286      1.612842      1.634393
  C       0.957585      2.010000     -0.407183
  H       1.652164      2.864287     -0.604101
  H       0.005722      2.264122     -0.937296
  C       1.554204      0.713629     -1.011857
  H       2.488667      0.446684     -0.458426
  H       0.846606     -0.133268     -0.841248
  C       1.872114      0.815482     -2.524831
  H       0.954680      1.114412     -3.088441
  H       2.614027      1.634003     -2.695919
  C       2.424913     -0.514253     -3.126431
  H       1.640439     -1.301438     -3.046600
  H       3.274521     -0.860113     -2.485894
  C       2.924323     -0.364832     -4.554486
  H       3.878727      0.192675     -4.657378
  C       2.333922     -0.802346     -5.695896
  H       2.858649     -0.589874     -6.649190
  C       1.010375     -1.538062     -5.832884
  H       0.633226     -1.858555     -4.836013
  H       1.175654     -2.477428     -6.419967
  C      -0.102344     -0.709098     -6.550816
  H      -0.307636      0.220814     -5.965903
  H      -1.049171     -1.298546     -6.530260
  C       0.213366     -0.335591     -8.023251
  H       1.118528      0.317782     -8.064010
  H       0.481850     -1.265785     -8.580472
  C      -0.963990      0.383298     -8.733396
  H      -1.852336     -0.293605     -8.749557
  H      -1.274155      1.262365     -8.117059
  C      -0.647695      0.881637    -10.172845
  H       0.142018      1.670382    -10.111864
  H      -1.554884      1.392013    -10.580274
  C      -0.181366     -0.204139    -11.184009
  H       0.009919      0.290986    -12.167783
  H       0.805390     -0.622298    -10.868155
  C      -1.179116     -1.373593    -11.400466
  H      -1.332815     -1.924437    -10.442623
  H      -2.181994     -0.960268    -11.673471
  C      -0.712601     -2.371919    -12.488400
  H      -0.591984     -1.870410    -13.477714
  H       0.273173     -2.822612    -12.223709
  H      -1.439269     -3.205236    -12.619665
138
Coordinates from ORCA-job /wrk/rja7/qm_final_3_replicates/qm_final_1.1/qm/7/freq E -2722.583590911955
  N       5.209033      3.057035     12.877873
  C       4.113466      3.409283     11.813790
  H       3.938890      4.503259     11.927570
  H       3.217882      2.824359     12.108924
  C       5.486229      1.541958     12.966379
  H       5.994359      1.223521     12.038582
  H       6.123684      1.373385     13.860443
  H       4.513190      1.010564     13.022481
  C       4.678887      3.518620     14.230589
  H       4.484193      4.610291     14.195222
  H       3.737117      2.975429     14.447425
  H       5.433067      3.294151     15.013253
  C       6.508472      3.786303     12.576442
  H       6.313068      4.877685     12.521641
  H       6.916260      3.426269     11.611826
  H       7.236685      3.574476     13.387024
  C       4.462705      3.085014     10.337948
  H       3.553815      3.416146      9.766180
  H       5.306111      3.730858      9.983019
  P       3.548391      0.490222     10.267239
  O       2.811376      0.800810     11.577037
  O       4.261817     -0.797978      9.924469
  O       4.805798      1.736640     10.080955
  O       2.521777      1.021053      9.022969
  C       2.907538      0.709382      7.671256
  H       3.077951     -0.387739      7.548819
  H       3.864513      1.226007      7.398118
  C       1.794036      1.199555      6.728651
  H       1.524543      2.248880      6.979031
  O       0.622086      0.341314      6.936629
  C      -0.628748      0.916587      6.944353
  O      -0.847245      2.112847      6.806647
  C      -1.701350     -0.166458      7.145529
  H      -2.682378      0.353480      7.215117
  H      -1.507434     -0.668711      8.122500
  C       2.214738      1.112804      5.243192
  H       2.436291      0.059977      4.959082
  H       3.112769      1.747019      5.068888
  O       1.126642      1.527374      4.361718
  C       0.987456      2.885771      4.123662
  O       1.780059      3.727995      4.518337
  C      -0.241132      3.162154      3.249472
  H      -1.005607      2.370434      3.409782
  H      -0.669586      4.129967      3.592654
  C      -1.722290     -1.236222      6.012430
  H      -2.484380     -2.008645      6.277584
  H      -0.739874     -1.763292      5.990011
  C      -2.041244     -0.657924      4.609482
  H      -1.275012      0.105735      4.339040
  H      -3.020510     -0.118731      4.647406
  C      -2.091284     -1.733621      3.494592
  H      -2.797097     -2.548847      3.793498
  H      -1.088223     -2.220250      3.406603
  C      -2.518527     -1.172203      2.114137
  H      -1.817364     -0.354402      1.818809
  H      -3.522413     -0.688157      2.211357
  C      -2.587017     -2.246674      0.998322
  H      -3.235632     -3.084546      1.352636
  H      -1.574193     -2.690861      0.837341
  C      -3.151159     -1.732301     -0.361383
  H      -4.115033     -1.197074     -0.156901
  H      -3.431071     -2.604630     -0.995175
  C      -2.220808     -0.802998     -1.127437
  H      -1.683109     -0.048911     -0.519641
  C      -2.009308     -0.792117     -2.468473
  H      -1.317302     -0.027482     -2.876274
  C      -2.691629     -1.675229     -3.503735
  H      -2.981206     -2.657254     -3.060613
  H      -1.970544     -1.899188     -4.323438
  C      -3.970337     -1.001551     -4.098647
  H      -3.688027     -0.028760     -4.571207
  H      -4.648947     -0.743510     -3.251368
  C      -4.748875     -1.870152     -5.124216
  H      -5.731493     -1.379812     -5.331224
  H      -4.994964     -2.857380     -4.659239
  C      -4.019644     -2.104235     -6.472647
  H      -3.045309     -2.620426     -6.296103
  H      -3.759439     -1.115566     -6.924638
  C      -4.847166     -2.928744     -7.490646
  H      -5.841518     -2.439195     -7.643722
  H      -5.070889     -3.935542     -7.057655
  C      -4.148776     -3.103033     -8.863018
  H      -3.144214     -3.572123     -8.711425
  H      -3.945357     -2.095587     -9.303489
  C      -4.963034     -3.948227     -9.875309
  H      -5.971926     -3.485556    -10.012195
  H      -5.152631     -4.961138     -9.441651
  C      -4.272938     -4.094693    -11.253554
  H      -4.875356     -4.721094    -11.950957
  H      -3.268857     -4.570986    -11.156504
  H      -4.119660     -3.101847    -11.737694
  C       0.124638      3.265884      1.735027
  H       0.862172      4.092642      1.595789
  H      -0.794764      3.572863      1.180657
  C       0.683945      1.958111      1.117465
  H      -0.031971      1.122661      1.312889
  H       1.627874      1.667180      1.636268
  C       0.953169      2.061890     -0.404883
  H       1.638828      2.923310     -0.601798
  H      -0.000694      2.305138     -0.936186
  C       1.564431      0.771695     -1.007902
  H       2.501777      0.515138     -0.454586
  H       0.866704     -0.082985     -0.836026
  C       1.882511      0.877236     -2.519976
  H       0.959730      1.154719     -3.085605
  H       2.606933      1.711132     -2.691903
  C       2.460462     -0.442431     -3.118190
  H       1.692486     -1.244727     -3.030564
  H       3.321077     -0.768381     -2.482073
  C       2.945896     -0.287171     -4.549850
  H       3.886651      0.291333     -4.661770
  C       2.356316     -0.741815     -5.684068
  H       2.867706     -0.522193     -6.642877
  C       1.048124     -1.506984     -5.804044
  H       0.688400     -1.830830     -4.801677
  H       1.226532     -2.445053     -6.388975
  C      -0.089526     -0.704905     -6.512810
  H      -0.311828      0.219832     -5.925940
  H      -1.021876     -1.316910     -6.485129
  C       0.207580     -0.324613     -7.986945
  H       1.099899      0.345789     -8.034580
  H       0.490016     -1.249801     -8.545853
  C      -0.987968      0.372843     -8.687254
  H      -1.865559     -0.318265     -8.695073
  H      -1.307326      1.247732     -8.069494
  C      -0.693157      0.873246    -10.130290
  H       0.086915      1.672211    -10.079720
  H      -1.611062      1.371068    -10.529183
  C      -0.226652     -0.209548    -11.144064
  H      -0.048860      0.284757    -12.130585
  H       0.766099     -0.619269    -10.835687
  C      -1.218426     -1.385944    -11.347916
  H      -1.361789     -1.932986    -10.386600
  H      -2.225390     -0.978791    -11.614394
  C      -0.756295     -2.386929    -12.435201
  H      -0.646470     -1.888928    -13.427463
  H       0.233697     -2.832189    -12.177317
  H      -1.480786     -3.223778    -12.556425
138
Coordinates from ORCA-job /wrk/rja7/qm_final_3_replicates/qm_final_1.1/qm/7/freq E -2722.583638747330
  N       5.236368      3.032534     12.861105
  C       4.124006      3.389895     11.815878
  H       3.940206      4.480542     11.947611
  H       3.237851      2.791872     12.113646
  C       5.526572      1.518416     12.924177
  H       6.025617      1.217337     11.985468
  H       6.176880      1.342757     13.807635
  H       4.558497      0.978553     12.984744
  C       4.719329      3.470463     14.226659
  H       4.513626      4.560614     14.208982
  H       3.785440      2.914922     14.446819
  H       5.485402      3.242612     14.996956
  C       6.526141      3.776086     12.553726
  H       6.321672      4.866740     12.517979
  H       6.923484      3.433047     11.578490
  H       7.266263      3.557693     13.351876
  C       4.457520      3.089829     10.331493
  H       3.536395      3.415934      9.776489
  H       5.286862      3.752382      9.974140
  P       3.578391      0.482460     10.233475
  O       2.847654      0.766843     11.552879
  O       4.309116     -0.790320      9.869736
  O       4.815803      1.749950     10.051273
  O       2.532659      1.010545      9.003660
  C       2.909402      0.715341      7.645901
  H       3.087710     -0.379231      7.511610
  H       3.859872      1.242252      7.369751
  C       1.784618      1.204242      6.716398
  H       1.511424      2.250734      6.974440
  O       0.619266      0.338217      6.930075
  C      -0.634911      0.906395      6.950677
  O      -0.862108      2.100700      6.811476
  C      -1.700358     -0.184292      7.148653
  H      -2.683434      0.330177      7.228697
  H      -1.497708     -0.694156      8.119841
  C       2.192401      1.125873      5.226855
  H       2.417414      0.075385      4.936746
  H       3.085446      1.765591      5.046961
  O       1.094215      1.537549      4.356388
  C       0.944356      2.896295      4.125620
  O       1.732989      3.741674      4.521145
  C      -0.290437      3.167917      3.258262
  H      -1.049857      2.372274      3.422207
  H      -0.722294      4.133178      3.604425
  C      -1.724431     -1.244671      6.006105
  H      -2.483463     -2.021184      6.268313
  H      -0.740859     -1.769131      5.974460
  C      -2.052475     -0.655676      4.609484
  H      -1.288184      0.110159      4.340213
  H      -3.031545     -0.116913      4.657444
  C      -2.109969     -1.722660      3.486068
  H      -2.813878     -2.540251      3.783027
  H      -1.107471     -2.208460      3.387721
  C      -2.545720     -1.150056      2.112746
  H      -1.841683     -0.335002      1.816472
  H      -3.545521     -0.659961      2.220987
  C      -2.631200     -2.217019      0.990565
  H      -3.291358     -3.047804      1.340386
  H      -1.625043     -2.674669      0.825661
  C      -3.187698     -1.686224     -0.366383
  H      -4.140166     -1.132119     -0.158941
  H      -3.486375     -2.550290     -1.003148
  C      -2.237928     -0.774526     -1.129965
  H      -1.694331     -0.024772     -0.522024
  C      -2.009576     -0.780777     -2.468455
  H      -1.298568     -0.033348     -2.875593
  C      -2.694659     -1.664094     -3.502475
  H      -3.005063     -2.636444     -3.052106
  H      -1.967804     -1.909511     -4.310711
  C      -3.955231     -0.976683     -4.120804
  H      -3.651138     -0.013616     -4.599703
  H      -4.639596     -0.698088     -3.284720
  C      -4.736576     -1.843061     -5.146791
  H      -5.710246     -1.340442     -5.366547
  H      -5.001452     -2.822710     -4.675991
  C      -4.000511     -2.097841     -6.487938
  H      -3.036177     -2.628519     -6.300308
  H      -3.720819     -1.116347     -6.944508
  C      -4.833445     -2.916064     -7.507387
  H      -5.816364     -2.408614     -7.675270
  H      -5.081454     -3.913767     -7.066461
  C      -4.126125     -3.119398     -8.871551
  H      -3.136720     -3.615850     -8.706454
  H      -3.889627     -2.121465     -9.317109
  C      -4.952988     -3.948867     -9.887074
  H      -5.945680     -3.457341    -10.040555
  H      -5.178307     -4.951691     -9.447008
  C      -4.251158     -4.128962    -11.255591
  H      -4.864318     -4.742894    -11.954767
  H      -3.263504     -4.635081    -11.142166
  H      -4.061809     -3.145937    -11.746746
  C       0.067270      3.273800      1.741877
  H       0.793829      4.109608      1.598618
  H      -0.857639      3.568453      1.190013
  C       0.642249      1.972177      1.125528
  H      -0.063576      1.128045      1.320676
  H       1.588703      1.694229      1.646812
  C       0.913703      2.077518     -0.396273
  H       1.590638      2.946000     -0.592503
  H      -0.041346      2.310071     -0.930251
  C       1.541082      0.793400     -0.996084
  H       2.477218      0.545722     -0.436729
  H       0.850392     -0.068326     -0.829543
  C       1.868456      0.902991     -2.505938
  H       0.946307      1.170024     -3.077658
  H       2.584173      1.745370     -2.673222
  C       2.465826     -0.409798     -3.099636
  H       1.706436     -1.221114     -3.018400
  H       3.325391     -0.725938     -2.457082
  C       2.959481     -0.248497     -4.527634
  H       3.891337      0.345420     -4.633822
  C       2.384868     -0.715390     -5.664318
  H       2.897440     -0.488870     -6.620913
  C       1.091364     -1.504082     -5.787869
  H       0.735243     -1.833320     -4.785823
  H       1.287711     -2.439177     -6.371877
  C      -0.060065     -0.722302     -6.497389
  H      -0.300015      0.197089     -5.909008
  H      -0.980281     -1.352220     -6.470937
  C       0.228807     -0.334409     -7.970935
  H       1.114162      0.344926     -8.019876
  H       0.517700     -1.255276     -8.533920
  C      -0.976207      0.353922     -8.663474
  H      -1.849108     -0.342693     -8.663479
  H      -1.296884      1.228091     -8.045252
  C      -0.696259      0.851529    -10.109988
  H       0.077281      1.657368    -10.069076
  H      -1.621566      1.339265    -10.504265
  C      -0.228684     -0.233234    -11.120621
  H      -0.061843      0.255432    -12.111906
  H       0.769303     -0.633094    -10.815826
  C      -1.212701     -1.418573    -11.306739
  H      -1.346984     -1.957046    -10.338507
  H      -2.223977     -1.021135    -11.571695
  C      -0.749969     -2.427271    -12.386812
  H      -0.649458     -1.938315    -13.384566
  H       0.244428     -2.863591    -12.130735
  H      -1.469788     -3.269959    -12.495367
138
Coordinates from ORCA-job /wrk/rja7/qm_final_3_replicates/qm_final_1.1/qm/7/freq E -2722.583680300814
  N       5.229309      3.057059     12.886522
  C       4.113921      3.419414     11.846543
  H       3.931287      4.509744     11.981779
  H       3.228435      2.821030     12.145398
  C       5.515694      1.541821     12.941692
  H       6.010517      1.244176     11.999563
  H       6.169208      1.360073     13.821448
  H       4.547006      1.003522     13.002747
  C       4.718522      3.491647     14.255568
  H       4.516238      4.582454     14.242867
  H       3.783645      2.938282     14.476803
  H       5.486483      3.258361     15.022249
  C       6.519946      3.798047     12.576808
  H       6.318383      4.889307     12.545004
  H       6.913066      3.456588     11.599321
  H       7.261986      3.575431     13.371930
  C       4.442408      3.122055     10.360837
  H       3.520150      3.450633      9.809159
  H       5.272092      3.783276     10.001971
  P       3.557585      0.517190     10.264620
  O       2.817540      0.815409     11.575503
  O       4.290232     -0.759603      9.919619
  O       4.797901      1.781665     10.079987
  O       2.521152      1.032956      9.021866
  C       2.908992      0.727570      7.669282
  H       3.091433     -0.367514      7.544997
  H       3.859869      1.255102      7.395811
  C       1.789211      1.205426      6.727694
  H       1.508238      2.251778      6.977735
  O       0.626929      0.333897      6.937128
  C      -0.630959      0.893894      6.945116
  O      -0.865197      2.086085      6.798891
  C      -1.690189     -0.203550      7.138874
  H      -2.676652      0.304499      7.217932
  H      -1.486271     -0.715132      8.108790
  C       2.209255      1.121336      5.241672
  H       2.437566      0.069846      4.957891
  H       3.102997      1.761321      5.066351
  O       1.118035      1.528720      4.360348
  C       0.969774      2.886726      4.123970
  O       1.754792      3.733358      4.524159
  C      -0.262762      3.157527      3.252925
  H      -1.023044      2.362763      3.416771
  H      -0.695067      4.123507      3.596535
  C      -1.705327     -1.260880      5.992962
  H      -2.457976     -2.044214      6.253174
  H      -0.717401     -1.777058      5.959955
  C      -2.038633     -0.670463      4.598324
  H      -1.279107      0.100230      4.329970
  H      -3.020566     -0.137259      4.649169
  C      -2.092391     -1.734113      3.471464
  H      -2.791744     -2.556034      3.767101
  H      -1.087723     -2.214563      3.369334
  C      -2.534342     -1.157838      2.101656
  H      -1.832392     -0.341130      1.805179
  H      -3.534084     -0.668967      2.215690
  C      -2.624951     -2.219830      0.975227
  H      -3.283823     -3.051917      1.324372
  H      -1.620001     -2.677266      0.802765
  C      -3.188229     -1.681055     -0.375919
  H      -4.134939     -1.120982     -0.158906
  H      -3.497649     -2.540626     -1.013431
  C      -2.237303     -0.773512     -1.142890
  H      -1.694242     -0.020942     -0.537984
  C      -2.007286     -0.787421     -2.481158
  H      -1.295984     -0.042496     -2.891910
  C      -2.694237     -1.675204     -3.510558
  H      -2.992085     -2.650853     -3.058964
  H      -1.972416     -1.913319     -4.325322
  C      -3.965905     -0.997567     -4.116529
  H      -3.674776     -0.028159     -4.590552
  H      -4.647790     -0.731449     -3.274391
  C      -4.744411     -1.865020     -5.143547
  H      -5.726641     -1.373442     -5.349929
  H      -4.992351     -2.852468     -4.679952
  C      -4.017228     -2.097219     -6.493575
  H      -3.045384     -2.619047     -6.320204
  H      -3.752178     -1.107971     -6.941940
  C      -4.850138     -2.913651     -7.514341
  H      -5.839380     -2.414514     -7.669272
  H      -5.084882     -3.917934     -7.081083
  C      -4.151898     -3.096334     -8.885949
  H      -3.156604     -3.584879     -8.733220
  H      -3.928243     -2.092058     -9.323607
  C      -4.978527     -3.924021     -9.903175
  H      -5.976963     -3.440732    -10.044865
  H      -5.191036     -4.933022     -9.470942
  C      -4.284893     -4.084999    -11.278115
  H      -4.898353     -4.696535    -11.979140
  H      -3.292782     -4.584771    -11.176696
  H      -4.106447     -3.095843    -11.760755
  C       0.097658      3.260339      1.736930
  H       0.826415      4.094178      1.593672
  H      -0.825864      3.556210      1.183453
  C       0.669505      1.956348      1.122234
  H      -0.037545      1.114154      1.320671
  H       1.616540      1.677980      1.642138
  C       0.937151      2.058419     -0.400411
  H       1.617213      2.923681     -0.599832
  H      -0.018592      2.294504     -0.931579
  C       1.556333      0.770892     -1.001380
  H       2.493069      0.519097     -0.444906
  H       0.861915     -0.087431     -0.832133
  C       1.879702      0.878490     -2.512324
  H       0.957665      1.152235     -3.081001
  H       2.600321      1.716310     -2.681423
  C       2.468089     -0.437197     -3.108577
  H       1.704832     -1.244742     -3.026833
  H       3.327317     -0.758383     -2.467949
  C       2.960908     -0.276244     -4.537014
  H       3.892019      0.318872     -4.642776
  C       2.387828     -0.744201     -5.674145
  H       2.900453     -0.515701     -6.630215
  C       1.096673     -1.536496     -5.799876
  H       0.743557     -1.873072     -4.799313
  H       1.295220     -2.467144     -6.390099
  C      -0.059037     -0.753886     -6.501356
  H      -0.302436      0.158765     -5.904080
  H      -0.976218     -1.388550     -6.479388
  C       0.226346     -0.350530     -7.971441
  H       1.111276      0.329618     -8.015097
  H       0.514292     -1.265361     -8.544598
  C      -0.980203      0.344569     -8.654512
  H      -1.853861     -0.350989     -8.657928
  H      -1.298184      1.213557     -8.027653
  C      -0.704281      0.855768    -10.097245
  H       0.068473      1.662053    -10.050865
  H      -1.631195      1.346323    -10.484196
  C      -0.237892     -0.218077    -11.120273
  H      -0.073938      0.281133    -12.106713
  H       0.761381     -0.619645    -10.821920
  C      -1.220527     -1.402910    -11.316636
  H      -1.352667     -1.951385    -10.353850
  H      -2.232690     -1.004346    -11.576262
  C      -0.758380     -2.399710    -12.407895
  H      -0.659231     -1.900222    -13.400557
  H       0.236517     -2.838204    -12.157478
  H      -1.477935     -3.241419    -12.524567
138
Coordinates from ORCA-job /wrk/rja7/qm_final_3_replicates/qm_final_1.1/qm/7/freq E -2722.583708964676
  N       5.202164      3.100662     12.878776
  C       4.093263      3.443075     11.824857
  H       3.902820      4.533648     11.946360
  H       3.209070      2.842247     12.122505
  C       5.496878      1.587992     12.959087
  H       6.000447      1.278722     12.025412
  H       6.145090      1.423586     13.846189
  H       4.530971      1.045019     13.021365
  C       4.677102      3.551301     14.237151
  H       4.471163      4.641153     14.208547
  H       3.742182      2.997456     14.456867
  H       5.438631      3.330636     15.013872
  C       6.491274      3.844491     12.569550
  H       6.283919      4.933936     12.518947
  H       6.895965      3.490294     11.601338
  H       7.226865      3.638403     13.375001
  C       4.436365      3.132306     10.345074
  H       3.515330      3.445983      9.782581
  H       5.262253      3.797974      9.985624
  P       3.579143      0.516352     10.273174
  O       2.833281      0.815662     11.580532
  O       4.327409     -0.754597      9.940046
  O       4.806516      1.792664     10.080410
  O       2.538521      1.010765      9.026205
  C       2.932648      0.707528      7.675084
  H       3.122411     -0.386386      7.551071
  H       3.880489      1.241454      7.403881
  C       1.811044      1.178452      6.732288
  H       1.522859      2.222423      6.983829
  O       0.654262      0.299260      6.940367
  C      -0.606654      0.852118      6.947207
  O      -0.847137      2.043362      6.802786
  C      -1.659718     -0.251399      7.138705
  H      -2.648422      0.251003      7.225314
  H      -1.448869     -0.769965      8.103268
  C       2.231564      1.099235      5.246330
  H       2.464246      0.049337      4.960375
  H       3.122523      1.743318      5.071869
  O       1.137708      1.503324      4.366617
  C       0.981464      2.861544      4.136878
  O       1.764090      3.710304      4.537574
  C      -0.250910      3.130287      3.265092
  H      -1.009629      2.333498      3.427307
  H      -0.685415      4.094751      3.610024
  C      -1.674319     -1.299804      5.984302
  H      -2.421863     -2.088802      6.242020
  H      -0.683787     -1.810366      5.943304
  C      -2.016446     -0.699989      4.596070
  H      -1.260109      0.074495      4.328672
  H      -2.999151     -0.169298      4.656465
  C      -2.076692     -1.755283      3.461651
  H      -2.777277     -2.577285      3.754158
  H      -1.073804     -2.237623      3.351360
  C      -2.523689     -1.166114      2.099120
  H      -1.818606     -0.351360      1.804798
  H      -3.519633     -0.672082      2.223699
  C      -2.630011     -2.217189      0.963879
  H      -3.293037     -3.047149      1.310233
  H      -1.630352     -2.681173      0.778900
  C      -3.199395     -1.659201     -0.377256
  H      -4.135371     -1.087666     -0.144881
  H      -3.526766     -2.508428     -1.019379
  C      -2.241646     -0.759211     -1.144773
  H      -1.693729     -0.009968     -0.540166
  C      -2.010608     -0.777723     -2.482780
  H      -1.293802     -0.039199     -2.895162
  C      -2.704227     -1.663742     -3.509603
  H      -3.000250     -2.639748     -3.057696
  H      -1.987012     -1.901791     -4.328680
  C      -3.978149     -0.984059     -4.107453
  H      -3.688711     -0.011875     -4.576780
  H      -4.657573     -0.722629     -3.261847
  C      -4.758605     -1.846630     -5.136607
  H      -5.746134     -1.360482     -5.330482
  H      -4.996097     -2.840460     -4.681185
  C      -4.039991     -2.060495     -6.493937
  H      -3.058741     -2.568529     -6.332229
  H      -3.793764     -1.065199     -6.939373
  C      -4.869112     -2.883679     -7.512100
  H      -5.867328     -2.399095     -7.655420
  H      -5.084682     -3.893993     -7.082972
  C      -4.179489     -3.046244     -8.890421
  H      -3.171670     -3.511322     -8.747649
  H      -3.983327     -2.036027     -9.327548
  C      -4.995478     -3.890645     -9.902331
  H      -6.006269     -3.430783    -10.034081
  H      -5.180605     -4.905250     -9.470562
  C      -4.309681     -4.033216    -11.283147
  H      -4.918299     -4.651165    -11.982787
  H      -3.308880     -4.517373    -11.191368
  H      -4.150692     -3.038982    -11.762290
  C       0.110224      3.236142      1.749484
  H       0.842737      4.067037      1.608550
  H      -0.812174      3.537471      1.196992
  C       0.674712      1.930880      1.130898
  H      -0.037611      1.092732      1.327071
  H       1.619945      1.644702      1.649836
  C       0.942547      2.035436     -0.391453
  H       1.624851      2.899229     -0.589461
  H      -0.012682      2.274663     -0.922164
  C       1.557780      0.747026     -0.994281
  H       2.494539      0.492445     -0.439047
  H       0.861690     -0.109610     -0.824018
  C       1.879935      0.854394     -2.505450
  H       0.958505      1.132605     -3.072964
  H       2.603802      1.689414     -2.674690
  C       2.462729     -0.463066     -3.103152
  H       1.696919     -1.268129     -3.021628
  H       3.321080     -0.787754     -2.463059
  C       2.956328     -0.302785     -4.531536
  H       3.888478      0.290921     -4.636031
  C       2.384034     -0.770299     -5.669391
  H       2.898194     -0.542516     -6.624768
  C       1.091812     -1.561000     -5.796960
  H       0.736890     -1.898358     -4.797342
  H       1.290384     -2.491055     -6.387968
  C      -0.062657     -0.776901     -6.499159
  H      -0.310587      0.131389     -5.897218
  H      -0.978194     -1.414272     -6.484755
  C       0.229220     -0.364643     -7.965585
  H       1.112911      0.317601     -8.000690
  H       0.523035     -1.275892     -8.541446
  C      -0.974542      0.331093     -8.652897
  H      -1.848413     -0.364240     -8.662193
  H      -1.295586      1.198541     -8.025407
  C      -0.692036      0.847493    -10.092898
  H       0.080230      1.653882    -10.040278
  H      -1.617334      1.339556    -10.481846
  C      -0.221446     -0.221567    -11.119582
  H      -0.046904      0.284055    -12.100823
  H       0.773503     -0.629347    -10.815573
  C      -1.207743     -1.400320    -11.334052
  H      -1.354756     -1.953216    -10.376441
  H      -2.214551     -0.994728    -11.603813
  C      -0.738471     -2.393628    -12.425537
  H      -0.622697     -1.888687    -13.413613
  H       0.249812     -2.840956    -12.164767
  H      -1.462759     -3.229088    -12.556915
138
Coordinates from ORCA-job /wrk/rja7/qm_final_3_replicates/qm_final_1.1/qm/7/freq E -2722.583727174710
  N       5.216373      3.092584     12.885165
  C       4.101782      3.444031     11.840112
  H       3.913570      4.533917     11.970811
  H       3.218543      2.841989     12.138106
  C       5.507084      1.578592     12.954978
  H       6.003395      1.273002     12.016218
  H       6.160892      1.407438     13.836643
  H       4.540005      1.038098     13.020581
  C       4.701119      3.536727     14.249374
  H       4.497888      4.627253     14.228479
  H       3.766155      2.984020     14.471633
  H       5.466939      3.309472     15.019970
  C       6.505623      3.834145     12.571510
  H       6.301610      4.924595     12.529241
  H       6.902139      3.484534     11.598308
  H       7.246150      3.620718     13.370523
  C       4.436014      3.144259     10.355860
  H       3.511126      3.461136      9.801469
  H       5.258981      3.813471      9.996260
  P       3.580119      0.528304     10.268232
  O       2.834660      0.822647     11.576789
  O       4.330583     -0.740135      9.930819
  O       4.805563      1.806970     10.078838
  O       2.537498      1.023476      9.023453
  C       2.931991      0.725472      7.671250
  H       3.128923     -0.366966      7.545168
  H       3.875951      1.266160      7.399882
  C       1.806223      1.189482      6.729897
  H       1.510922      2.231194      6.982428
  O       0.655976      0.301736      6.939029
  C      -0.608917      0.845096      6.949153
  O      -0.858761      2.034581      6.806485
  C      -1.652956     -0.266539      7.143098
  H      -2.644992      0.228318      7.234989
  H      -1.433956     -0.785681      8.105506
  C       2.225887      1.113457      5.243339
  H       2.464420      0.064941      4.957134
  H       3.112835      1.762856      5.068239
  O       1.129295      1.511330      4.364024
  C       0.965589      2.868666      4.133994
  O       1.742788      3.721809      4.535840
  C      -0.268475      3.130847      3.262549
  H      -1.023651      2.331060      3.426372
  H      -0.706860      4.093772      3.606806
  C      -1.665325     -1.312518      5.986395
  H      -2.405893     -2.107466      6.245974
  H      -0.671197     -1.815556      5.939592
  C      -2.018333     -0.711727      4.601451
  H      -1.268223      0.068002      4.332055
  H      -3.003964     -0.187230      4.668148
  C      -2.078145     -1.763784      3.463874
  H      -2.771912     -2.591147      3.757493
  H      -1.072826     -2.239193      3.345858
  C      -2.536577     -1.171106      2.106827
  H      -1.837264     -0.351682      1.811659
  H      -3.533841     -0.682023      2.240048
  C      -2.646526     -2.216104      0.966371
  H      -3.309140     -3.047578      1.309934
  H      -1.647827     -2.679539      0.775186
  C      -3.219436     -1.648429     -0.369657
  H      -4.149953     -1.071673     -0.128781
  H      -3.555271     -2.492033     -1.014666
  C      -2.258955     -0.750360     -1.135981
  H      -1.712234     -0.001000     -0.530391
  C      -2.023632     -0.770319     -2.473185
  H      -1.304774     -0.032767     -2.883800
  C      -2.715057     -1.655745     -3.501954
  H      -3.015399     -2.630356     -3.049835
  H      -1.995275     -1.897028     -4.317899
  C      -3.984813     -0.974083     -4.106202
  H      -3.691430     -0.003240     -4.576042
  H      -4.667166     -0.709552     -3.263958
  C      -4.762714     -1.837075     -5.136976
  H      -5.749545     -1.350978     -5.334491
  H      -5.002083     -2.830258     -4.681049
  C      -4.039817     -2.053277     -6.491608
  H      -3.059395     -2.561562     -6.325841
  H      -3.791637     -1.058477     -6.937534
  C      -4.866349     -2.877720     -7.511045
  H      -5.863363     -2.392017     -7.659066
  H      -5.085114     -3.886511     -7.079985
  C      -4.172596     -3.045158     -8.886765
  H      -3.167148     -3.514250     -8.740153
  H      -3.970931     -2.036452     -9.324865
  C      -4.988704     -3.888002     -9.899993
  H      -5.996300     -3.422924    -10.037658
  H      -5.181395     -4.900305     -9.466134
  C      -4.297836     -4.038103    -11.277443
  H      -4.907237     -4.654247    -11.978021
  H      -3.300234     -4.527788    -11.180363
  H      -4.131479     -3.046033    -11.758610
  C       0.090615      3.236674      1.746357
  H       0.819119      4.070828      1.603887
  H      -0.833801      3.533335      1.194711
  C       0.659846      1.933364      1.127618
  H      -0.049007      1.092512      1.324773
  H       1.606642      1.651304      1.645906
  C       0.926157      2.038163     -0.394998
  H       1.608553      2.901837     -0.593303
  H      -0.029360      2.277839     -0.925010
  C       1.541000      0.749838     -0.998546
  H       2.475482      0.492742     -0.440649
  H       0.842849     -0.106046     -0.832518
  C       1.869089      0.859436     -2.508283
  H       0.950295      1.139754     -3.079011
  H       2.594570      1.693947     -2.673203
  C       2.454111     -0.457316     -3.105213
  H       1.687828     -1.262518     -3.029416
  H       3.308863     -0.783226     -2.460930
  C       2.955863     -0.294656     -4.530473
  H       3.885713      0.303710     -4.628896
  C       2.393285     -0.765500     -5.671604
  H       2.911863     -0.534855     -6.623902
  C       1.107105     -1.564690     -5.806462
  H       0.749024     -1.904831     -4.808840
  H       1.315318     -2.493020     -6.396817
  C      -0.049332     -0.787664     -6.513205
  H      -0.305743      0.117848     -5.910573
  H      -0.960560     -1.431336     -6.503795
  C       0.246059     -0.370365     -7.977262
  H       1.130205      0.311419     -8.007916
  H       0.540480     -1.279830     -8.555786
  C      -0.955685      0.328418     -8.664655
  H      -1.831783     -0.363970     -8.672431
  H      -1.273388      1.197985     -8.038357
  C      -0.672781      0.840872    -10.105708
  H       0.103666      1.643440    -10.056520
  H      -1.596546      1.336741    -10.493559
  C      -0.210150     -0.233254    -11.130502
  H      -0.035046      0.268651    -12.113541
  H       0.783320     -0.645452    -10.827381
  C      -1.203156     -1.407339    -11.338272
  H      -1.351233     -1.955844    -10.378060
  H      -2.208336     -0.997184    -11.607415
  C      -0.742373     -2.407243    -12.427429
  H      -0.626324     -1.906443    -13.417561
  H       0.243918     -2.859680    -12.167913
  H      -1.472011     -3.238856    -12.553807
138
Coordinates from ORCA-job /wrk/rja7/qm_final_3_replicates/qm_final_1.1/qm/7/freq E -2722.583728396125
  N       5.229952      3.085932     12.893422
  C       4.110167      3.443348     11.855865
  H       3.921337      4.532200     11.994576
  H       3.229071      2.838096     12.154192
  C       5.519031      1.570995     12.952753
  H       6.009694      1.270268     12.009362
  H       6.177574      1.394808     13.829865
  H       4.551083      1.032198     13.020401
  C       4.722462      3.522792     14.262814
  H       4.520558      4.613708     14.249416
  H       3.787794      2.970006     14.486393
  H       5.492036      3.290613     15.028259
  C       6.518151      3.827982     12.576827
  H       6.314738      4.918855     12.542420
  H       6.908796      3.483679     11.599360
  H       7.262807      3.609130     13.370607
  C       4.438208      3.153935     10.368274
  H       3.510077      3.473608      9.820799
  H       5.258797      3.825744     10.008168
  P       3.584175      0.537321     10.268335
  O       2.837752      0.829086     11.576951
  O       4.338087     -0.728394      9.928353
  O       4.807740      1.818820     10.081177
  O       2.540282      1.031642      9.024060
  C       2.937696      0.742377      7.671081
  H       3.145979     -0.347598      7.541297
  H       3.876032      1.293767      7.401455
  C       1.807782      1.197910      6.730376
  H       1.499098      2.234354      6.988438
  O       0.667927      0.295087      6.932061
  C      -0.603660      0.822967      6.943500
  O      -0.868072      2.009966      6.807424
  C      -1.633700     -0.303123      7.128215
  H      -2.631321      0.178986      7.227286
  H      -1.406046     -0.829395      8.084701
  C       2.229487      1.135160      5.243978
  H       2.479929      0.091138      4.951648
  H       3.108783      1.795916      5.073212
  O       1.128214      1.526622      4.367167
  C       0.951772      2.883906      4.144812
  O       1.720952      3.741849      4.551721
  C      -0.285838      3.139820      3.276617
  H      -1.036551      2.336162      3.441863
  H      -0.727881      4.100377      3.622750
  C      -1.636601     -1.337649      5.960897
  H      -2.365585     -2.145048      6.214734
  H      -0.635990     -1.826767      5.905535
  C      -2.003033     -0.728831      4.582826
  H      -1.262207      0.060240      4.315293
  H      -2.993199     -0.214181      4.658830
  C      -2.060333     -1.772168      3.436439
  H      -2.744092     -2.608569      3.727825
  H      -1.051363     -2.236823      3.307537
  C      -2.534334     -1.172494      2.087812
  H      -1.844193     -0.345276      1.792664
  H      -3.533792     -0.691539      2.233736
  C      -2.648010     -2.208830      0.939530
  H      -3.307210     -3.044528      1.279473
  H      -1.649602     -2.668539      0.738359
  C      -3.230173     -1.630151     -0.388743
  H      -4.154325     -1.049391     -0.133728
  H      -3.576386     -2.467143     -1.036533
  C      -2.271550     -0.731245     -1.156685
  H      -1.723942      0.017937     -0.551705
  C      -2.038248     -0.750354     -2.494412
  H      -1.320097     -0.012465     -2.905955
  C      -2.731394     -1.634330     -3.523449
  H      -3.039227     -2.605622     -3.069407
  H      -2.010942     -1.883085     -4.336709
  C      -3.995449     -0.947541     -4.134289
  H      -3.694436      0.018062     -4.610265
  H      -4.677171     -0.671654     -3.295244
  C      -4.778008     -1.812608     -5.160512
  H      -5.761585     -1.322120     -5.363214
  H      -5.024416     -2.800837     -4.697541
  C      -4.053114     -2.043713     -6.511514
  H      -3.078509     -2.560770     -6.338876
  H      -3.793865     -1.053636     -6.961665
  C      -4.883211     -2.864484     -7.531097
  H      -5.873915     -2.368511     -7.687472
  H      -5.115485     -3.868560     -7.096048
  C      -4.182979     -3.047024     -8.901540
  H      -3.185981     -3.531661     -8.746775
  H      -3.962691     -2.042904     -9.341304
  C      -5.004458     -3.879221     -9.919319
  H      -6.002367     -3.396904    -10.068020
  H      -5.218674     -4.886466     -9.483775
  C      -4.303702     -4.045941    -11.289945
  H      -4.918404     -4.652089    -11.994587
  H      -3.316747     -4.554357    -11.182314
  H      -4.114315     -3.058466    -11.772138
  C       0.069203      3.248299      1.759682
  H       0.792936      4.086397      1.616107
  H      -0.857910      3.540211      1.209962
  C       0.643585      1.947896      1.140318
  H      -0.061475      1.103948      1.337995
  H       1.592048      1.669937      1.657777
  C       0.908511      2.053164     -0.382477
  H       1.588628      2.918411     -0.581872
  H      -0.047542      2.290135     -0.912664
  C       1.526603      0.765663     -0.984492
  H       2.460078      0.509351     -0.424506
  H       0.828705     -0.090704     -0.819582
  C       1.859523      0.875014     -2.493147
  H       0.942577      1.154685     -3.067213
  H       2.584957      1.709988     -2.655976
  C       2.446744     -0.442140     -3.086498
  H       1.680229     -1.247312     -3.012559
  H       3.299718     -0.767357     -2.439357
  C       2.952698     -0.281001     -4.510247
  H       3.879405      0.322610     -4.606703
  C       2.397065     -0.758986     -5.651617
  H       2.917062     -0.528575     -6.603188
  C       1.117129     -1.567977     -5.786171
  H       0.759780     -1.906565     -4.787652
  H       1.332917     -2.497119     -6.372532
  C      -0.044637     -0.802094     -6.496656
  H      -0.309171      0.102134     -5.895469
  H      -0.950459     -1.453083     -6.487032
  C       0.249527     -0.384841     -7.960968
  H       1.129205      0.302597     -7.991907
  H       0.550845     -1.293378     -8.537614
  C      -0.956187      0.304175     -8.650981
  H      -1.828195     -0.393332     -8.657683
  H      -1.279710      1.173640     -8.027437
  C      -0.676250      0.814005    -10.093477
  H       0.092990      1.623597    -10.047047
  H      -1.603968      1.300209    -10.484237
  C      -0.203533     -0.259781    -11.114001
  H      -0.032017      0.239679    -12.098952
  H       0.793326     -0.661825    -10.807944
  C      -1.185929     -1.443234    -11.317265
  H      -1.330768     -1.988260    -10.354502
  H      -2.193961     -1.042599    -11.589928
  C      -0.715916     -2.444872    -12.400889
  H      -0.603760     -1.947897    -13.393370
  H       0.274190     -2.887664    -12.139386
  H      -1.438434     -3.283515    -12.522605
138
Coordinates from ORCA-job /wrk/rja7/qm_final_3_replicates/qm_final_1.1/qm/7/freq E -2722.583742182363
  N       5.220500      3.094963     12.892847
  C       4.105636      3.451004     11.849727
  H       3.916278      4.540063     11.985878
  H       3.222963      2.846430     12.144521
  C       5.510305      1.580477     12.956320
  H       6.006194      1.278350     12.016175
  H       6.164345      1.405642     13.837073
  H       4.542758      1.040588     13.019824
  C       4.706264      3.533859     14.259115
  H       4.504708      4.624792     14.243155
  H       3.770480      2.981557     14.479071
  H       5.471863      3.302134     15.028650
  C       6.509911      3.837193     12.581569
  H       6.306170      4.927868     12.543774
  H       6.905844      3.491237     11.606841
  H       7.250758      3.620494     13.379469
  C       4.440302      3.158993     10.364079
  H       3.514808      3.477512      9.811570
  H       5.262455      3.830554     10.007086
  P       3.586837      0.542973     10.265950
  O       2.837854      0.835376     11.572885
  O       4.340241     -0.723777      9.928685
  O       4.811316      1.823376     10.081226
  O       2.546413      1.037895      9.019630
  C       2.944949      0.746025      7.667435
  H       3.153429     -0.344160      7.540110
  H       3.883278      1.297133      7.397294
  C       1.814651      1.199232      6.726199
  H       1.506950      2.236734      6.981213
  O       0.674432      0.298033      6.932589
  C      -0.596159      0.827867      6.944556
  O      -0.858650      2.014779      6.803965
  C      -1.627945     -0.295307      7.137001
  H      -2.624562      0.189030      7.235475
  H      -1.399697     -0.816987      8.095859
  C       2.234690      1.131639      5.239574
  H       2.485812      0.086770      4.950848
  H       3.113118      1.792643      5.065285
  O       1.131853      1.518453      4.362805
  C       0.953193      2.874451      4.135434
  O       1.722024      3.735111      4.537264
  C      -0.285320      3.125284      3.267136
  H      -1.034247      2.320574      3.435354
  H      -0.729172      4.085963      3.610593
  C      -1.635205     -1.335522      5.974915
  H      -2.366103     -2.139434      6.234240
  H      -0.636010     -1.827628      5.920456
  C      -2.001417     -0.731417      4.594919
  H      -1.258104      0.053911      4.323033
  H      -2.989633     -0.212990      4.670417
  C      -2.064072     -1.778878      3.452802
  H      -2.751151     -2.611184      3.748089
  H      -1.057190     -2.248185      3.324284
  C      -2.536812     -1.181109      2.103030
  H      -1.844693     -0.356073      1.806501
  H      -3.535289     -0.697836      2.248047
  C      -2.652387     -2.218554      0.956094
  H      -3.313464     -3.052337      1.296987
  H      -1.654924     -2.680532      0.755406
  C      -3.232883     -1.639057     -0.372551
  H      -4.156965     -1.057931     -0.118096
  H      -3.578615     -2.475564     -1.021218
  C      -2.273271     -0.739566     -1.138341
  H      -1.725643      0.007806     -0.531167
  C      -2.039664     -0.754653     -2.475900
  H      -1.321323     -0.015336     -2.884599
  C      -2.731531     -1.635595     -3.507948
  H      -3.040484     -2.608010     -3.056964
  H      -2.009876     -1.881824     -4.320854
  C      -3.994380     -0.946150     -4.118131
  H      -3.692626      0.020924     -4.590659
  H      -4.677088     -0.673452     -3.278824
  C      -4.775713     -1.807407     -5.148182
  H      -5.758828     -1.315992     -5.350665
  H      -5.022667     -2.797259     -4.688948
  C      -4.049162     -2.033892     -6.499110
  H      -3.073458     -2.548784     -6.326741
  H      -3.791657     -1.042170     -6.946900
  C      -4.876618     -2.855510     -7.520126
  H      -5.869065     -2.362638     -7.675213
  H      -5.105347     -3.861149     -7.086875
  C      -4.176669     -3.032988     -8.891498
  H      -3.176512     -3.511444     -8.738493
  H      -3.963063     -2.027100     -9.330518
  C      -4.994865     -3.869882     -9.908013
  H      -5.996439     -3.394344    -10.053849
  H      -5.201287     -4.878871     -9.472775
  C      -4.296629     -4.030499    -11.280612
  H      -4.908844     -4.640200    -11.984364
  H      -3.305514     -4.531701    -11.176372
  H      -4.115706     -3.041161    -11.762161
  C       0.068045      3.230036      1.749555
  H       0.791222      4.068144      1.603103
  H      -0.859821      3.520381      1.200295
  C       0.642463      1.928696      1.132011
  H      -0.062155      1.084923      1.331977
  H       1.591410      1.651703      1.649093
  C       0.905920      2.031668     -0.391270
  H       1.585700      2.896851     -0.592133
  H      -0.050755      2.267794     -0.920709
  C       1.523649      0.743747     -0.992824
  H       2.457260      0.488001     -0.432843
  H       0.825956     -0.112720     -0.827795
  C       1.855489      0.852989     -2.501722
  H       0.938213      1.132969     -3.075101
  H       2.581251      1.687633     -2.664847
  C       2.442084     -0.463974     -3.096428
  H       1.675091     -1.268834     -3.024256
  H       3.294054     -0.790459     -2.448633
  C       2.949961     -0.300782     -4.519329
  H       3.878098      0.300990     -4.613441
  C       2.394304     -0.774252     -5.662593
  H       2.916052     -0.542276     -6.612821
  C       1.112073     -1.579001     -5.801976
  H       0.752289     -1.921334     -4.805643
  H       1.326556     -2.506014     -6.392179
  C      -0.046210     -0.806561     -6.510925
  H      -0.308318      0.096304     -5.906601
  H      -0.954295     -1.454570     -6.504922
  C       0.250740     -0.384583     -7.973237
  H       1.132199      0.300761     -8.000334
  H       0.550363     -1.291448     -8.553312
  C      -0.952323      0.310643     -8.661720
  H      -1.825761     -0.384925     -8.672280
  H      -1.274293      1.178234     -8.034831
  C      -0.668798      0.825652    -10.101595
  H       0.103862      1.631713    -10.050543
  H      -1.594171      1.317427    -10.490883
  C      -0.199470     -0.245959    -11.125824
  H      -0.025425      0.256958    -12.108591
  H       0.795744     -0.653108    -10.821377
  C      -1.186208     -1.424902    -11.334672
  H      -1.332593     -1.974112    -10.374440
  H      -2.193142     -1.019875    -11.604911
  C      -0.719194     -2.422643    -12.423163
  H      -0.606111     -1.921496    -13.413451
  H       0.269773     -2.869159    -12.163692
  H      -1.443764     -3.258879    -12.548846
138
Coordinates from ORCA-job /wrk/rja7/qm_final_3_replicates/qm_final_1.1/qm/7/freq E -2722.583745343326
  N       5.215175      3.101305     12.896477
  C       4.098818      3.455895     11.854513
  H       3.908714      4.544849     11.990468
  H       3.216956      2.850722     12.150370
  C       5.505533      1.586957     12.961210
  H       5.999550      1.283714     12.020446
  H       6.161343      1.413393     13.840905
  H       4.538273      1.046914     13.027554
  C       4.703027      3.541805     14.263002
  H       4.501689      4.632772     14.246080
  H       3.767444      2.990025     14.485158
  H       5.469787      3.310990     15.031641
  C       6.503941      3.843438     12.582202
  H       6.299659      4.933943     12.542660
  H       6.898741      3.495909     11.607556
  H       7.245976      3.628495     13.379476
  C       4.432786      3.163851     10.368783
  H       3.505920      3.479120      9.816710
  H       5.252384      3.837976     10.010802
  P       3.587761      0.544829     10.266766
  O       2.836098      0.831873     11.573329
  O       4.345410     -0.718883      9.927539
  O       4.808472      1.829463     10.085784
  O       2.547775      1.039842      9.020239
  C       2.948639      0.751872      7.667936
  H       3.163175     -0.336963      7.539304
  H       3.884137      1.308474      7.399111
  C       1.816768      1.200532      6.726543
  H       1.504158      2.236388      6.982262
  O       0.680486      0.294097      6.932100
  C      -0.592365      0.818638      6.945932
  O      -0.859971      2.004643      6.806779
  C      -1.619120     -0.309104      7.138262
  H      -2.617671      0.170727      7.239259
  H      -1.386969     -0.831451      8.095799
  C       2.238338      1.136124      5.240163
  H       2.492751      0.092400      4.950212
  H       3.115003      1.799934      5.067750
  O       1.135400      1.521186      4.362660
  C       0.954278      2.876903      4.135556
  O       1.721360      3.738985      4.537764
  C      -0.283038      3.125467      3.264956
  H      -1.031446      2.320106      3.432483
  H      -0.728310      4.085970      3.607021
  C      -1.623384     -1.347100      5.974320
  H      -2.349362     -2.155479      6.233547
  H      -0.621669     -1.833712      5.916698
  C      -1.995438     -0.741990      4.596434
  H      -1.255895      0.046822      4.324205
  H      -2.985489     -0.227555      4.675093
  C      -2.056517     -1.787376      3.452349
  H      -2.740031     -2.622747      3.747247
  H      -1.048260     -2.252884      3.320837
  C      -2.534044     -1.188361      2.104870
  H      -1.845857     -0.359914      1.808809
  H      -3.534072     -0.709284      2.253154
  C      -2.647866     -2.223518      0.955808
  H      -3.305710     -3.060291      1.295542
  H      -1.649162     -2.681622      0.752375
  C      -3.232507     -1.642486     -0.370459
  H      -4.157478     -1.064303     -0.112451
  H      -3.577355     -2.478311     -1.020423
  C      -2.277346     -0.738217     -1.135909
  H      -1.731441      0.009771     -0.527962
  C      -2.046049     -0.748625     -2.473833
  H      -1.331509     -0.005015     -2.881390
  C      -2.735757     -1.628881     -3.507675
  H      -3.040281     -2.604011     -3.059475
  H      -2.014302     -1.869289     -4.322431
  C      -4.002354     -0.942359     -4.113481
  H      -3.705283      0.027020     -4.584198
  H      -4.684244     -0.674427     -3.271975
  C      -4.782565     -1.804084     -5.143939
  H      -5.767423     -1.315254     -5.344119
  H      -5.025797     -2.795428     -4.685981
  C      -4.056972     -2.026115     -6.496156
  H      -3.079560     -2.538336     -6.325595
  H      -3.803082     -1.032955     -6.942758
  C      -4.883055     -2.848954     -7.517131
  H      -5.877452     -2.359389     -7.670096
  H      -5.107542     -3.856125     -7.085208
  C      -4.184359     -3.021802     -8.889637
  H      -3.181557     -3.495200     -8.738642
  H      -3.976732     -2.014412     -9.328128
  C      -4.999850     -3.862065     -9.905500
  H      -6.004542     -3.392220    -10.048423
  H      -5.199339     -4.872885     -9.471288
  C      -4.303820     -4.016351    -11.279939
  H      -4.913754     -4.629073    -11.983042
  H      -3.309241     -4.511263    -11.178725
  H      -4.130456     -3.025218    -11.760549
  C       0.072718      3.229761      1.747847
  H       0.797490      4.066676      1.602458
  H      -0.853911      3.521779      1.197389
  C       0.645800      1.927548      1.130988
  H      -0.060363      1.084949      1.330408
  H       1.593869      1.648784      1.648694
  C       0.910282      2.029685     -0.392209
  H       1.592368      2.893064     -0.592975
  H      -0.045514      2.268301     -0.922130
  C       1.524569      0.739912     -0.993389
  H       2.457486      0.481609     -0.433416
  H       0.824422     -0.114367     -0.827969
  C       1.856455      0.847436     -2.502429
  H       0.940140      1.130379     -3.075884
  H       2.585204      1.679394     -2.665832
  C       2.437921     -0.472066     -3.096809
  H       1.667376     -1.273484     -3.024982
  H       3.288101     -0.802215     -2.448486
  C       2.947520     -0.311287     -4.519378
  H       3.877018      0.288519     -4.612710
  C       2.392675     -0.784707     -5.663164
  H       2.916434     -0.554554     -6.612731
  C       1.108970     -1.586976     -5.804313
  H       0.747263     -1.928944     -4.808605
  H       1.322319     -2.514177     -6.394623
  C      -0.046568     -0.811923     -6.514923
  H      -0.307393      0.091584     -5.911004
  H      -0.956464     -1.457602     -6.510518
  C       0.254536     -0.390518     -7.976606
  H       1.138439      0.291791     -8.001636
  H       0.552557     -1.298172     -8.556187
  C      -0.944476      0.308991     -8.667895
  H      -1.820512     -0.383351     -8.680416
  H      -1.264683      1.177809     -8.041838
  C      -0.655401      0.822804    -10.107251
  H       0.121995      1.624180    -10.054379
  H      -1.576996      1.320344    -10.498131
  C      -0.190425     -0.250930    -11.131401
  H      -0.012254      0.251598    -12.113641
  H       0.802081     -0.663760    -10.825888
  C      -1.183311     -1.424362    -11.342630
  H      -1.332569     -1.974564    -10.383515
  H      -2.188036     -1.013451    -11.612107
  C      -0.721458     -2.422595    -12.432824
  H      -0.605731     -1.920272    -13.422211
  H       0.265249     -2.874555    -12.174095
  H      -1.450272     -3.254917    -12.559955
138
Coordinates from ORCA-job /wrk/rja7/qm_final_3_replicates/qm_final_1.1/qm/7/freq E -2722.583750219276
  N       5.213497      3.102687     12.905594
  C       4.100019      3.459754     11.861296
  H       3.910054      4.548535     11.998857
  H       3.217069      2.854493     12.153773
  C       5.501969      1.587894     12.969705
  H       5.998347      1.284907     12.030116
  H       6.155022      1.412911     13.851185
  H       4.533846      1.049003     13.032857
  C       4.698594      3.542397     14.271316
  H       4.499186      4.633751     14.255212
  H       3.761465      2.991994     14.490401
  H       5.462969      3.309477     15.041702
  C       6.503904      3.843666     12.595128
  H       6.300757      4.934383     12.555382
  H       6.901002      3.496041     11.621440
  H       7.243543      3.627667     13.394348
  C       4.437850      3.170623     10.375881
  H       3.512658      3.487781      9.822087
  H       5.259033      3.844635     10.021311
  P       3.590302      0.552870     10.268878
  O       2.835858      0.840283     11.573769
  O       4.347660     -0.711385      9.930919
  O       4.812812      1.836412     10.091387
  O       2.553728      1.049504      9.020311
  C       2.956925      0.762678      7.668471
  H       3.176849     -0.325182      7.540662
  H       3.889919      1.323712      7.400007
  C       1.823570      1.205483      6.726016
  H       1.505621      2.239787      6.981390
  O       0.691494      0.293690      6.931099
  C      -0.583678      0.812757      6.946429
  O      -0.856587      1.997589      6.807569
  C      -1.605115     -0.319660      7.139040
  H      -2.605492      0.155598      7.243576
  H      -1.368124     -0.842893      8.094892
  C       2.246023      1.142877      5.239893
  H       2.506089      0.100494      4.950151
  H       3.119103      1.811415      5.067637
  O       1.141039      1.522038      4.362223
  C       0.953745      2.876812      4.134478
  O       1.716294      3.742617      4.537333
  C      -0.285880      3.120008      3.265660
  H      -1.031401      2.312358      3.435221
  H      -0.733561      4.079443      3.607552
  C      -1.607718     -1.355167      5.972844
  H      -2.328768     -2.167803      6.232496
  H      -0.603669     -1.836449      5.911124
  C      -1.987008     -0.748949      4.597443
  H      -1.251430      0.043171      4.323839
  H      -2.978608     -0.238193      4.680430
  C      -2.048623     -1.792313      3.451404
  H      -2.728572     -2.630357      3.746952
  H      -1.039428     -2.254502      3.315447
  C      -2.532899     -1.191963      2.106908
  H      -1.848531     -0.360699      1.809914
  H      -3.533783     -0.716245      2.260218
  C      -2.647963     -2.224833      0.955891
  H      -3.303805     -3.063354      1.295123
  H      -1.649057     -2.680880      0.748833
  C      -3.236787     -1.641316     -0.367724
  H      -4.161212     -1.064218     -0.105357
  H      -3.582867     -2.475790     -1.018732
  C      -2.284692     -0.734032     -1.133285
  H      -1.738839      0.013418     -0.524672
  C      -2.055525     -0.740702     -2.471577
  H      -1.342841      0.005288     -2.878100
  C      -2.744530     -1.619264     -3.507209
  H      -3.051032     -2.594428     -3.060419
  H      -2.021924     -1.859665     -4.320988
  C      -4.009452     -0.930816     -4.114593
  H      -3.710362      0.037798     -4.585605
  H      -4.691636     -0.661320     -3.273821
  C      -4.789992     -1.791861     -5.145509
  H      -5.773712     -1.301481     -5.347463
  H      -5.035502     -2.782416     -4.687070
  C      -4.062535     -2.015891     -6.496418
  H      -3.085844     -2.528624     -6.323427
  H      -3.807300     -1.023349     -6.943594
  C      -4.886992     -2.839348     -7.518163
  H      -5.881034     -2.349790     -7.673419
  H      -5.112298     -3.846224     -7.085962
  C      -4.185618     -3.013254     -8.889205
  H      -3.182539     -3.485374     -8.735949
  H      -3.978365     -2.006093     -9.328449
  C      -4.998224     -3.855427     -9.905775
  H      -6.003430     -3.387227    -10.050564
  H      -5.196775     -4.866272     -9.471187
  C      -4.299865     -4.009401    -11.279095
  H      -4.907964     -4.623144    -11.982892
  H      -3.304820     -4.502995    -11.176166
  H      -4.127044     -3.018220    -11.759825
  C       0.067038      3.224097      1.747807
  H       0.790793      4.061652      1.600927
  H      -0.860833      3.515305      1.199013
  C       0.639922      1.922238      1.130181
  H      -0.065641      1.079351      1.330577
  H       1.588782      1.643561      1.646426
  C       0.902277      2.024423     -0.393415
  H       1.583591      2.888212     -0.595089
  H      -0.054222      2.262463     -0.922319
  C       1.516504      0.734861     -0.995191
  H       2.449765      0.476554     -0.435792
  H       0.816511     -0.119532     -0.829525
  C       1.847976      0.842831     -2.504274
  H       0.931515      1.125469     -3.077670
  H       2.576368      1.675135     -2.667476
  C       2.429585     -0.476462     -3.099044
  H       1.658503     -1.277486     -3.028686
  H       3.278929     -0.807549     -2.450076
  C       2.941031     -0.314698     -4.520799
  H       3.869954      0.286293     -4.612359
  C       2.388850     -0.788667     -5.665621
  H       2.913936     -0.557680     -6.614249
  C       1.106512     -1.592729     -5.809084
  H       0.743730     -1.935707     -4.814095
  H       1.322017     -2.519313     -6.399571
  C      -0.048922     -0.818867     -6.521217
  H      -0.312082      0.083819     -5.917066
  H      -0.957915     -1.465789     -6.518845
  C       0.254389     -0.396183     -7.982076
  H       1.137083      0.287783     -8.004944
  H       0.555595     -1.303003     -8.561331
  C      -0.944320      0.301397     -8.675801
  H      -1.819250     -0.392288     -8.690223
  H      -1.267206      1.169715     -8.050428
  C      -0.652836      0.815484    -10.114617
  H       0.124077      1.617210    -10.060118
  H      -1.573832      1.312530    -10.507489
  C      -0.185293     -0.258079    -11.137817
  H      -0.005570      0.244430    -12.119801
  H       0.806853     -0.670345    -10.830410
  C      -1.177274     -1.431971    -11.350856
  H      -1.327574     -1.982534    -10.392095
  H      -2.181793     -1.021413    -11.621533
  C      -0.713358     -2.429744    -12.440582
  H      -0.596869     -1.927149    -13.429739
  H       0.273459     -2.880834    -12.180780
  H      -1.441317     -3.262719    -12.568637
138
Coordinates from ORCA-job /wrk/rja7/qm_final_3_replicates/qm_final_1.1/qm/7/freq E -2722.583755736133
  N       5.212088      3.114815     12.913297
  C       4.098668      3.475555     11.870360
  H       3.906531      4.563254     12.013346
  H       3.216478      2.867371     12.159054
  C       5.499544      1.599700     12.973813
  H       5.997038      1.298672     12.034225
  H       6.151357      1.421810     13.855660
  H       4.531390      1.060733     13.034357
  C       4.697834      3.551482     14.280208
  H       4.500714      4.643312     14.267514
  H       3.759524      3.002377     14.497539
  H       5.461466      3.314543     15.050107
  C       6.503168      3.855468     12.604606
  H       6.300622      4.946337     12.565811
  H       6.900628      3.508537     11.630807
  H       7.242196      3.638279     13.404073
  C       4.438277      3.194876     10.383852
  H       3.512414      3.511276      9.830816
  H       5.257435      3.873357     10.033121
  P       3.597574      0.576992     10.264962
  O       2.837631      0.860859     11.567338
  O       4.358865     -0.685386      9.928518
  O       4.818016      1.863209     10.094368
  O       2.565687      1.074286      9.013632
  C       2.973727      0.792672      7.662225
  H       3.210519     -0.291712      7.535227
  H       3.898040      1.368087      7.393873
  C       1.833668      1.217710      6.719812
  H       1.498602      2.246349      6.976107
  O       0.716520      0.287560      6.923849
  C      -0.566243      0.787525      6.942374
  O      -0.856981      1.968150      6.803921
  C      -1.569886     -0.359965      7.137943
  H      -2.576065      0.100297      7.253397
  H      -1.317311     -0.884695      8.088922
  C       2.256559      1.163803      5.233708
  H       2.532429      0.126023      4.942054
  H       3.118950      1.846216      5.062203
  O       1.144907      1.527989      4.357986
  C       0.939803      2.880186      4.130663
  O       1.692042      3.755673      4.532006
  C      -0.303878      3.107910      3.263544
  H      -1.041984      2.294749      3.439198
  H      -0.758739      4.065280      3.601575
  C      -1.567644     -1.388714      5.965678
  H      -2.273882     -2.213558      6.227557
  H      -0.556952     -1.854109      5.891786
  C      -1.968107     -0.779296      4.598004
  H      -1.244103      0.022369      4.321108
  H      -2.964086     -0.279518      4.694111
  C      -2.031061     -1.815729      3.445656
  H      -2.699967     -2.662152      3.742509
  H      -1.019009     -2.267239      3.295711
  C      -2.534971     -1.209370      2.111202
  H      -1.861212     -0.369797      1.813399
  H      -3.538131     -0.743614      2.279530
  C      -2.654262     -2.232626      0.952208
  H      -3.306280     -3.075588      1.287638
  H      -1.655638     -2.684246      0.734373
  C      -3.252394     -1.636840     -0.362215
  H      -4.173932     -1.061135     -0.087008
  H      -3.603813     -2.464767     -1.018658
  C      -2.305328     -0.722244     -1.124872
  H      -1.761027      0.023521     -0.512756
  C      -2.077723     -0.719903     -2.463287
  H      -1.368059      0.031396     -2.865400
  C      -2.764209     -1.593450     -3.504390
  H      -3.074194     -2.569827     -3.062577
  H      -2.038741     -1.831209     -4.316503
  C      -4.025691     -0.900005     -4.113566
  H      -3.722407      0.067966     -4.583268
  H      -4.708530     -0.629301     -3.273710
  C      -4.806951     -1.757370     -5.146982
  H      -5.787160     -1.261838     -5.353338
  H      -5.059233     -2.746383     -4.688936
  C      -4.074457     -1.985925     -6.494332
  H      -3.102122     -2.504860     -6.315918
  H      -3.810336     -0.994896     -6.939767
  C      -4.898376     -2.804328     -7.520411
  H      -5.888366     -2.308587     -7.681728
  H      -5.132401     -3.809685     -7.089286
  C      -4.189788     -2.983154     -8.887124
  H      -3.190760     -3.461681     -8.727669
  H      -3.973370     -1.977230     -9.324863
  C      -5.001351     -3.820266     -9.908615
  H      -6.003087     -3.346473    -10.059126
  H      -5.208030     -4.830130     -9.475552
  C      -4.295884     -3.977298    -11.277957
  H      -4.902659     -4.588199    -11.985364
  H      -3.303400     -4.474921    -11.169674
  H      -4.116209     -2.986733    -11.757442
  C       0.044067      3.207084      1.744190
  H       0.763408      4.047491      1.591726
  H      -0.886679      3.491899      1.196931
  C       0.621600      1.905449      1.130615
  H      -0.080592      1.060582      1.334484
  H       1.571711      1.631821      1.647201
  C       0.882535      2.003119     -0.393483
  H       1.563126      2.866783     -0.598177
  H      -0.074485      2.239075     -0.922393
  C       1.497119      0.712118     -0.991867
  H       2.429173      0.454405     -0.430223
  H       0.796172     -0.141542     -0.826370
  C       1.831264      0.817809     -2.500539
  H       0.916193      1.100855     -3.075979
  H       2.560994      1.649054     -2.663165
  C       2.412437     -0.502706     -3.093341
  H       1.638765     -1.301692     -3.028334
  H       3.257138     -0.836673     -2.439717
  C       2.932851     -0.340296     -4.511700
  H       3.860190      0.264113     -4.596857
  C       2.390671     -0.816821     -5.660203
  H       2.921587     -0.583958     -6.605111
  C       1.112375     -1.625748     -5.813006
  H       0.746564     -1.975064     -4.821299
  H       1.334928     -2.548439     -6.406902
  C      -0.043263     -0.853348     -6.526484
  H      -0.313080      0.044794     -5.918465
  H      -0.949370     -1.504315     -6.531458
  C       0.263993     -0.421487     -7.983750
  H       1.145646      0.263995     -7.999647
  H       0.568506     -1.324211     -8.567688
  C      -0.933568      0.278752     -8.676868
  H      -1.807344     -0.416050     -8.697986
  H      -1.259237      1.142876     -8.047199
  C      -0.637968      0.801774    -10.111642
  H       0.139231      1.602633    -10.049507
  H      -1.557630      1.301561    -10.504050
  C      -0.167787     -0.265646    -11.140047
  H       0.013243      0.242740    -12.118797
  H       0.824299     -0.678869    -10.833731
  C      -1.158486     -1.439069    -11.361648
  H      -1.307515     -1.997064    -10.406898
  H      -2.163783     -1.027989    -11.628598
  C      -0.693442     -2.427977    -12.458942
  H      -0.579458     -1.918178    -13.444702
  H       0.294798     -2.878339    -12.203351
  H      -1.419426     -3.261878    -12.592170
138
Coordinates from ORCA-job /wrk/rja7/qm_final_3_replicates/qm_final_1.1/qm/7/freq E -2722.583761992068
  N       5.213720      3.114112     12.926646
  C       4.099411      3.480598     11.886587
  H       3.906976      4.567386     12.036050
  H       3.217564      2.870518     12.172315
  C       5.499007      1.598279     12.980438
  H       5.994763      1.300338     12.038934
  H       6.151692      1.415841     13.860709
  H       4.530197      1.060413     13.040227
  C       4.702164      3.545951     14.296078
  H       4.507348      4.638253     14.288457
  H       3.762922      2.997965     14.512233
  H       5.466281      3.304255     15.064015
  C       6.505541      3.853923     12.618802
  H       6.304310      4.945140     12.583214
  H       6.901431      3.509073     11.643625
  H       7.245002      3.633433     13.416967
  C       4.438967      3.208971     10.398447
  H       3.512404      3.526584      9.847289
  H       5.256769      3.890958     10.051397
  P       3.602380      0.590592     10.262971
  O       2.837843      0.867656     11.564104
  O       4.366810     -0.669183      9.923723
  O       4.821377      1.879652     10.101569
  O       2.573701      1.091644      9.010609
  C       2.984838      0.815724      7.658963
  H       3.232857     -0.266005      7.530792
  H       3.903263      1.401046      7.391596
  C       1.840826      1.230441      6.716655
  H       1.496714      2.256063      6.972964
  O       0.731791      0.290800      6.921330
  C      -0.555089      0.780435      6.942318
  O      -0.855744      1.958446      6.802821
  C      -1.548455     -0.375395      7.140565
  H      -2.557686      0.076272      7.263099
  H      -1.285922     -0.900628      8.088515
  C       2.263243      1.179969      5.230343
  H       2.547536      0.144568      4.938337
  H       3.119771      1.869582      5.058381
  O       1.147806      1.535153      4.355514
  C       0.932939      2.885695      4.127480
  O       1.679106      3.766721      4.528115
  C      -0.312561      3.104687      3.260675
  H      -1.046544      2.288297      3.438781
  H      -0.771682      4.060638      3.596858
  C      -1.544243     -1.400585      5.965064
  H      -2.240722     -2.233038      6.229030
  H      -0.529614     -1.855990      5.883182
  C      -1.959459     -0.790868      4.602026
  H      -1.243828      0.017210      4.321743
  H      -2.958456     -0.298877      4.706467
  C      -2.022910     -1.824465      3.447077
  H      -2.684701     -2.675916      3.745457
  H      -1.009039     -2.269310      3.289634
  C      -2.538742     -1.217311      2.117481
  H      -1.872078     -0.372733      1.817994
  H      -3.543638     -0.758208      2.293576
  C      -2.658336     -2.237688      0.956016
  H      -3.306155     -3.084099      1.290801
  H      -1.658676     -2.684798      0.733520
  C      -3.262716     -1.640156     -0.354825
  H      -4.186307     -1.069787     -0.075353
  H      -3.611906     -2.467381     -1.013341
  C      -2.322098     -0.717799     -1.115974
  H      -1.780424      0.028190     -0.501866
  C      -2.096699     -0.708083     -2.454740
  H      -1.391947      0.049388     -2.853949
  C      -2.779081     -1.580057     -3.499761
  H      -3.087936     -2.558482     -3.061754
  H      -2.051113     -1.813431     -4.311020
  C      -4.040807     -0.887492     -4.109646
  H      -3.738294      0.081679     -4.577378
  H      -4.725184     -0.619282     -3.270249
  C      -4.819247     -1.744365     -5.145679
  H      -5.798879     -1.248668     -5.354374
  H      -5.072652     -2.733626     -4.688845
  C      -4.082941     -1.971725     -6.491173
  H      -3.111105     -2.490619     -6.310131
  H      -3.817850     -0.980295     -6.935078
  C      -4.903481     -2.789669     -7.520271
  H      -5.893532     -2.294801     -7.683762
  H      -5.137584     -3.795769     -7.090904
  C      -4.191194     -2.966292     -8.885396
  H      -3.191177     -3.442017     -8.723702
  H      -3.976693     -1.959641     -9.322452
  C      -4.997844     -3.805569     -9.908985
  H      -6.001358     -3.335853    -10.060432
  H      -5.200838     -4.816749     -9.477237
  C      -4.289752     -3.958321    -11.277454
  H      -4.892491     -4.571930    -11.985961
  H      -3.294979     -4.451011    -11.168007
  H      -4.114324     -2.966653    -11.756172
  C       0.033699      3.202291      1.740686
  H       0.752394      4.042965      1.586591
  H      -0.897779      3.486213      1.194209
  C       0.611038      1.900337      1.127713
  H      -0.091078      1.055622      1.332461
  H       1.561357      1.626813      1.643896
  C       0.871138      1.996980     -0.396625
  H       1.552607      2.859771     -0.602108
  H      -0.085810      2.233942     -0.925193
  C       1.483678      0.704859     -0.994807
  H       2.415179      0.445605     -0.432955
  H       0.781096     -0.147491     -0.829401
  C       1.818870      0.809968     -2.503295
  H       0.904592      1.093995     -3.079509
  H       2.549683      1.640376     -2.665334
  C       2.398810     -0.511342     -3.095681
  H       1.622954     -1.308440     -3.033828
  H       3.240851     -0.848025     -2.439975
  C       2.923979     -0.348544     -4.512173
  H       3.850488      0.257647     -4.593895
  C       2.387569     -0.826803     -5.662639
  H       2.921885     -0.593260     -6.605455
  C       1.111616     -1.638515     -5.820301
  H       0.743514     -1.989609     -4.830068
  H       1.337905     -2.560042     -6.414533
  C      -0.043279     -0.867763     -6.536799
  H      -0.316705      0.029457     -5.929032
  H      -0.948228     -1.520353     -6.545199
  C       0.268271     -0.434325     -7.992700
  H       1.148765      0.252705     -8.005071
  H       0.576525     -1.336116     -8.576122
  C      -0.927912      0.264341     -8.689701
  H      -1.800458     -0.431878     -8.714554
  H      -1.257286      1.127496     -8.060630
  C      -0.627367      0.788896    -10.122914
  H       0.150224      1.589045    -10.056895
  H      -1.545222      1.289721    -10.518154
  C      -0.154207     -0.277549    -11.151028
  H       0.030719      0.231956    -12.128471
  H       0.836451     -0.691966    -10.841664
  C      -1.145241     -1.449675    -11.377903
  H      -1.297202     -2.009818    -10.424859
  H      -2.149413     -1.036941    -11.646404
  C      -0.678265     -2.436464    -12.476286
  H      -0.561464     -1.924462    -13.460568
  H       0.309052     -2.887996    -12.219254
  H      -1.404548     -3.269543    -12.613284
138
Coordinates from ORCA-job /wrk/rja7/qm_final_3_replicates/qm_final_1.1/qm/7/freq E -2722.583767844146
  N       5.210986      3.123265     12.940626
  C       4.093915      3.493897     11.904783
  H       3.897186      4.578606     12.063587
  H       3.214728      2.877991     12.186109
  C       5.496637      1.607144     12.987095
  H       5.990034      1.313167     12.043113
  H       6.151491      1.421031     13.865007
  H       4.528468      1.068344     13.047403
  C       4.702918      3.548991     14.313138
  H       4.509738      4.641643     14.311797
  H       3.763171      3.001467     14.528279
  H       5.468205      3.302503     15.078365
  C       6.502065      3.864222     12.632130
  H       6.300074      4.955346     12.598573
  H       6.896431      3.520930     11.655796
  H       7.242647      3.642723     13.428974
  C       4.434427      3.236629     10.414467
  H       3.505320      3.550869      9.865717
  H       5.246764      3.927671     10.072640
  P       3.615644      0.614328     10.255128
  O       2.843471      0.877676     11.554507
  O       4.389525     -0.638603      9.911538
  O       4.827310      1.912530     10.107567
  O       2.589728      1.117571      9.001467
  C       3.005612      0.851652      7.649356
  H       3.275077     -0.224708      7.519320
  H       3.912071      1.455765      7.382647
  C       1.853326      1.245874      6.708360
  H       1.492997      2.266091      6.963892
  O       0.760110      0.288767      6.917086
  C      -0.534369      0.758361      6.942895
  O      -0.854087      1.931191      6.802017
  C      -1.507638     -0.413085      7.148292
  H      -2.522025      0.022166      7.286694
  H      -1.224063     -0.939546      8.089353
  C       2.273290      1.199659      5.221206
  H       2.570873      0.167924      4.929491
  H       3.120158      1.900499      5.046777
  O       1.151302      1.539429      4.348378
  C       0.920727      2.886955      4.118142
  O       1.656173      3.777259      4.518257
  C      -0.328369      3.091351      3.252898
  H      -1.055097      2.269474      3.435590
  H      -0.794742      4.044750      3.586183
  C      -1.502611     -1.430900      5.966148
  H      -2.180416     -2.277246      6.234672
  H      -0.481472     -1.868122      5.867280
  C      -1.947319     -0.819781      4.613371
  H      -1.248862      0.001432      4.327690
  H      -2.952152     -0.343977      4.735172
  C      -2.011388     -1.846112      3.452035
  H      -2.660565     -2.707031      3.750891
  H      -0.994474     -2.278829      3.280793
  C      -2.547112     -1.234697      2.132171
  H      -1.892444     -0.380875      1.832785
  H      -3.555010     -0.787754      2.321864
  C      -2.666064     -2.247256      0.963903
  H      -3.305593     -3.101143      1.295534
  H      -1.664181     -2.685068      0.732722
  C      -3.281340     -1.644774     -0.339318
  H      -4.211127     -1.088000     -0.052955
  H      -3.622867     -2.470100     -1.004294
  C      -2.353626     -0.704337     -1.094147
  H      -1.818822      0.041682     -0.474224
  C      -2.131261     -0.677931     -2.433225
  H      -1.436899      0.092967     -2.824913
  C      -2.804171     -1.546412     -3.487182
  H      -3.107475     -2.530627     -3.058441
  H      -2.071534     -1.767696     -4.297852
  C      -4.068326     -0.857434     -4.095963
  H      -3.769917      0.116333     -4.556775
  H      -4.756460     -0.598472     -3.256736
  C      -4.839189     -1.712158     -5.139271
  H      -5.818122     -1.216789     -5.352049
  H      -5.094061     -2.703086     -4.686933
  C      -4.094919     -1.934683     -6.481179
  H      -3.123833     -2.453395     -6.295949
  H      -3.828131     -0.941842     -6.920950
  C      -4.909312     -2.750986     -7.516413
  H      -5.899306     -2.257330     -7.683685
  H      -5.144004     -3.758391     -7.090400
  C      -4.190628     -2.923978     -8.878670
  H      -3.188599     -3.393842     -8.712617
  H      -3.980435     -1.916403     -9.315742
  C      -4.988307     -3.769283     -9.904387
  H      -5.995589     -3.308282    -10.057400
  H      -5.183167     -4.782408     -9.473407
  C      -4.276199     -3.915971    -11.271379
  H      -4.870991     -4.537038    -11.980107
  H      -3.276561     -4.397969    -11.159267
  H      -4.110235     -2.923225    -11.751042
  C       0.014053      3.185500      1.731668
  H       0.731532      4.026502      1.573777
  H      -0.919063      3.467261      1.186867
  C       0.591225      1.882531      1.120774
  H      -0.110923      1.038264      1.327029
  H       1.541507      1.609727      1.637309
  C       0.850949      1.976324     -0.403810
  H       1.534111      2.837403     -0.610877
  H      -0.105626      2.214787     -0.932357
  C       1.460565      0.681952     -1.000249
  H       2.390676      0.420790     -0.436967
  H       0.755259     -0.168169     -0.834970
  C       1.798571      0.784947     -2.508303
  H       0.885867      1.069922     -3.086525
  H       2.530947      1.614160     -2.669566
  C       2.378167     -0.537538     -3.098656
  H       1.599410     -1.332230     -3.042960
  H       3.215153     -0.877639     -2.438208
  C       2.913022     -0.374256     -4.511394
  H       3.838096      0.235046     -4.586423
  C       2.387979     -0.855782     -5.665739
  H       2.929005     -0.620523     -6.604304
  C       1.116131     -1.671968     -5.833299
  H       0.744545     -2.028436     -4.846296
  H       1.348522     -2.590000     -6.430419
  C      -0.037649     -0.901956     -6.552408
  H      -0.315709     -0.007127     -5.943272
  H      -0.941250     -1.556498     -6.567116
  C       0.280642     -0.462816     -8.005215
  H       1.160616      0.224927     -8.010661
  H       0.592421     -1.362167     -8.590548
  C      -0.912360      0.237653     -8.705722
  H      -1.784502     -0.458800     -8.737189
  H      -1.245088      1.098589     -8.075336
  C      -0.603844      0.767893    -10.135140
  H       0.176944      1.564209    -10.061219
  H      -1.517653      1.274560    -10.532227
  C      -0.130188     -0.294988    -11.166853
  H       0.061965      0.219216    -12.140420
  H       0.856940     -0.715766    -10.854700
  C      -1.125813     -1.460730    -11.405691
  H      -1.283144     -2.027843    -10.457666
  H      -2.127075     -1.040776    -11.673724
  C      -0.660637     -2.440905    -12.510816
  H      -0.538332     -1.921417    -13.490483
  H       0.323697     -2.899291    -12.254542
  H      -1.390794     -3.269090    -12.656955
138
Coordinates from ORCA-job /wrk/rja7/qm_final_3_replicates/qm_final_1.1/qm/7/freq E -2722.583771149965
  N       5.218498      3.112981     12.928274
  C       4.099510      3.483344     11.894347
  H       3.904174      4.568379     12.052363
  H       3.220486      2.868490     12.178284
  C       5.504287      1.596898     12.974270
  H       5.996059      1.303052     12.029432
  H       6.160619      1.410841     13.851018
  H       4.536167      1.058200     13.036066
  C       4.712715      3.538661     14.301638
  H       4.518690      4.631125     14.300459
  H       3.773842      2.990459     14.518596
  H       5.479614      3.292836     15.065400
  C       6.508918      3.854127     12.617560
  H       6.306995      4.945265     12.585474
  H       6.901215      3.511754     11.640136
  H       7.251082      3.631834     13.412650
  C       4.436345      3.223953     10.403517
  H       3.506514      3.539137      9.856531
  H       5.249046      3.913279     10.059180
  P       3.613446      0.602274     10.249395
  O       2.846271      0.867327     11.551378
  O       4.384243     -0.651882      9.903691
  O       4.826241      1.898855     10.096881
  O       2.583305      1.105850      8.998928
  C       2.993955      0.836932      7.645842
  H       3.253635     -0.241718      7.514690
  H       3.905006      1.433175      7.377302
  C       1.843055      1.241507      6.707489
  H       1.493470      2.265450      6.963156
  O       0.741564      0.294793      6.919782
  C      -0.548857      0.775090      6.944645
  O      -0.858914      1.950080      6.801092
  C      -1.531776     -0.388133      7.151609
  H      -2.543173      0.055491      7.285218
  H      -1.255174     -0.913078      8.095585
  C       2.259498      1.190034      5.219393
  H       2.546551      0.155172      4.928231
  H       3.112998      1.882236      5.042604
  O       1.139781      1.539476      4.347727
  C       0.919969      2.888890      4.118118
  O       1.663213      3.773074      4.517265
  C      -0.326006      3.102853      3.250811
  H      -1.058118      2.285141      3.430396
  H      -0.787453      4.058438      3.584716
  C      -1.531106     -1.410982      5.973851
  H      -2.217567     -2.250089      6.243137
  H      -0.513680     -1.858156      5.881255
  C      -1.965414     -0.802414      4.616496
  H      -1.261113      0.013848      4.331247
  H      -2.968310     -0.320917      4.731839
  C      -2.028928     -1.833259      3.459401
  H      -2.684402     -2.689399      3.758187
  H      -1.013377     -2.272158      3.296010
  C      -2.553466     -1.225468      2.133318
  H      -1.891992     -0.376943      1.833824
  H      -3.560127     -0.772149      2.314113
  C      -2.669907     -2.244374      0.970327
  H      -3.312291     -3.095055      1.304794
  H      -1.667875     -2.685701      0.746569
  C      -3.278506     -1.650163     -0.339179
  H      -4.211998     -1.094609     -0.062677
  H      -3.613773     -2.480256     -1.001474
  C      -2.348242     -0.712290     -1.094419
  H      -1.814142      0.035175     -0.475725
  C      -2.123832     -0.690028     -2.433257
  H      -1.428350      0.079090     -2.826450
  C      -2.796138     -1.561836     -3.485024
  H      -3.097287     -2.545652     -3.053935
  H      -2.063864     -1.784051     -4.295744
  C      -4.061647     -0.876480     -4.094608
  H      -3.765538      0.098234     -4.554887
  H      -4.751426     -0.619400     -3.256164
  C      -4.829256     -1.733180     -5.138521
  H      -5.809537     -1.240514     -5.351367
  H      -5.081704     -2.725001     -4.686748
  C      -4.084667     -1.953300     -6.480622
  H      -3.111889     -2.469292     -6.296575
  H      -3.821053     -0.959678     -6.920608
  C      -4.898148     -2.771560     -7.515086
  H      -5.889862     -2.280665     -7.680298
  H      -5.129409     -3.779745     -7.089071
  C      -4.181763     -2.941909     -8.878787
  H      -3.178462     -3.409818     -8.715003
  H      -3.974557     -1.933791     -9.315889
  C      -4.979927     -3.788507     -9.903002
  H      -5.988007     -3.328798    -10.054504
  H      -5.172874     -4.801733     -9.471414
  C      -4.269667     -3.935146    -11.270861
  H      -4.864143     -4.558377    -11.977937
  H      -3.268930     -4.415022    -11.159445
  H      -4.106293     -2.942688    -11.751925
  C       0.020583      3.197536      1.730638
  H       0.740307      4.037040      1.575223
  H      -0.910552      3.481540      1.183611
  C       0.596636      1.893803      1.120072
  H      -0.107105      1.050476      1.324729
  H       1.545722      1.619711      1.638133
  C       0.859087      1.988331     -0.403958
  H       1.543572      2.848763     -0.609279
  H      -0.096438      2.228262     -0.933692
  C       1.468559      0.693926     -1.000400
  H       2.398571      0.432649     -0.436993
  H       0.763288     -0.156189     -0.835236
  C       1.806834      0.796919     -2.508361
  H       0.893723      1.080510     -3.086607
  H       2.538030      1.627106     -2.669987
  C       2.388557     -0.524785     -3.098069
  H       1.612097     -1.321548     -3.039764
  H       3.227787     -0.861876     -2.438999
  C       2.919725     -0.362306     -4.512327
  H       3.845487      0.245516     -4.590451
  C       2.390237     -0.843124     -5.664835
  H       2.928627     -0.608968     -6.605181
  C       1.116429     -1.657055     -5.827624
  H       0.746920     -2.010984     -4.838916
  H       1.345180     -2.576678     -6.423683
  C      -0.037835     -0.886138     -6.544821
  H      -0.311838      0.010921     -5.937212
  H      -0.942907     -1.538680     -6.555280
  C       0.277184     -0.450895     -7.999490
  H       1.158259      0.235357     -8.008925
  H       0.585529     -1.352196     -8.583654
  C      -0.916780      0.249680     -8.698269
  H      -1.789464     -0.446285     -8.727083
  H      -1.247691      1.111555     -8.068178
  C      -0.610939      0.778504    -10.128706
  H       0.168401      1.576438    -10.056872
  H      -1.526227      1.282963    -10.525260
  C      -0.136317     -0.284681    -11.159605
  H       0.056104      0.229058    -12.133330
  H       0.850816     -0.704702    -10.846440
  C      -1.131169     -1.451015    -11.398264
  H      -1.290911     -2.016221    -10.449558
  H      -2.131768     -1.031650    -11.669794
  C      -0.663418     -2.433374    -12.500381
  H      -0.538318     -1.915740    -13.480670
  H       0.319982     -2.891827    -12.240696
  H      -1.393617     -3.261388    -12.646852
138
Coordinates from ORCA-job /wrk/rja7/qm_final_3_replicates/qm_final_1.1/qm/7/freq E -2722.583773955688
  N       5.216633      3.119175     12.932758
  C       4.097684      3.490017     11.898993
  H       3.901615      4.574762     12.058010
  H       3.218957      2.874291     12.181987
  C       5.502370      1.603101     12.978360
  H       5.994451      1.309475     12.033621
  H       6.158496      1.416660     13.855156
  H       4.534284      1.064317     13.039577
  C       4.710819      3.544420     14.306269
  H       4.517312      4.636968     14.305709
  H       3.771700      2.996483     14.522819
  H       5.477389      3.297653     15.070049
  C       6.507124      3.860414     12.622534
  H       6.305282      4.951571     12.590961
  H       6.899546      3.518503     11.645015
  H       7.249214      3.637796     13.417600
  C       4.434840      3.232242     10.407879
  H       3.504652      3.546644      9.861056
  H       5.246656      3.922890     10.064135
  P       3.615511      0.609732     10.251212
  O       2.846043      0.874116     11.551938
  O       4.388668     -0.643447      9.907283
  O       4.826716      1.907898     10.100357
  O       2.586433      1.111254      8.999242
  C       2.999051      0.843208      7.646570
  H       3.262473     -0.234625      7.516113
  H       3.908189      1.442513      7.378344
  C       1.846957      1.243215      6.707532
  H       1.493527      2.265939      6.962780
  O       0.749072      0.292428      6.919936
  C      -0.543020      0.767969      6.944224
  O      -0.857216      1.941816      6.800646
  C      -1.521723     -0.398778      7.151237
  H      -2.534387      0.041235      7.287256
  H      -1.241821     -0.924448      8.093816
  C       2.263601      1.192734      5.219512
  H       2.554107      0.158680      4.928904
  H       3.114722      1.887744      5.042321
  O       1.142533      1.537932      4.347899
  C       0.918381      2.886515      4.117669
  O       1.659165      3.773208      4.515789
  C      -0.328642      3.096177      3.250895
  H      -1.058623      2.276960      3.432294
  H      -0.792163      4.051115      3.583762
  C      -1.520041     -1.419609      5.971659
  H      -2.203443     -2.261170      6.241073
  H      -0.501417     -1.863506      5.876481
  C      -1.958830     -0.810008      4.616271
  H      -1.257239      0.008392      4.330530
  H      -2.962599     -0.331129      4.734923
  C      -2.023128     -1.839022      3.457554
  H      -2.676666     -2.696609      3.756407
  H      -1.007237     -2.275899      3.290912
  C      -2.551593     -1.229132      2.134000
  H      -1.891314     -0.379690      1.834451
  H      -3.558021     -0.776730      2.318343
  C      -2.671171     -2.245446      0.969006
  H      -3.313619     -3.096206      1.303180
  H      -1.670102     -2.687197      0.741905
  C      -3.282238     -1.647279     -0.337692
  H      -4.213709     -1.090475     -0.057057
  H      -3.620676     -2.475174     -1.001061
  C      -2.352039     -0.709377     -1.093004
  H      -1.817604      0.037601     -0.474020
  C      -2.127843     -0.686366     -2.431855
  H      -1.432022      0.082752     -2.824516
  C      -2.800571     -1.556932     -3.484311
  H      -3.102727     -2.540732     -3.053870
  H      -2.068367     -1.779238     -4.295068
  C      -4.065138     -0.869861     -4.093876
  H      -3.767731      0.104739     -4.553605
  H      -4.755015     -0.612371     -3.255634
  C      -4.833381     -1.725049     -5.138575
  H      -5.812894     -1.231083     -5.351878
  H      -5.087382     -2.716791     -4.687447
  C      -4.088038     -1.945856     -6.480115
  H      -3.116403     -2.463665     -6.295347
  H      -3.821972     -0.952429     -6.919169
  C      -4.901900     -2.762012     -7.515991
  H      -5.892382     -2.268933     -7.682227
  H      -5.135927     -3.769860     -7.090692
  C      -4.183911     -2.933285     -8.878707
  H      -3.182300     -3.404330     -8.713756
  H      -3.973032     -1.925312     -9.314383
  C      -4.982723     -3.776470     -9.905271
  H      -5.988775     -3.313038    -10.058931
  H      -5.180434     -4.789232     -9.474764
  C      -4.269631     -3.924621    -11.271484
  H      -4.864392     -4.545368    -11.980496
  H      -3.270608     -4.407648    -11.157972
  H      -4.101881     -2.932336    -11.751450
  C       0.016112      3.189446      1.730246
  H       0.733475      4.030591      1.572764
  H      -0.916409      3.470246      1.183921
  C       0.594528      1.886303      1.120578
  H      -0.107041      1.041637      1.327180
  H       1.544832      1.614959      1.637840
  C       0.854892      1.979769     -0.403880
  H       1.538552      2.840521     -0.610627
  H      -0.101516      2.218644     -0.932489
  C       1.464601      0.685432     -1.000205
  H       2.394734      0.424553     -0.436809
  H       0.759586     -0.164843     -0.834944
  C       1.802733      0.788498     -2.508213
  H       0.889533      1.072066     -3.086369
  H       2.533841      1.618783     -2.669754
  C       2.384909     -0.532898     -3.098128
  H       1.608814     -1.330115     -3.041056
  H       3.223520     -0.870058     -2.438267
  C       2.917985     -0.369577     -4.511627
  H       3.843188      0.239314     -4.587979
  C       2.390953     -0.850573     -5.665184
  H       2.930751     -0.615488     -6.604476
  C       1.118437     -1.666096     -5.830589
  H       0.748035     -2.021906     -4.842861
  H       1.349643     -2.584605     -6.427416
  C      -0.036174     -0.896110     -6.548276
  H      -0.312239     -0.000397     -5.939598
  H      -0.940108     -1.550159     -6.560652
  C       0.279537     -0.458119     -8.001959
  H       1.160833      0.227851     -8.009523
  H       0.587829     -1.358333     -8.587844
  C      -0.913953      0.244221     -8.699909
  H      -1.786887     -0.451312     -8.729900
  H      -1.244475      1.105278     -8.068497
  C      -0.607777      0.775404    -10.129463
  H       0.171904      1.572875    -10.056311
  H      -1.523003      1.280918    -10.524816
  C      -0.133947     -0.286059    -11.162520
  H       0.059730      0.229813    -12.134880
  H       0.852557     -0.707943    -10.849922
  C      -1.130064     -1.450581    -11.404512
  H      -1.291767     -2.017226    -10.457020
  H      -2.129867     -1.029561    -11.676515
  C      -0.662345     -2.431665    -12.507792
  H      -0.536077     -1.912645    -13.487191
  H       0.320352     -2.891589    -12.248064
  H      -1.393265     -3.258742    -12.655981
138
Coordinates from ORCA-job /wrk/rja7/qm_final_3_replicates/qm_final_1.1/qm/7/freq E -2722.583775145785
  N       5.216516      3.124752     12.930924
  C       4.096991      3.494721     11.897480
  H       3.899350      4.579071     12.057221
  H       3.219142      2.877484     12.179947
  C       5.503378      1.608900     12.976903
  H       5.995654      1.315342     12.032252
  H       6.159738      1.423185     13.853694
  H       4.535783      1.069334     13.038268
  C       4.710743      3.549959     14.304450
  H       4.517334      4.642534     14.304060
  H       3.771573      3.002068     14.520970
  H       5.477241      3.303018     15.068255
  C       6.506420      3.866831     12.620299
  H       6.303709      4.957821     12.588267
  H       6.899156      3.524791     11.642933
  H       7.248706      3.645228     13.415476
  C       4.434393      3.238347     10.406230
  H       3.503584      3.551250      9.859632
  H       5.244983      3.930476     10.062583
  P       3.619044      0.614899     10.249127
  O       2.848906      0.878545     11.549575
  O       4.394048     -0.637281      9.905686
  O       4.828515      1.914740     10.098340
  O       2.589578      1.114857      8.996911
  C       3.002500      0.847698      7.644247
  H       3.269581     -0.229271      7.514049
  H       3.909337      1.450142      7.375244
  C       1.848323      1.243382      6.705896
  H       1.492133      2.265247      6.960746
  O       0.753654      0.289431      6.920331
  C      -0.539908      0.760846      6.944862
  O      -0.857960      1.933555      6.800498
  C      -1.514515     -0.409022      7.153535
  H      -2.528232      0.027605      7.292697
  H      -1.230426     -0.934970      8.094675
  C       2.263651      1.192907      5.217575
  H       2.555696      0.159147      4.927443
  H       3.113368      1.889300      5.039127
  O       1.141160      1.535723      4.346849
  C       0.914832      2.883867      4.116099
  O       1.654308      3.771897      4.513683
  C      -0.333074      3.091367      3.250167
  H      -1.062016      2.271465      3.432671
  H      -0.797462      4.046027      3.582624
  C      -1.512727     -1.428400      5.972697
  H      -2.192482     -2.272591      6.243158
  H      -0.492875     -1.868790      5.874268
  C      -1.957407     -0.818689      4.619375
  H      -1.259638      0.002585      4.332543
  H      -2.962510     -0.343508      4.741623
  C      -2.021583     -1.846275      3.459384
  H      -2.673244     -2.705357      3.758015
  H      -1.005192     -2.281116      3.290440
  C      -2.552967     -1.234962      2.137659
  H      -1.894318     -0.384035      1.838791
  H      -3.559778     -0.784333      2.324263
  C      -2.672803     -2.249192      0.970853
  H      -3.313821     -3.101314      1.304333
  H      -1.671529     -2.689350      0.741560
  C      -3.286296     -1.649048     -0.333794
  H      -4.218490     -1.094734     -0.050678
  H      -3.623568     -2.475957     -0.998996
  C      -2.358709     -0.707239     -1.087480
  H      -1.825806      0.039623     -0.467022
  C      -2.135233     -0.680230     -2.426344
  H      -1.441443      0.091692     -2.817147
  C      -2.806159     -1.549411     -3.480957
  H      -3.107785     -2.534290     -3.052554
  H      -2.073148     -1.769563     -4.291594
  C      -4.070676     -0.862232     -4.090391
  H      -3.773649      0.113474     -4.548059
  H      -4.761680     -0.606718     -3.252461
  C      -4.837331     -1.716145     -5.137290
  H      -5.816452     -1.221885     -5.351660
  H      -5.092181     -2.708347     -4.687614
  C      -4.089866     -1.935988     -6.477802
  H      -3.119029     -2.454836     -6.291920
  H      -3.822078     -0.942295     -6.915280
  C      -4.902696     -2.750471     -7.515806
  H      -5.892459     -2.256325     -7.683211
  H      -5.138409     -3.758425     -7.091668
  C      -4.182648     -2.921472     -8.877427
  H      -3.181622     -3.393343     -8.711269
  H      -3.970508     -1.913376     -9.312218
  C      -4.980458     -3.763610     -9.905665
  H      -5.985744     -3.299065    -10.061002
  H      -5.180034     -4.776264     -9.475766
  C      -4.265056     -3.912050    -11.270626
  H      -4.858864     -4.532411    -11.980770
  H      -3.266456     -4.395529    -11.155348
  H      -4.095916     -2.919820    -11.750191
  C       0.010396      3.183687      1.729225
  H       0.727042      4.025198      1.570467
  H      -0.922797      3.463338      1.183440
  C       0.589179      1.880387      1.120253
  H      -0.112145      1.035659      1.327393
  H       1.539569      1.609513      1.637630
  C       0.849595      1.973011     -0.404243
  H       1.533400      2.833565     -0.611347
  H      -0.106741      2.211828     -0.933009
  C       1.459374      0.678339     -0.999777
  H       2.389084      0.417453     -0.435670
  H       0.754047     -0.171721     -0.834747
  C       1.798508      0.780967     -2.507587
  H       0.885651      1.064283     -3.086425
  H       2.529613      1.611323     -2.668786
  C       2.381469     -0.540353     -3.096795
  H       1.605578     -1.337867     -3.041020
  H       3.219216     -0.877413     -2.435749
  C       2.916773     -0.376837     -4.509443
  H       3.841987      0.232264     -4.584122
  C       2.391871     -0.857905     -5.663940
  H       2.933235     -0.622567     -6.602264
  C       1.119841     -1.673781     -5.831511
  H       0.748348     -2.030564     -4.844538
  H       1.352231     -2.591717     -6.428772
  C      -0.034208     -0.903556     -6.549859
  H      -0.310534     -0.008104     -5.940900
  H      -0.938211     -1.557502     -6.563269
  C       0.282773     -0.464582     -8.002983
  H       1.164534      0.220802     -8.009223
  H       0.590943     -1.364449     -8.589479
  C      -0.909730      0.239064     -8.701261
  H      -1.782922     -0.456048     -8.732678
  H      -1.240349      1.099676     -8.069290
  C      -0.601971      0.771739    -10.129917
  H       0.178230      1.568539    -10.055160
  H      -1.516571      1.278403    -10.525264
  C      -0.128201     -0.288705    -11.164018
  H       0.067899      0.228644    -12.135130
  H       0.857184     -0.712629    -10.850621
  C      -1.125764     -1.451142    -11.409581
  H      -1.290330     -2.019004    -10.463252
  H      -2.124345     -1.028025    -11.682822
  C      -0.657761     -2.431359    -12.513540
  H      -0.529468     -1.911162    -13.492043
  H       0.323946     -2.893005    -12.253111
  H      -1.389587     -3.257277    -12.663717
138
Coordinates from ORCA-job /wrk/rja7/qm_final_3_replicates/qm_final_1.1/qm/7/freq E -2722.583775806026
  N       5.217707      3.127463     12.930281
  C       4.097652      3.496926     11.897247
  H       3.899436      4.581148     12.057165
  H       3.220251      2.879074     12.179825
  C       5.505012      1.611706     12.976495
  H       5.997136      1.318060     12.031780
  H       6.161699      1.426377     13.853131
  H       4.537561      1.071914     13.038196
  C       4.712337      3.552817     14.303925
  H       4.518992      4.645408     14.303527
  H       3.773196      3.004975     14.520758
  H       5.479003      3.305857     15.067572
  C       6.507273      3.869852     12.619021
  H       6.304242      4.960792     12.586915
  H       6.899778      3.527786     11.641558
  H       7.249948      3.648622     13.413954
  C       4.434662      3.240828     10.405851
  H       3.503474      3.553131      9.859565
  H       5.244715      3.933414     10.061852
  P       3.620953      0.616808     10.248684
  O       2.850684      0.880032     11.549154
  O       4.396804     -0.634854      9.905208
  O       4.829590      1.917447     10.097850
  O       2.590943      1.115916      8.996520
  C       3.003661      0.848838      7.643797
  H       3.271605     -0.227941      7.513721
  H       3.909848      1.452033      7.374307
  C       1.848730      1.243261      6.705738
  H       1.492360      2.265206      6.960047
  O       0.754653      0.289049      6.921665
  C      -0.539193      0.759704      6.945832
  O      -0.857977      1.932159      6.800918
  C      -1.512973     -0.410734      7.155249
  H      -2.526806      0.025199      7.295799
  H      -1.227482     -0.937082      8.095723
  C       2.263224      1.191673      5.217249
  H       2.555196      0.157644      4.927989
  H       3.112807      1.887945      5.037693
  O       1.140243      1.533496      4.346748
  C       0.913428      2.881429      4.115113
  O       1.652517      3.769983      4.512277
  C      -0.334791      3.088022      3.249435
  H      -1.063383      2.267887      3.432357
  H      -0.799529      4.042611      3.581631
  C      -1.511958     -1.429525      5.973866
  H      -2.190973     -2.274189      6.244752
  H      -0.491997     -1.869421      5.874282
  C      -1.958564     -0.819695      4.621247
  H      -1.262002      0.002398      4.333810
  H      -2.964013     -0.345592      4.744890
  C      -2.023090     -1.847051      3.461043
  H      -2.674794     -2.706088      3.759687
  H      -1.006763     -2.281902      3.291756
  C      -2.554658     -1.235441      2.139503
  H      -1.895790     -0.384676      1.840683
  H      -3.561322     -0.784562      2.326300
  C      -2.674912     -2.249596      0.972618
  H      -3.315668     -3.101768      1.306490
  H      -1.673689     -2.689649      0.742885
  C      -3.289151     -1.649655     -0.331758
  H      -4.221814     -1.096321     -0.048281
  H      -3.625571     -2.476747     -0.997171
  C      -2.362705     -0.706657     -1.085371
  H      -1.830505      0.040595     -0.464769
  C      -2.139454     -0.678736     -2.424259
  H      -1.446592      0.094283     -2.814601
  C      -2.809163     -1.548089     -3.479460
  H      -3.110293     -2.533310     -3.051468
  H      -2.075668     -1.767524     -4.289851
  C      -4.073805     -0.861620     -4.089382
  H      -3.777366      0.114727     -4.546076
  H      -4.765820     -0.607294     -3.251912
  C      -4.838918     -1.715416     -5.137535
  H      -5.818178     -1.221698     -5.352494
  H      -5.093535     -2.708055     -4.688667
  C      -4.090225     -1.934109     -6.477582
  H      -3.119419     -2.452856     -6.291253
  H      -3.822256     -0.940077     -6.914184
  C      -4.902000     -2.748181     -7.516765
  H      -5.891851     -2.254289     -7.684422
  H      -5.137644     -3.756493     -7.093427
  C      -4.181052     -2.918041     -8.878029
  H      -3.179917     -3.389599     -8.711644
  H      -3.969177     -1.909588     -9.312114
  C      -4.977909     -3.759961     -9.907242
  H      -5.982923     -3.295147    -10.063579
  H      -5.178203     -4.772602     -9.477651
  C      -4.261138     -3.908324    -11.271494
  H      -4.853973     -4.529035    -11.982142
  H      -3.262413     -4.391298    -11.155155
  H      -4.091952     -2.916100    -11.751022
  C       0.008281      3.179904      1.728389
  H       0.724275      4.021856      1.569049
  H      -0.925259      3.458582      1.182688
  C       0.587701      1.876688      1.119850
  H      -0.113188      1.031702      1.327403
  H       1.538290      1.606435      1.637200
  C       0.848095      1.968901     -0.404683
  H       1.531861      2.829450     -0.611947
  H      -0.108232      2.207569     -0.933524
  C       1.458059      0.674138     -0.999834
  H       2.387649      0.413411     -0.435451
  H       0.752708     -0.175922     -0.834843
  C       1.797594      0.776579     -2.507575
  H       0.884729      1.059288     -3.086705
  H       2.528290      1.607306     -2.668714
  C       2.381507     -0.544474     -3.096352
  H       1.606222     -1.342596     -3.040813
  H       3.219267     -0.880908     -2.434985
  C       2.917307     -0.380886     -4.508830
  H       3.842682      0.228029     -4.583087
  C       2.392619     -0.861598     -5.663605
  H       2.934354     -0.626256     -6.601714
  C       1.120345     -1.677010     -5.831596
  H       0.748612     -2.033997     -4.844791
  H       1.352518     -2.594849     -6.429109
  C      -0.033375     -0.906061     -6.549686
  H      -0.308886     -0.010459     -5.940577
  H      -0.937834     -1.559374     -6.562925
  C       0.283596     -0.467012     -8.002803
  H       1.165962      0.217605     -8.008991
  H       0.590878     -1.366952     -8.589654
  C      -0.908467      0.237832     -8.700615
  H      -1.781896     -0.456941     -8.732915
  H      -1.238875      1.097930     -8.067834
  C      -0.600161      0.772100    -10.128587
  H       0.180139      1.568681    -10.052655
  H      -1.514605      1.279385    -10.523522
  C      -0.126397     -0.287094    -11.163956
  H       0.071743      0.231834    -12.133823
  H       0.858064     -0.712811    -10.850045
  C      -1.125163     -1.447671    -11.413019
  H      -1.292548     -2.016674    -10.467860
  H      -2.122579     -1.022641    -11.687559
  C      -0.656688     -2.427041    -12.517548
  H      -0.526465     -1.905756    -13.495209
  H       0.324125     -2.890165    -12.256366
  H      -1.389246     -3.251964    -12.669644
138
Coordinates from ORCA-job /wrk/rja7/qm_final_3_replicates/qm_final_1.1/qm/7/freq E -2722.583776454092
  N       5.220747      3.131182     12.927237
  C       4.100439      3.500459     11.894430
  H       3.902353      4.584717     12.054162
  H       3.223126      2.882646     12.177321
  C       5.507920      1.615404     12.973991
  H       6.000382      1.321441     12.029566
  H       6.164317      1.430356     13.850888
  H       4.540343      1.075827     13.035434
  C       4.715721      3.557067     14.300848
  H       4.522878      4.649739     14.300203
  H       3.776371      3.009698     14.517903
  H       5.482314      3.309956     15.064506
  C       6.510322      3.873312     12.615425
  H       6.307469      4.964271     12.583026
  H       6.902618      3.530881     11.638015
  H       7.253149      3.652233     13.410246
  C       4.436900      3.243918     10.402992
  H       3.505521      3.556162      9.856998
  H       5.246935      3.936218     10.058370
  P       3.622808      0.619865     10.247418
  O       2.853094      0.883984     11.548033
  O       4.398480     -0.631976      9.904256
  O       4.831456      1.920339     10.095228
  O       2.592028      1.118150      8.995565
  C       3.003830      0.850517      7.642721
  H       3.272685     -0.226103      7.513108
  H       3.909152      1.454436      7.371952
  C       1.847595      1.243173      6.705441
  H       1.490607      2.264963      6.959547
  O       0.754739      0.288061      6.923233
  C      -0.539674      0.757109      6.947084
  O      -0.859995      1.928899      6.800348
  C      -1.511802     -0.414527      7.157444
  H      -2.526062      0.019990      7.299289
  H      -1.224513     -0.940855      8.097357
  C       2.260834      1.190960      5.216663
  H       2.552672      0.156788      4.927789
  H       3.110204      1.887230      5.036078
  O       1.137203      1.532211      4.346789
  C       0.910075      2.880064      4.114969
  O       1.649378      3.768767      4.511370
  C      -0.338078      3.086315      3.249197
  H      -1.066905      2.266480      3.432413
  H      -0.802608      4.041189      3.580870
  C      -1.510762     -1.433013      5.975752
  H      -2.188109     -2.278794      6.247360
  H      -0.490258     -1.871372      5.874895
  C      -1.960293     -0.823781      4.623884
  H      -1.265979     -0.000111      4.335555
  H      -2.966594     -0.351894      4.749068
  C      -2.024288     -1.851016      3.463536
  H      -2.674958     -2.710745      3.762415
  H      -1.007585     -2.284715      3.293585
  C      -2.557313     -1.239656      2.142452
  H      -1.899459     -0.388161      1.843514
  H      -3.564305     -0.789797      2.329951
  C      -2.677182     -2.253641      0.975384
  H      -3.316833     -3.106562      1.309440
  H      -1.675594     -2.692501      0.744940
  C      -3.292935     -1.653995     -0.328429
  H      -4.226680     -1.102922     -0.044122
  H      -3.627471     -2.481291     -0.994533
  C      -2.369012     -0.708029     -1.081331
  H      -1.838571      0.039917     -0.460062
  C      -2.146141     -0.677731     -2.420189
  H      -1.455364      0.097755     -2.809399
  C      -2.813596     -1.546993     -3.476782
  H      -3.113771     -2.533057     -3.050030
  H      -2.079164     -1.764608     -4.286826
  C      -4.078621     -0.861647     -4.087105
  H      -3.783317      0.115859     -4.542057
  H      -4.772032     -0.609541     -3.250113
  C      -4.841349     -1.715072     -5.137307
  H      -5.821038     -1.222386     -5.352677
  H      -5.095137     -2.708657     -4.690054
  C      -4.091003     -1.930951     -6.476888
  H      -3.119987     -2.449237     -6.290365
  H      -3.823376     -0.936027     -6.911663
  C      -4.901054     -2.744106     -7.518126
  H      -5.891318     -2.250990     -7.685605
  H      -5.135923     -3.753402     -7.096696
  C      -4.178998     -2.910835     -8.879130
  H      -3.177535     -3.381795     -8.713104
  H      -3.967893     -1.901379     -9.311269
  C      -4.974509     -3.751575     -9.910359
  H      -5.979236     -3.286402    -10.067497
  H      -5.175543     -4.764648     -9.482158
  C      -4.256017     -3.898313    -11.273855
  H      -4.847487     -4.518946    -11.985699
  H      -3.257016     -4.380507    -11.156693
  H      -4.087081     -2.905574    -11.752366
  C       0.005168      3.177414      1.728147
  H       0.721026      4.019396      1.568382
  H      -0.928383      3.455609      1.182214
  C       0.584712      1.873911      1.120362
  H      -0.116386      1.029124      1.328025
  H       1.535097      1.603587      1.638034
  C       0.845722      1.965449     -0.404109
  H       1.530186      2.825467     -0.611304
  H      -0.110181      2.204712     -0.933433
  C       1.455072      0.670097     -0.998628
  H       2.384219      0.408868     -0.433756
  H       0.749065     -0.179449     -0.833749
  C       1.795353      0.771955     -2.506234
  H       0.882697      1.054233     -3.085910
  H       2.525959      1.602770     -2.667301
  C       2.379732     -0.549191     -3.094236
  H       1.604615     -1.347500     -3.038969
  H       3.217200     -0.885355     -2.432368
  C       2.916402     -0.386055     -4.506451
  H       3.842634      0.221625     -4.580117
  C       2.391673     -0.865983     -5.661502
  H       2.934205     -0.631380     -6.599323
  C       1.118337     -1.679621     -5.829969
  H       0.745424     -2.035689     -4.843276
  H       1.349583     -2.598059     -6.426928
  C      -0.033762     -0.907259     -6.549096
  H      -0.307949     -0.010766     -5.940706
  H      -0.939374     -1.558986     -6.562280
  C       0.284716     -0.469651     -8.002298
  H       1.168281      0.213443     -8.008317
  H       0.590928     -1.370436     -8.588421
  C      -0.905709      0.236682     -8.701313
  H      -1.779767     -0.457237     -8.735005
  H      -1.236083      1.096894     -8.068671
  C      -0.594837      0.771309    -10.128615
  H       0.186091      1.567105    -10.051107
  H      -1.508236      1.279618    -10.524657
  C      -0.120593     -0.287823    -11.163787
  H       0.081835      0.231794    -12.132410
  H       0.861911     -0.716275    -10.847448
  C      -1.121501     -1.445496    -11.417199
  H      -1.294171     -2.014637    -10.473054
  H      -2.116712     -1.017515    -11.695172
  C      -0.651753     -2.425522    -12.520615
  H      -0.517655     -1.904218    -13.497731
  H       0.327381     -2.890672    -12.256745
  H      -1.385510     -3.248959    -12.674919
138
Coordinates from ORCA-job /wrk/rja7/qm_final_3_replicates/qm_final_1.1/qm/7/freq E -2722.583777057492
  N       5.222838      3.135037     12.923636
  C       4.102190      3.502337     11.890542
  H       3.903755      4.586781     12.048623
  H       3.225169      2.884620     12.174611
  C       5.511089      1.619503     12.971894
  H       6.003597      1.324959     12.027658
  H       6.167793      1.435808     13.848858
  H       4.543853      1.079352     13.034054
  C       4.717567      3.562006     14.296842
  H       4.523744      4.654506     14.294904
  H       3.778722      3.014030     14.514582
  H       5.484468      3.316469     15.060714
  C       6.511844      3.877764     12.610974
  H       6.308259      4.968569     12.577545
  H       6.904290      3.534660     11.633844
  H       7.254929      3.657941     13.405912
  C       4.438271      3.243402     10.399433
  H       3.506816      3.554997      9.853199
  H       5.248343      3.935013     10.053496
  P       3.623970      0.619035     10.248065
  O       2.855477      0.884305     11.549210
  O       4.399246     -0.633122      9.905083
  O       4.832534      1.919276     10.093605
  O       2.591950      1.116270      8.996768
  C       3.002676      0.847429      7.643822
  H       3.270590     -0.229480      7.514695
  H       3.908345      1.450419      7.372163
  C       1.846326      1.240445      6.706846
  H       1.490037      2.262542      6.960713
  O       0.752922      0.286098      6.925223
  C      -0.541286      0.755871      6.948650
  O      -0.860957      1.927869      6.801895
  C      -1.514134     -0.415155      7.159025
  H      -2.528125      0.019964      7.300928
  H      -1.227143     -0.941728      8.098896
  C       2.259250      1.187443      5.218002
  H       2.550357      0.152973      4.929448
  H       3.109039      1.883109      5.037075
  O       1.135723      1.529047      4.348115
  C       0.909282      2.876944      4.115838
  O       1.649022      3.765391      4.512038
  C      -0.338908      3.083609      3.250173
  H      -1.067937      2.263909      3.433214
  H      -0.803223      4.038522      3.582046
  C      -1.513642     -1.433613      5.977290
  H      -2.191461     -2.279038      6.248830
  H      -0.493364     -1.872515      5.876494
  C      -1.962763     -0.824194      4.625359
  H      -1.268200     -0.000669      4.337186
  H      -2.968985     -0.352083      4.750307
  C      -2.026629     -1.851499      3.465025
  H      -2.677881     -2.710872      3.763675
  H      -1.010048     -2.285729      3.295728
  C      -2.558725     -1.240228      2.143525
  H      -1.900617     -0.388832      1.844860
  H      -3.565791     -0.790240      2.330320
  C      -2.677876     -2.254463      0.976586
  H      -3.317095     -3.107708      1.310609
  H      -1.675979     -2.692728      0.746331
  C      -3.293857     -1.655462     -0.327449
  H      -4.228108     -1.105130     -0.043335
  H      -3.627548     -2.483164     -0.993482
  C      -2.370833     -0.708724     -1.080421
  H      -1.840892      0.039664     -0.459215
  C      -2.148199     -0.678144     -2.419320
  H      -1.458190      0.098047     -2.808512
  C      -2.815052     -1.547795     -3.475985
  H      -3.115167     -2.533871     -3.049235
  H      -2.080255     -1.765303     -4.285744
  C      -4.080086     -0.862877     -4.086816
  H      -3.785055      0.114882     -4.541385
  H      -4.774000     -0.611317     -3.250073
  C      -4.841960     -1.716322     -5.137667
  H      -5.821859     -1.224080     -5.353124
  H      -5.095300     -2.710248     -4.690930
  C      -4.091069     -1.931091     -6.477142
  H      -3.120059     -2.449425     -6.290585
  H      -3.823415     -0.935843     -6.911081
  C      -4.900519     -2.743594     -7.519365
  H      -5.890833     -2.250589     -7.686858
  H      -5.135294     -3.753285     -7.098827
  C      -4.177844     -2.909076     -8.880213
  H      -3.176274     -3.379805     -8.714192
  H      -3.966948     -1.899229     -9.311558
  C      -4.972740     -3.749285     -9.912390
  H      -5.977235     -3.283798    -10.070092
  H      -5.174333     -4.762454     -9.484683
  C      -4.253361     -3.895634    -11.275478
  H      -4.844459     -4.515955    -11.987906
  H      -3.254504     -4.378008    -11.157918
  H      -4.084037     -2.902734    -11.753528
  C       0.004464      3.174949      1.729135
  H       0.720688      4.016668      1.569625
  H      -0.928904      3.453658      1.183151
  C       0.583519      1.871306      1.121243
  H      -0.118112      1.026850      1.328483
  H       1.533600      1.600323      1.639134
  C       0.845227      1.962894     -0.403112
  H       1.529874      2.822852     -0.609949
  H      -0.110369      2.202284     -0.932948
  C       1.454711      0.667457     -0.997293
  H       2.383631      0.406228     -0.432047
  H       0.748577     -0.182045     -0.832590
  C       1.795525      0.769117     -2.504807
  H       0.883043      1.051219     -3.084841
  H       2.526121      1.599963     -2.665754
  C       2.380194     -0.552093     -3.092396
  H       1.605103     -1.350425     -3.037029
  H       3.217618     -0.888083     -2.430406
  C       2.916951     -0.389316     -4.504642
  H       3.844244      0.216736     -4.578311
  C       2.390976     -0.867830     -5.659745
  H       2.933630     -0.633923     -6.597673
  C       1.116037     -1.678957     -5.828068
  H       0.742254     -2.033818     -4.841275
  H       1.345451     -2.598147     -6.424596
  C      -0.034334     -0.904527     -6.547702
  H      -0.306759     -0.007119     -5.939885
  H      -0.941332     -1.554320     -6.560509
  C       0.285047     -0.468535     -8.001212
  H       1.169295      0.213701     -8.007575
  H       0.590633     -1.370100     -8.586443
  C      -0.904475      0.238412     -8.701148
  H      -1.778855     -0.455079     -8.735565
  H      -1.234932      1.098747     -8.068718
  C      -0.592118      0.773048    -10.128163
  H       0.189379      1.568191    -10.049775
  H      -1.504771      1.282155    -10.524887
  C      -0.117927     -0.286207    -11.163233
  H       0.086860      0.233695    -12.131220
  H       0.863461     -0.716365    -10.845723
  C      -1.120282     -1.442082    -11.419008
  H      -1.295701     -2.011485    -10.475518
  H      -2.114281     -1.012254    -11.698488
  C      -0.650243     -2.422261    -12.522162
  H      -0.514108     -1.900741    -13.498880
  H       0.327962     -2.888695    -12.257105
  H      -1.384798     -3.244724    -12.677842
138
Coordinates from ORCA-job /wrk/rja7/qm_final_3_replicates/qm_final_1.1/qm/7/freq E -2722.583777755824
  N       5.225684      3.141195     12.919774
  C       4.105092      3.506387     11.885899
  H       3.906780      4.591187     12.041709
  H       3.228015      2.889379     12.171348
  C       5.514592      1.625837     12.970257
  H       6.007602      1.330236     12.026606
  H       6.171019      1.443634     13.847740
  H       4.547492      1.085411     13.032797
  C       4.719883      3.569894     14.292266
  H       4.524926      4.662185     14.288401
  H       3.781589      3.021301     14.510819
  H       5.487023      3.326455     15.056571
  C       6.514398      3.884068     12.606317
  H       6.310418      4.974758     12.571425
  H       6.907078      3.539826     11.629676
  H       7.257469      3.665497     13.401612
  C       4.441093      3.244269     10.395294
  H       3.509836      3.555458      9.848476
  H       5.251578      3.934784     10.048110
  P       3.625603      0.619844     10.248844
  O       2.858387      0.886801     11.550441
  O       4.400109     -0.632977      9.906486
  O       4.834494      1.919365     10.091828
  O       2.592576      1.115985      8.997979
  C       3.002358      0.845683      7.644990
  H       3.269904     -0.231413      7.516724
  H       3.908100      1.448115      7.372333
  C       1.845771      1.238140      6.708126
  H       1.489162      2.260168      6.961791
  O       0.752564      0.283546      6.926696
  C      -0.541806      0.753085      6.949660
  O      -0.861688      1.924961      6.802236
  C      -1.514513     -0.417967      7.160286
  H      -2.528440      0.017091      7.302794
  H      -1.226997     -0.944742      8.099880
  C       2.258684      1.184955      5.219266
  H       2.550245      0.150589      4.930801
  H       3.108140      1.881002      5.038280
  O       1.134984      1.525927      4.349336
  C       0.907989      2.873688      4.116914
  O       1.647342      3.762476      4.513111
  C      -0.340345      3.079900      3.251313
  H      -1.069306      2.260222      3.434743
  H      -0.804640      4.034920      3.582888
  C      -1.514530     -1.436195      5.978281
  H      -2.192074     -2.281775      6.249999
  H      -0.494216     -1.874865      5.876827
  C      -1.964427     -0.826537      4.626707
  H      -1.269940     -0.003018      4.338292
  H      -2.970538     -0.354341      4.752163
  C      -2.028945     -1.853656      3.466195
  H      -2.679779     -2.713230      3.765204
  H      -1.012409     -2.287673      3.296110
  C      -2.562289     -1.242367      2.145208
  H      -1.904811     -0.390654      1.846093
  H      -3.569384     -0.792836      2.332941
  C      -2.681871     -2.256355      0.978110
  H      -3.320885     -3.109793      1.311983
  H      -1.679993     -2.694334      0.747207
  C      -3.298453     -1.656950     -0.325545
  H      -4.232610     -1.106736     -0.040869
  H      -3.632453     -2.484433     -0.991681
  C      -2.375909     -0.709748     -1.078421
  H      -1.846795      0.039151     -0.457129
  C      -2.152692     -0.679087     -2.417251
  H      -1.463298      0.097861     -2.806034
  C      -2.818187     -1.549212     -3.474436
  H      -3.117778     -2.535661     -3.048230
  H      -2.082610     -1.765752     -4.283770
  C      -4.083483     -0.865143     -4.085739
  H      -3.789086      0.113246     -4.539354
  H      -4.778165     -0.615040     -3.249203
  C      -4.843736     -1.718346     -5.137989
  H      -5.824080     -1.226931     -5.353347
  H      -5.096092     -2.713106     -4.692578
  C      -4.091849     -1.930405     -6.477345
  H      -3.120517     -2.448216     -6.290932
  H      -3.824810     -0.934286     -6.909629
  C      -4.899886     -2.741968     -7.521412
  H      -5.890553     -2.249634     -7.688778
  H      -5.133943     -3.752590     -7.102718
  C      -4.176212     -2.904462     -8.882126
  H      -3.174362     -3.374682     -8.716318
  H      -3.965827     -1.893698     -9.311584
  C      -4.969874     -3.743439     -9.916259
  H      -5.974337     -3.278000    -10.074284
  H      -5.171591     -4.757231     -9.490083
  C      -4.249255     -3.887767    -11.278906
  H      -4.839441     -4.507614    -11.992510
  H      -3.250236     -4.369748    -11.161184
  H      -4.080159     -2.894210    -11.755663
  C       0.003028      3.170752      1.730196
  H       0.719535      4.012209      1.570550
  H      -0.930199      3.449710      1.184102
  C       0.581704      1.866795      1.122695
  H      -0.120297      1.022654      1.329947
  H       1.531571      1.595528      1.640809
  C       0.843818      1.957892     -0.401608
  H       1.528876      2.817524     -0.608453
  H      -0.111497      2.197542     -0.931841
  C       1.452835      0.662007     -0.995276
  H       2.381381      0.400396     -0.429592
  H       0.746162     -0.187101     -0.830739
  C       1.794383      0.763279     -2.502650
  H       0.882204      1.045321     -3.083184
  H       2.525156      1.593999     -2.663458
  C       2.379065     -0.558172     -3.089740
  H       1.603560     -1.356115     -3.034620
  H       3.216047     -0.894449     -2.427375
  C       2.916437     -0.395666     -4.501787
  H       3.844827      0.208737     -4.575071
  C       2.389639     -0.872613     -5.657169
  H       2.932798     -0.639327     -6.594966
  C       1.113093     -1.681059     -5.826069
  H       0.738016     -2.034976     -4.839426
  H       1.340747     -2.600803     -6.422419
  C      -0.035163     -0.904207     -6.546410
  H      -0.306598     -0.006445     -5.938686
  H      -0.943365     -1.552327     -6.560063
  C       0.286109     -0.468686     -7.999628
  H       1.171134      0.212571     -8.005329
  H       0.591238     -1.370637     -8.584496
  C      -0.901972      0.239694     -8.700575
  H      -1.776817     -0.453122     -8.736687
  H      -1.232636      1.099749     -8.067873
  C      -0.587065      0.775275    -10.126687
  H       0.195580      1.569073    -10.046227
  H      -1.498340      1.286144    -10.524278
  C      -0.113043     -0.283681    -11.162122
  H       0.094994      0.236981    -12.129021
  H       0.866747     -0.716453    -10.843196
  C      -1.117519     -1.436868    -11.421572
  H      -1.296359     -2.007188    -10.479260
  H      -2.109911     -1.004274    -11.702505
  C      -0.647429     -2.416597    -12.525101
  H      -0.508769     -1.894210    -13.501002
  H       0.329563     -2.884924    -12.258929
  H      -1.383146     -3.237591    -12.683062
138
Coordinates from ORCA-job /wrk/rja7/qm_final_3_replicates/qm_final_1.1/qm/7/freq E -2722.583778220054
  N       5.229055      3.147577     12.914839
  C       4.108552      3.510862     11.880189
  H       3.910467      4.596030     12.033763
  H       3.231358      2.894688     12.167076
  C       5.518701      1.632416     12.967067
  H       6.012072      1.336116     12.023820
  H       6.174994      1.451460     13.844910
  H       4.551809      1.091624     13.029892
  C       4.722552      3.577561     14.286689
  H       4.526204      4.669591     14.281185
  H       3.784925      3.028078     14.505854
  H       5.489948      3.336161     15.051383
  C       6.517464      3.890791     12.600994
  H       6.313030      4.981369     12.565205
  H       6.910450      3.545937     11.624693
  H       7.260462      3.673128     13.396598
  C       4.444233      3.245523     10.390047
  H       3.513132      3.556489      9.842820
  H       5.255191      3.934807     10.041507
  P       3.627147      0.621160     10.249167
  O       2.861617      0.890322     11.551334
  O       4.400608     -0.632553      9.907712
  O       4.836466      1.919778     10.088892
  O       2.592813      1.115839      8.998828
  C       3.001538      0.844042      7.645769
  H       3.268760     -0.233233      7.518411
  H       3.907264      1.445969      7.371949
  C       1.844475      1.235761      6.709260
  H       1.487179      2.257530      6.962961
  O       0.751921      0.280362      6.928011
  C      -0.542798      0.749028      6.951102
  O      -0.863505      1.920688      6.803714
  C      -1.514707     -0.422663      7.161727
  H      -2.528815      0.011771      7.304831
  H      -1.226453     -0.949642      8.100979
  C       2.257121      1.182859      5.220275
  H       2.549289      0.148723      4.931616
  H       3.106087      1.879479      5.039211
  O       1.133047      1.523222      4.350566
  C       0.905288      2.870847      4.118217
  O       1.644359      3.760006      4.514133
  C      -0.343131      3.076465      3.252559
  H      -1.071915      2.256737      3.436484
  H      -0.807553      4.031562      3.583700
  C      -1.514674     -1.440426      5.979285
  H      -2.191485     -2.286575      6.251034
  H      -0.494100     -1.878307      5.877043
  C      -1.965617     -0.830403      4.628228
  H      -1.271538     -0.006529      4.339857
  H      -2.971811     -0.358571      4.754347
  C      -2.030394     -1.856955      3.467214
  H      -2.680302     -2.717215      3.766286
  H      -1.013694     -2.290150      3.296005
  C      -2.565355     -1.245277      2.147072
  H      -1.908835     -0.392865      1.847861
  H      -3.572632     -0.796677      2.336041
  C      -2.685197     -2.258509      0.979351
  H      -3.323739     -3.112460      1.312810
  H      -1.683284     -2.695913      0.747519
  C      -3.302628     -1.658265     -0.323561
  H      -4.236739     -1.108401     -0.038060
  H      -3.636957     -2.485303     -0.990090
  C      -2.380545     -0.710368     -1.076125
  H      -1.851993      0.038732     -0.454591
  C      -2.156987     -0.679427     -2.414905
  H      -1.467900      0.097953     -2.803369
  C      -2.821862     -1.549672     -3.472445
  H      -3.121485     -2.536253     -3.046596
  H      -2.085760     -1.765894     -4.281407
  C      -4.086948     -0.865681     -4.084287
  H      -3.792461      0.113130     -4.536929
  H      -4.782362     -0.616528     -3.248088
  C      -4.845917     -1.718237     -5.138003
  H      -5.826331     -1.227054     -5.353575
  H      -5.098111     -2.713626     -4.693899
  C      -4.092745     -1.928416     -6.476916
  H      -3.121496     -2.446279     -6.290221
  H      -3.825495     -0.931684     -6.907654
  C      -4.899561     -2.738659     -7.522953
  H      -5.890064     -2.246172     -7.690854
  H      -5.134049     -3.749853     -7.105887
  C      -4.174270     -2.899300     -8.883048
  H      -3.172691     -3.369868     -8.716612
  H      -3.963192     -1.887978     -9.310867
  C      -4.966760     -3.736762     -9.919300
  H      -5.970899     -3.270908    -10.078111
  H      -5.169276     -4.751016     -9.494591
  C      -4.244356     -3.879750    -11.281136
  H      -4.833875     -4.498552    -11.996205
  H      -3.245715     -4.362329    -11.162712
  H      -4.074256     -2.885725    -11.756557
  C       0.000190      3.166603      1.731347
  H       0.716975      4.007776      1.571425
  H      -0.932933      3.445695      1.185152
  C       0.578513      1.862245      1.124371
  H      -0.123798      1.018400      1.331762
  H       1.528185      1.590927      1.642796
  C       0.840951      1.952686     -0.399907
  H       1.526345      2.811997     -0.606959
  H      -0.114168      2.192439     -0.930451
  C       1.449630      0.656328     -0.992894
  H       2.377745      0.394458     -0.426614
  H       0.742449     -0.192398     -0.828500
  C       1.792188      0.757016     -2.500078
  H       0.880546      1.039436     -3.081276
  H       2.523536      1.587274     -2.660676
  C       2.376570     -0.564917     -3.086455
  H       1.600414     -1.362263     -3.031843
  H       3.212725     -0.901678     -2.423324
  C       2.915222     -0.402950     -4.498088
  H       3.844993      0.199402     -4.570631
  C       2.387894     -0.878095     -5.653963
  H       2.932011     -0.645573     -6.591398
  C       1.109601     -1.683506     -5.823992
  H       0.732753     -2.036433     -4.837663
  H       1.335529     -2.603817     -6.420125
  C      -0.036138     -0.903994     -6.545435
  H      -0.306694     -0.005941     -5.937751
  H      -0.945564     -1.550350     -6.560466
  C       0.287707     -0.468647     -7.998140
  H       1.173555      0.211540     -8.002643
  H       0.592466     -1.370895     -8.582742
  C      -0.898579      0.241384     -8.700529
  H      -1.774146     -0.450433     -8.738189
  H      -1.229182      1.101500     -8.067871
  C      -0.580776      0.777394    -10.125839
  H       0.203216      1.569660    -10.043467
  H      -1.490495      1.290161    -10.524510
  C      -0.106994     -0.281601    -11.161359
  H       0.104208      0.239557    -12.127312
  H       0.871208     -0.716848    -10.840918
  C      -1.113513     -1.432239    -11.424147
  H      -1.295743     -2.003146    -10.482833
  H      -2.104299     -0.997079    -11.706812
  C      -0.643203     -2.411889    -12.527664
  H      -0.501575     -1.888905    -13.502822
  H       0.332349     -2.882313    -12.259946
  H      -1.380229     -3.231256    -12.687956
138
Coordinates from ORCA-job /wrk/rja7/qm_final_3_replicates/qm_final_1.1/qm/7/freq E -2722.583778461597
  N       5.230847      3.151491     12.910880
  C       4.110644      3.513165     11.875324
  H       3.912694      4.598621     12.027036
  H       3.233293      2.897658     12.163136
  C       5.521238      1.636544     12.964736
  H       6.015172      1.339618     12.021982
  H       6.177198      1.456771     13.843065
  H       4.554541      1.095382     13.027577
  C       4.723459      3.582581     14.282062
  H       4.525978      4.674394     14.275165
  H       3.786336      3.032387     14.501596
  H       5.490886      3.342851     15.047248
  C       6.518985      3.895137     12.596968
  H       6.314039      4.985598     12.560552
  H       6.912422      3.549983     11.620958
  H       7.261848      3.678242     13.392902
  C       4.446486      3.245328     10.385644
  H       3.515630      3.556106      9.837874
  H       5.257894      3.933663     10.036257
  P       3.628223      0.621026     10.248957
  O       2.863936      0.891803     11.551530
  O       4.400868     -0.633361      9.908185
  O       4.837894      1.918959     10.086324
  O       2.593022      1.114784      8.998962
  C       3.001043      0.841982      7.645873
  H       3.267589     -0.235521      7.519052
  H       3.907022      1.443225      7.371393
  C       1.843841      1.233780      6.709607
  H       1.486656      2.255585      6.963302
  O       0.751223      0.278447      6.928558
  C      -0.543452      0.747218      6.951612
  O      -0.864042      1.918863      6.804020
  C      -1.515449     -0.424363      7.162506
  H      -2.529476      0.010216      7.305761
  H      -1.227070     -0.951342      8.101714
  C       2.256140      1.180846      5.220529
  H       2.548255      0.146729      4.931755
  H       3.105070      1.877461      5.039280
  O       1.131869      1.521327      4.351130
  C       0.904162      2.868992      4.119021
  O       1.643214      3.758073      4.515144
  C      -0.344302      3.074809      3.253499
  H      -1.073289      2.255342      3.437818
  H      -0.808370      4.030152      3.584410
  C      -1.515857     -1.442182      5.980101
  H      -2.192740     -2.288200      6.252073
  H      -0.495377     -1.880230      5.877611
  C      -1.966991     -0.832110      4.629123
  H      -1.272688     -0.008492      4.340579
  H      -2.972988     -0.359913      4.755474
  C      -2.032443     -1.858626      3.468119
  H      -2.682088     -2.718977      3.767485
  H      -1.015810     -2.291727      3.296238
  C      -2.568137     -1.246786      2.148344
  H      -1.911777     -0.394329      1.848924
  H      -3.575329     -0.798257      2.337930
  C      -2.688544     -2.259777      0.980459
  H      -3.327353     -3.113555      1.313876
  H      -1.686848     -2.697538      0.748381
  C      -3.305889     -1.659022     -0.322265
  H      -4.239798     -1.108885     -0.036646
  H      -3.640631     -2.485737     -0.988982
  C      -2.383315     -0.711312     -1.074497
  H      -1.855095      0.037823     -0.452749
  C      -2.158963     -0.680580     -2.413159
  H      -1.469534      0.096647     -2.801318
  C      -2.823324     -1.550876     -3.471014
  H      -3.122585     -2.537700     -3.045467
  H      -2.086991     -1.766587     -4.279892
  C      -4.088530     -0.867163     -4.082899
  H      -3.794323      0.112170     -4.534602
  H      -4.784472     -0.619095     -3.246826
  C      -4.846513     -1.719192     -5.137764
  H      -5.827026     -1.228250     -5.353411
  H      -5.098518     -2.715102     -4.694703
  C      -4.092507     -1.927913     -6.476432
  H      -3.121305     -2.445824     -6.289704
  H      -3.825100     -0.930702     -6.906027
  C      -4.898646     -2.737108     -7.523810
  H      -5.888959     -2.244312     -7.691963
  H      -5.133618     -3.748658     -7.107881
  C      -4.172459     -2.896588     -8.883567
  H      -3.171259     -3.367893     -8.716881
  H      -3.960488     -1.884914     -9.310104
  C      -4.964610     -3.732532     -9.921281
  H      -5.968528     -3.266209    -10.080106
  H      -5.167673     -4.747231     -9.497887
  C      -4.241482     -3.874248    -11.282852
  H      -4.830840     -4.492047    -11.998923
  H      -3.243095     -4.357343    -11.164384
  H      -4.070743     -2.879788    -11.757122
  C      -0.001159      3.164334      1.732226
  H       0.715813      4.005290      1.571988
  H      -0.934275      3.443489      1.186046
  C       0.576856      1.859682      1.125578
  H      -0.125613      1.016019      1.333140
  H       1.526447      1.588372      1.644143
  C       0.839397      1.949788     -0.398686
  H       1.525073      2.808849     -0.605839
  H      -0.115630      2.189723     -0.929305
  C       1.447788      0.653159     -0.991380
  H       2.375620      0.390982     -0.424770
  H       0.740239     -0.195294     -0.827175
  C       1.791038      0.753714     -2.498399
  H       0.879750      1.036405     -3.080029
  H       2.522706      1.583750     -2.658689
  C       2.375309     -0.568389     -3.084506
  H       1.598869     -1.365484     -3.030319
  H       3.210982     -0.905427     -2.420914
  C       2.914747     -0.406469     -4.495832
  H       3.844965      0.195250     -4.567857
  C       2.387540     -0.880871     -5.652048
  H       2.932224     -0.648491     -6.589189
  C       1.108777     -1.685347     -5.822895
  H       0.731209     -2.038306     -4.836845
  H       1.334327     -2.605629     -6.419216
  C      -0.036124     -0.904879     -6.544635
  H      -0.306859     -0.007141     -5.936554
  H      -0.945742     -1.550934     -6.560848
  C       0.288955     -0.468622     -7.996784
  H       1.175026      0.211262     -8.000243
  H       0.593728     -1.370587     -8.581827
  C      -0.896599      0.242377     -8.699482
  H      -1.772456     -0.449013     -8.738009
  H      -1.227152      1.102266     -8.066480
  C      -0.577573      0.779145    -10.124201
  H       0.207099      1.570619    -10.040719
  H      -1.486599      1.292993    -10.523049
  C      -0.104060     -0.279475    -11.160216
  H       0.108369      0.242273    -12.125586
  H       0.873483     -0.715930    -10.839402
  C      -1.111507     -1.428886    -11.424715
  H      -1.295110     -2.000330    -10.483978
  H      -2.101605     -0.992515    -11.707920
  C      -0.641195     -2.408210    -12.528530
  H      -0.498344     -1.884707    -13.503232
  H       0.333719     -2.879677    -12.260345
  H      -1.378826     -3.226807    -12.689972
138
Coordinates from ORCA-job /wrk/rja7/qm_final_3_replicates/qm_final_1.1/qm/7/freq E -2722.583778618391
  N       5.232829      3.153576     12.908039
  C       4.112857      3.514601     11.871985
  H       3.915170      4.600249     12.022706
  H       3.235314      2.899610     12.160315
  C       5.523579      1.638743     12.962469
  H       6.017726      1.341659     12.019870
  H       6.179422      1.459431     13.840983
  H       4.556953      1.097423     13.025241
  C       4.724896      3.585028     14.278906
  H       4.526791      4.676724     14.271432
  H       3.788036      3.034411     14.498532
  H       5.492315      3.346069     15.044350
  C       6.520846      3.897511     12.594313
  H       6.315657      4.987935     12.557992
  H       6.914491      3.552567     11.618310
  H       7.263663      3.680722     13.390321
  C       4.448667      3.245388     10.382537
  H       3.518008      3.556414      9.834557
  H       5.260524      3.932955     10.032665
  P       3.629038      0.621303     10.248242
  O       2.865773      0.893137     11.551204
  O       4.400829     -0.633651      9.907662
  O       4.839200      1.918586     10.084107
  O       2.593200      1.114825      8.998624
  C       3.000629      0.841630      7.645422
  H       3.267059     -0.235927      7.518814
  H       3.906514      1.442756      7.370385
  C       1.843017      1.233159      6.709560
  H       1.485688      2.254892      6.963339
  O       0.750699      0.277560      6.928940
  C      -0.544107      0.745950      6.952468
  O      -0.865121      1.917492      6.805037
  C      -1.515603     -0.426034      7.163587
  H      -2.529738      0.008142      7.307340
  H      -1.226623     -0.953084      8.102565
  C       2.254729      1.180301      5.220319
  H       2.546960      0.146241      4.931450
  H       3.103456      1.877072      5.038710
  O       1.130055      1.520593      4.351349
  C       0.902080      2.868229      4.119301
  O       1.641051      3.757429      4.515315
  C      -0.346380      3.073818      3.253717
  H      -1.075396      2.254446      3.438411
  H      -0.810378      4.029320      3.584255
  C      -1.516180     -1.443600      5.980978
  H      -2.192581     -2.289954      6.253119
  H      -0.495580     -1.881239      5.877909
  C      -1.968207     -0.833445      4.630334
  H      -1.274334     -0.009528      4.341601
  H      -2.974292     -0.361595      4.757311
  C      -2.033895     -1.859731      3.469148
  H      -2.682994     -2.720453      3.768609
  H      -1.017166     -2.292340      3.296565
  C      -2.570420     -1.247715      2.149777
  H      -1.914444     -0.394977      1.850331
  H      -3.577672     -0.799567      2.339936
  C      -2.690970     -2.260460      0.981674
  H      -3.329685     -3.114319      1.315093
  H      -1.689305     -2.698194      0.749410
  C      -3.308467     -1.659542     -0.320878
  H      -4.242516     -1.109686     -0.035186
  H      -3.643025     -2.486155     -0.987821
  C      -2.385949     -0.711494     -1.072803
  H      -1.857946      0.037572     -0.450795
  C      -2.161337     -0.680455     -2.411410
  H      -1.471865      0.096886     -2.799269
  C      -2.825329     -1.550628     -3.469603
  H      -3.124467     -2.537600     -3.044291
  H      -2.088800     -1.766091     -4.278367
  C      -4.090442     -0.867002     -4.081734
  H      -3.796295      0.112700     -4.532681
  H      -4.786980     -0.619623     -3.245953
  C      -4.847524     -1.718661     -5.137556
  H      -5.827947     -1.227765     -5.353696
  H      -5.099761     -2.714816     -4.695153
  C      -4.092491     -1.926777     -6.475740
  H      -3.121455     -2.444798     -6.288511
  H      -3.824683     -0.929383     -6.904685
  C      -4.897857     -2.735433     -7.524122
  H      -5.887912     -2.242348     -7.692966
  H      -5.133464     -3.747071     -7.108758
  C      -4.170511     -2.894652     -8.883284
  H      -3.169568     -3.366234     -8.715804
  H      -3.957931     -1.882908     -9.309347
  C      -4.961845     -3.730257     -9.921886
  H      -5.965834     -3.264185    -10.081018
  H      -5.164831     -4.745239     -9.499124
  C      -4.237901     -3.871189    -11.283101
  H      -4.826723     -4.488791    -11.999783
  H      -3.239491     -4.354135    -11.164220
  H      -4.067072     -2.876514    -11.756877
  C      -0.003329      3.162720      1.732391
  H       0.713671      4.003588      1.571801
  H      -0.936477      3.441708      1.186175
  C       0.574613      1.857849      1.126115
  H      -0.127882      1.014276      1.333915
  H       1.524191      1.586710      1.644787
  C       0.837202      1.947582     -0.398166
  H       1.523037      2.806473     -0.605490
  H      -0.117779      2.187570     -0.928835
  C       1.445457      0.650728     -0.990534
  H       2.373042      0.388384     -0.423591
  H       0.737628     -0.197520     -0.826452
  C       1.789383      0.751074     -2.497405
  H       0.878475      1.034088     -3.079485
  H       2.521410      1.580852     -2.657396
  C       2.373518     -0.571236     -3.083181
  H       1.596769     -1.368070     -3.029605
  H       3.208587     -0.908600     -2.418983
  C       2.914038     -0.409411     -4.494094
  H       3.844531      0.191972     -4.565419
  C       2.387466     -0.883446     -5.650753
  H       2.932885     -0.651110     -6.587477
  C       1.108574     -1.687499     -5.822584
  H       0.730445     -2.040819     -4.836874
  H       1.334148     -2.607558     -6.419240
  C      -0.035831     -0.906386     -6.544439
  H      -0.306742     -0.009011     -5.935892
  H      -0.945508     -1.552310     -6.561656
  C       0.290156     -0.469108     -7.996088
  H       1.176309      0.210656     -7.998554
  H       0.595082     -1.370690     -8.581654
  C      -0.894897      0.242588     -8.698971
  H      -1.770907     -0.448559     -8.738250
  H      -1.225498      1.102201     -8.065611
  C      -0.574988      0.780200    -10.123154
  H       0.209987      1.571272    -10.038720
  H      -1.483607      1.294706    -10.522080
  C      -0.101358     -0.277821    -11.159743
  H       0.111891      0.244666    -12.124537
  H       0.875788     -0.714982    -10.838680
  C      -1.109198     -1.426496    -11.425853
  H      -1.293767     -1.998609    -10.485703
  H      -2.098850     -0.989389    -11.709467
  C      -0.638603     -2.405229    -12.530091
  H      -0.494768     -1.881050    -13.504282
  H       0.335846     -2.877461    -12.261572
  H      -1.376570     -3.223309    -12.692640
138
Coordinates from ORCA-job /wrk/rja7/qm_final_3_replicates/qm_final_1.1/qm/7/freq E -2722.583778713306
  N       5.233881      3.154578     12.905762
  C       4.114239      3.514888     11.869095
  H       3.916826      4.600736     12.018730
  H       3.236484      2.900418     12.157876
  C       5.525056      1.639872     12.960885
  H       6.019515      1.342584     12.018511
  H       6.180724      1.461127     13.839639
  H       4.558514      1.098370     13.023564
  C       4.725270      3.586451     14.276241
  H       4.526629      4.678040     14.268130
  H       3.788612      3.035492     14.495867
  H       5.492556      3.348241     15.042053
  C       6.521773      3.898826     12.592288
  H       6.316317      4.989200     12.555941
  H       6.915735      3.554026     11.616365
  H       7.264502      3.682245     13.388433
  C       4.450153      3.244165     10.379936
  H       3.519733      3.555370      9.831634
  H       5.262477      3.930927     10.029553
  P       3.629191      0.620256     10.248017
  O       2.866812      0.893083     11.551294
  O       4.400147     -0.635219      9.907548
  O       4.839867      1.916903     10.082530
  O       2.592830      1.113704      8.998722
  C       2.999676      0.839983      7.645451
  H       3.265328     -0.237785      7.518987
  H       3.905884      1.440435      7.370016
  C       1.842045      1.232078      6.709838
  H       1.485288      2.254001      6.963674
  O       0.749309      0.277022      6.929463
  C      -0.545287      0.745944      6.953045
  O      -0.865810      1.917619      6.805697
  C      -1.517245     -0.425684      7.164195
  H      -2.531251      0.008881      7.307701
  H      -1.228623     -0.952659      8.103326
  C       2.253402      1.179017      5.220517
  H       2.545120      0.144816      4.931630
  H       3.102410      1.875391      5.038697
  O       1.128733      1.519825      4.351747
  C       0.901336      2.867581      4.119763
  O       1.640607      3.756450      4.515941
  C      -0.347043      3.073692      3.254202
  H      -1.076383      2.254616      3.438912
  H      -0.810655      4.029390      3.584723
  C      -1.518026     -1.443467      5.981792
  H      -2.194784     -2.289526      6.253973
  H      -0.497584     -1.881529      5.878963
  C      -1.969652     -0.833424      4.630956
  H      -1.275577     -0.009679      4.342242
  H      -2.975673     -0.361371      4.757706
  C      -2.035283     -1.859863      3.469913
  H      -2.684527     -2.720476      3.769359
  H      -1.018569     -2.292592      3.297537
  C      -2.571436     -1.247947      2.150329
  H      -1.915279     -0.395309      1.850994
  H      -3.578694     -0.799668      2.340149
  C      -2.691774     -2.260886      0.982360
  H      -3.330619     -3.114620      1.315863
  H      -1.690089     -2.698777      0.750481
  C      -3.308899     -1.660217     -0.320462
  H      -4.243079     -1.110406     -0.035121
  H      -3.643131     -2.486943     -0.987432
  C      -2.386191     -0.712202     -1.072212
  H      -1.858221      0.036778     -0.450074
  C      -2.161358     -0.681128     -2.410768
  H      -1.471703      0.096115     -2.798500
  C      -2.825255     -1.551184     -3.469105
  H      -3.124257     -2.538239     -3.043866
  H      -2.088765     -1.766528     -4.277928
  C      -4.090416     -0.867640     -4.081181
  H      -3.796444      0.112299     -4.531731
  H      -4.787186     -0.620647     -3.245475
  C      -4.847192     -1.719124     -5.137369
  H      -5.827630     -1.228294     -5.353584
  H      -5.099440     -2.715406     -4.695250
  C      -4.091930     -1.926910     -6.475479
  H      -3.120939     -2.445011     -6.288232
  H      -3.823994     -0.929421     -6.904137
  C      -4.897183     -2.735273     -7.524167
  H      -5.887096     -2.241952     -7.693153
  H      -5.133120     -3.746915     -7.108993
  C      -4.169570     -2.894497     -8.883171
  H      -3.168795     -3.366371     -8.715528
  H      -3.956642     -1.882750     -9.309051
  C      -4.960845     -3.729821     -9.922041
  H      -5.964947     -3.263888    -10.080881
  H      -5.163603     -4.745014     -9.499678
  C      -4.237002     -3.870109    -11.283376
  H      -4.825809     -4.487491    -12.000257
  H      -3.238518     -4.352966    -11.164735
  H      -4.066332     -2.875235    -11.756792
  C      -0.004008      3.162454      1.732878
  H       0.713049      4.003257      1.572201
  H      -0.937160      3.441457      1.186677
  C       0.573829      1.857523      1.126621
  H      -0.128756      1.014013      1.334372
  H       1.523360      1.586291      1.645330
  C       0.836536      1.947301     -0.397641
  H       1.522450      2.806150     -0.604876
  H      -0.118390      2.187376     -0.928361
  C       1.444798      0.650439     -0.989998
  H       2.372261      0.387967     -0.422916
  H       0.736870     -0.197756     -0.826079
  C       1.789042      0.750872     -2.496786
  H       0.878339      1.034148     -3.079065
  H       2.521269      1.580524     -2.656506
  C       2.373045     -0.571491     -3.082554
  H       1.596166     -1.368217     -3.029284
  H       3.207879     -0.909061     -2.418156
  C       2.913980     -0.409634     -4.493295
  H       3.844509      0.191733     -4.564309
  C       2.387783     -0.883629     -5.650139
  H       2.933492     -0.651246     -6.586678
  C       1.108980     -1.687746     -5.822333
  H       0.730769     -2.041386     -4.836767
  H       1.334733     -2.607622     -6.419200
  C      -0.035445     -0.906559     -6.544092
  H      -0.306467     -0.009389     -5.935288
  H      -0.945055     -1.552564     -6.561653
  C       0.290741     -0.468744     -7.995535
  H       1.176888      0.211026     -7.997594
  H       0.595777     -1.370101     -8.581396
  C      -0.894192      0.243180     -8.698396
  H      -1.770270     -0.447874     -8.737828
  H      -1.224747      1.102728     -8.064919
  C      -0.574109      0.781028    -10.122443
  H       0.210947      1.571997    -10.037834
  H      -1.482650      1.295720    -10.521310
  C      -0.100517     -0.276819    -11.159240
  H       0.112940      0.245923    -12.123850
  H       0.876509     -0.714212    -10.838136
  C      -1.108499     -1.425244    -11.425803
  H      -1.293421     -1.997483    -10.485800
  H      -2.097986     -0.987903    -11.709627
  C      -0.637817     -2.403917    -12.530065
  H      -0.493606     -1.879614    -13.504130
  H       0.336446     -2.876442    -12.261381
  H      -1.375919     -3.221828    -12.692843
138
Coordinates from ORCA-job /wrk/rja7/qm_final_3_replicates/qm_final_1.1/qm/7/freq E -2722.583778777971
  N       5.234868      3.155534     12.904008
  C       4.115541      3.515202     11.866793
  H       3.918342      4.601220     12.015475
  H       3.237605      2.901152     12.155928
  C       5.526378      1.640927     12.959760
  H       6.021087      1.343419     12.017581
  H       6.181907      1.462669     13.838714
  H       4.559892      1.099285     13.022407
  C       4.725680      3.587815     14.274142
  H       4.526628      4.679324     14.265444
  H       3.789167      3.036608     14.493777
  H       5.492833      3.350247     15.040290
  C       6.522670      3.900004     12.590726
  H       6.317023      4.990340     12.554243
  H       6.916915      3.555220     11.614909
  H       7.265314      3.683650     13.387015
  C       4.451636      3.243157     10.377910
  H       3.521488      3.554568      9.829252
  H       5.264431      3.929172     10.027143
  P       3.629378      0.619465     10.247930
  O       2.867733      0.893085     11.551479
  O       4.399522     -0.636483      9.907429
  O       4.840614      1.915475     10.081460
  O       2.592647      1.113099      8.998943
  C       2.998930      0.838925      7.645591
  H       3.264090     -0.238979      7.519262
  H       3.905304      1.438935      7.369737
  C       1.841192      1.231298      6.710213
  H       1.484818      2.253354      6.964064
  O       0.748210      0.276613      6.930129
  C      -0.546270      0.745864      6.953745
  O      -0.866518      1.917613      6.806370
  C      -1.518489     -0.425544      7.164975
  H      -2.532414      0.009227      7.308434
  H      -1.229993     -0.952473      8.104172
  C       2.252250      1.178020      5.220823
  H       2.543640      0.143713      4.931972
  H       3.101417      1.874147      5.038801
  O       1.127544      1.519065      4.352195
  C       0.900473      2.866882      4.120171
  O       1.639975      3.755570      4.516321
  C      -0.347823      3.073251      3.254556
  H      -1.077377      2.254357      3.439249
  H      -0.811217      4.029076      3.585021
  C      -1.519433     -1.443435      5.982672
  H      -2.196287     -2.289395      6.254929
  H      -0.499049     -1.881640      5.879876
  C      -1.971061     -0.833500      4.631782
  H      -1.277090     -0.009679      4.343020
  H      -2.977141     -0.361561      4.758496
  C      -2.036492     -1.860031      3.470808
  H      -2.685780     -2.720620      3.770219
  H      -1.019739     -2.292743      3.298631
  C      -2.572419     -1.248268      2.151048
  H      -1.916260     -0.395597      1.851815
  H      -3.579757     -0.800043      2.340581
  C      -2.692374     -2.261379      0.983181
  H      -3.331182     -3.115132      1.316699
  H      -1.690569     -2.699179      0.751638
  C      -3.309281     -1.661016     -0.319876
  H      -4.243692     -1.111452     -0.034815
  H      -3.643017     -2.487909     -0.986888
  C      -2.386688     -0.712757     -1.071448
  H      -1.858787      0.036132     -0.449143
  C      -2.161846     -0.681315     -2.409987
  H      -1.472297      0.096140     -2.797489
  C      -2.825555     -1.551152     -3.468605
  H      -3.124552     -2.538309     -3.043589
  H      -2.088979     -1.766309     -4.277403
  C      -4.090677     -0.867604     -4.080731
  H      -3.796787      0.112500     -4.530976
  H      -4.787669     -0.620877     -3.245126
  C      -4.847184     -1.718944     -5.137230
  H      -5.827580     -1.228102     -5.353621
  H      -5.099525     -2.715280     -4.695293
  C      -4.091642     -1.926539     -6.475220
  H      -3.120718     -2.444728     -6.287836
  H      -3.823547     -0.929004     -6.903662
  C      -4.896710     -2.734739     -7.524172
  H      -5.886524     -2.241294     -7.693369
  H      -5.132871     -3.746376     -7.109110
  C      -4.168778     -2.893987     -8.883000
  H      -3.168040     -3.365864     -8.715143
  H      -3.955780     -1.882239     -9.308841
  C      -4.959807     -3.729356     -9.922029
  H      -5.964079     -3.263740    -10.080732
  H      -5.162202     -4.744706     -9.499870
  C      -4.235964     -3.869114    -11.283420
  H      -4.824555     -4.486586    -12.000398
  H      -3.237284     -4.351587    -11.164894
  H      -4.065698     -2.874082    -11.756656
  C      -0.004717      3.161951      1.733243
  H       0.712371      4.002724      1.572550
  H      -0.937848      3.440969      1.187012
  C       0.573064      1.857003      1.126986
  H      -0.129603      1.013547      1.334676
  H       1.522556      1.585639      1.645696
  C       0.835875      1.946837     -0.397263
  H       1.521847      2.805669     -0.604385
  H      -0.118990      2.186999     -0.928048
  C       1.444109      0.649978     -0.989660
  H       2.371467      0.387361     -0.422477
  H       0.736078     -0.198170     -0.825926
  C       1.788587      0.750555     -2.496385
  H       0.878028      1.034013     -3.078802
  H       2.520930      1.580154     -2.655849
  C       2.372532     -0.571790     -3.082238
  H       1.595528     -1.368416     -3.029356
  H       3.207148     -0.909613     -2.417687
  C       2.913889     -0.409743     -4.492791
  H       3.844305      0.191850     -4.563426
  C       2.388256     -0.883848     -5.649854
  H       2.934243     -0.651273     -6.586182
  C       1.109731     -1.688320     -5.822486
  H       0.731524     -2.042457     -4.837097
  H       1.335873     -2.607907     -6.419651
  C      -0.034857     -0.907213     -6.544077
  H      -0.306063     -0.010276     -5.935013
  H      -0.944337     -1.553398     -6.561861
  C       0.291333     -0.468897     -7.995365
  H       1.177359      0.211037     -7.997122
  H       0.596631     -1.370006     -8.581475
  C      -0.893654      0.243019     -8.698122
  H      -1.769602     -0.448184     -8.737852
  H      -1.224429      1.102318     -8.064421
  C      -0.573516      0.781379    -10.121971
  H       0.211425      1.572426    -10.037051
  H      -1.482096      1.296082    -10.520737
  C      -0.099725     -0.276055    -11.159110
  H       0.113965      0.247116    -12.123437
  H       0.877218     -0.713612    -10.837976
  C      -1.107701     -1.424302    -11.426388
  H      -1.292925     -1.996914    -10.486667
  H      -2.097083     -0.986781    -11.710294
  C      -0.636835     -2.402572    -12.530933
  H      -0.492407     -1.877893    -13.504759
  H       0.337357     -2.875251    -12.262247
  H      -1.374933     -3.220409    -12.694108
138
Coordinates from ORCA-job /wrk/rja7/qm_final_3_replicates/qm_final_1.1/qm/7/freq E -2722.583778817234
  N       5.235585      3.156297     12.902664
  C       4.116556      3.515420     11.864952
  H       3.919611      4.601601     12.012762
  H       3.238434      2.901797     12.154423
  C       5.527325      1.641758     12.958988
  H       6.022270      1.344042     12.016997
  H       6.182703      1.463902     13.838132
  H       4.560872      1.100030     13.021595
  C       4.725879      3.588956     14.272488
  H       4.526448      4.680388     14.263235
  H       3.789508      3.037514     14.492122
  H       5.492924      3.351992     15.038932
  C       6.523351      3.900886     12.589562
  H       6.317605      4.991197     12.552870
  H       6.917859      3.556014     11.613884
  H       7.265868      3.684733     13.386022
  C       4.452777      3.242124     10.376311
  H       3.522869      3.553711      9.827338
  H       5.265992      3.927459     10.025180
  P       3.629289      0.618649     10.248120
  O       2.868278      0.893047     11.551881
  O       4.398695     -0.637737      9.907636
  O       4.841047      1.914047     10.080741
  O       2.592232      1.112391      8.999389
  C       2.997997      0.837645      7.645994
  H       3.262494     -0.240442      7.519850
  H       3.904668      1.437037      7.369771
  C       1.840303      1.230458      6.710743
  H       1.484375      2.252670      6.964598
  O       0.746959      0.276225      6.930773
  C      -0.547363      0.745922      6.954199
  O      -0.867185      1.917783      6.806761
  C      -1.520035     -0.425124      7.165347
  H      -2.533848      0.010017      7.308465
  H      -1.231980     -0.951965      8.104733
  C       2.251269      1.176952      5.221326
  H       2.542280      0.142524      4.932524
  H       3.100673      1.872773      5.039246
  O       1.126682      1.518324      4.352678
  C       0.900010      2.866213      4.120632
  O       1.639763      3.754683      4.516798
  C      -0.348238      3.072927      3.255034
  H      -1.077972      2.254178      3.439613
  H      -0.811441      4.028816      3.585593
  C      -1.520983     -1.443246      5.983244
  H      -2.198139     -2.288971      6.255476
  H      -0.500695     -1.881746      5.880774
  C      -1.972147     -0.833449      4.632137
  H      -1.278054     -0.009699      4.343474
  H      -2.978246     -0.361455      4.758482
  C      -2.037246     -1.860133      3.471279
  H      -2.686731     -2.720609      3.770599
  H      -1.020470     -2.292960      3.299548
  C      -2.572692     -1.248556      2.151237
  H      -1.916422     -0.395932      1.852111
  H      -3.580090     -0.800282      2.340332
  C      -2.692261     -2.261855      0.983495
  H      -3.331081     -3.115615      1.316955
  H      -1.690344     -2.699574      0.752282
  C      -3.308908     -1.661717     -0.319792
  H      -4.243463     -1.112265     -0.034982
  H      -3.642318     -2.488740     -0.986809
  C      -2.386346     -0.713354     -1.071252
  H      -1.858432      0.035457     -0.448857
  C      -2.161537     -0.681697     -2.409787
  H      -1.472042      0.095867     -2.797167
  C      -2.825237     -1.551365     -3.468539
  H      -3.124324     -2.538555     -3.043659
  H      -2.088636     -1.766468     -4.277335
  C      -4.090313     -0.867722     -4.080643
  H      -3.796411      0.112409     -4.530823
  H      -4.787316     -0.621016     -3.245038
  C      -4.846845     -1.718985     -5.137179
  H      -5.827253     -1.228134     -5.353508
  H      -5.099152     -2.715349     -4.695293
  C      -4.091369     -1.926442     -6.475229
  H      -3.120404     -2.444598     -6.287933
  H      -3.823360     -0.928864     -6.903612
  C      -4.896459     -2.734647     -7.524161
  H      -5.886297     -2.241240     -7.693311
  H      -5.132557     -3.746295     -7.109091
  C      -4.168581     -2.893852     -8.883022
  H      -3.167789     -3.365624     -8.715232
  H      -3.955734     -1.882085     -9.308897
  C      -4.959599     -3.729299     -9.922005
  H      -5.963993     -3.263881    -10.080514
  H      -5.161713     -4.744727     -9.499899
  C      -4.235933     -3.868757    -11.283521
  H      -4.824480     -4.486312    -12.000464
  H      -3.237110     -4.350986    -11.165211
  H      -4.066002     -2.873627    -11.756677
  C      -0.005084      3.161755      1.733734
  H       0.711995      4.002550      1.573117
  H      -0.938204      3.440798      1.187500
  C       0.572714      1.856861      1.127393
  H      -0.129989      1.013401      1.334959
  H       1.522173      1.585389      1.646110
  C       0.835623      1.946819     -0.396836
  H       1.521558      2.805711     -0.603832
  H      -0.119209      2.186972     -0.927688
  C       1.443941      0.650040     -0.989314
  H       2.371253      0.387385     -0.422076
  H       0.735926     -0.198151     -0.825738
  C       1.788516      0.750773     -2.496008
  H       0.878013      1.034334     -3.078461
  H       2.520906      1.580360     -2.655323
  C       2.372432     -0.571535     -3.081971
  H       1.595348     -1.368096     -3.029305
  H       3.206957     -0.909524     -2.417391
  C       2.913966     -0.409340     -4.492441
  H       3.844293      0.192417     -4.562871
  C       2.388650     -0.883553     -5.649602
  H       2.934749     -0.650844     -6.585830
  C       1.110291     -1.688258     -5.822440
  H       0.732124     -2.042673     -4.837136
  H       1.336666     -2.607680     -6.419766
  C      -0.034410     -0.907233     -6.543930
  H      -0.305699     -0.010398     -5.934756
  H      -0.943827     -1.553513     -6.561744
  C       0.291733     -0.468737     -7.995169
  H       1.177742      0.211225     -7.996831
  H       0.597119     -1.369761     -8.581361
  C      -0.893258      0.243206     -8.697865
  H      -1.769186     -0.448019     -8.737698
  H      -1.224081      1.102439     -8.064104
  C      -0.573105      0.781692    -10.121676
  H       0.211847      1.572720    -10.036685
  H      -1.481673      1.296442    -10.520407
  C      -0.099343     -0.275673    -11.158905
  H       0.114646      0.247609    -12.123105
  H       0.877448     -0.713488    -10.837665
  C      -1.107520     -1.423653    -11.426540
  H      -1.293118     -1.996316    -10.486927
  H      -2.096737     -0.985869    -11.710629
  C      -0.636649     -2.401913    -12.531093
  H      -0.491936     -1.877166    -13.504838
  H       0.337407     -2.874798    -12.262275
  H      -1.374877     -3.219591    -12.694466
138
Coordinates from ORCA-job /wrk/rja7/qm_final_3_replicates/qm_final_1.1/qm/7/freq E -2722.583778838408
  N       5.235886      3.157149     12.901893
  C       4.117046      3.515784     11.863822
  H       3.920170      4.602061     12.011017
  H       3.238845      2.902379     12.153512
  C       5.527848      1.642667     12.958681
  H       6.022970      1.344788     12.016836
  H       6.183124      1.465147     13.837968
  H       4.561450      1.100830     13.021295
  C       4.725804      3.590105     14.271487
  H       4.526023      4.681468     14.261795
  H       3.789577      3.038434     14.491154
  H       5.492805      3.353658     15.038132
  C       6.523596      3.901862     12.588889
  H       6.317724      4.992140     12.551944
  H       6.918330      3.556859     11.613348
  H       7.266005      3.685953     13.385514
  C       4.453427      3.241641     10.375359
  H       3.523681      3.553252      9.826123
  H       5.266882      3.926588     10.024022
  P       3.629315      0.618275     10.248382
  O       2.868665      0.893165     11.552254
  O       4.398320     -0.638359      9.907962
  O       4.841345      1.913325     10.080443
  O       2.592065      1.112011      8.999782
  C       2.997511      0.836810      7.646376
  H       3.261615     -0.241394      7.520427
  H       3.904364      1.435809      7.369893
  C       1.839850      1.229819      6.711170
  H       1.484169      2.252132      6.964959
  O       0.746291      0.275855      6.931303
  C      -0.547938      0.745823      6.954503
  O      -0.867493      1.917741      6.806917
  C      -1.520905     -0.424972      7.165634
  H      -2.534642      0.010416      7.308515
  H      -1.233139     -0.951738      8.105154
  C       2.250798      1.176092      5.221745
  H       2.541587      0.141579      4.933027
  H       3.100348      1.871723      5.039626
  O       1.126299      1.517608      4.353047
  C       0.899837      2.865526      4.120967
  O       1.639759      3.753886      4.517065
  C      -0.348380      3.072419      3.255370
  H      -1.078191      2.253716      3.439847
  H      -0.811518      4.028312      3.586009
  C      -1.521849     -1.443276      5.983682
  H      -2.199155     -2.288868      6.255949
  H      -0.501604     -1.881916      5.881397
  C      -1.972784     -0.833619      4.632432
  H      -1.278644     -0.009902      4.343789
  H      -2.978908     -0.361621      4.758546
  C      -2.037678     -1.860439      3.471678
  H      -2.687288     -2.720833      3.770973
  H      -1.020887     -2.293346      3.300251
  C      -2.572842     -1.249021      2.151453
  H      -1.916536     -0.396411      1.852368
  H      -3.580295     -0.800754      2.340273
  C      -2.692121     -2.262429      0.983777
  H      -3.330918     -3.116235      1.317155
  H      -1.690110     -2.700038      0.752755
  C      -3.308623     -1.662433     -0.319647
  H      -4.243312     -1.113110     -0.035023
  H      -3.641799     -2.489544     -0.986673
  C      -2.386116     -0.713944     -1.071011
  H      -1.858171      0.034777     -0.448537
  C      -2.161405     -0.682032     -2.409561
  H      -1.471981      0.095653     -2.796821
  C      -2.825150     -1.551505     -3.468442
  H      -3.124384     -2.538720     -3.043732
  H      -2.088510     -1.766556     -4.277221
  C      -4.090138     -0.867658     -4.080510
  H      -3.796118      0.112463     -4.530634
  H      -4.787102     -0.620937     -3.244878
  C      -4.846754     -1.718757     -5.137115
  H      -5.827122     -1.227799     -5.353387
  H      -5.099119     -2.715144     -4.695321
  C      -4.091304     -1.926107     -6.475198
  H      -3.120354     -2.444317     -6.287966
  H      -3.823276     -0.928487     -6.903470
  C      -4.896442     -2.734189     -7.524190
  H      -5.886278     -2.240757     -7.693277
  H      -5.132538     -3.745871     -7.109203
  C      -4.168615     -2.893262     -8.883098
  H      -3.167808     -3.365035     -8.715403
  H      -3.955814     -1.881450     -9.308890
  C      -4.959685     -3.728589     -9.922142
  H      -5.964062     -3.263116    -10.080592
  H      -5.161828     -4.744046     -9.500121
  C      -4.236047     -3.867917    -11.283685
  H      -4.824592     -4.485428    -12.000667
  H      -3.237209     -4.350131    -11.165461
  H      -4.066156     -2.872731    -11.756738
  C      -0.005157      3.161376      1.734088
  H       0.711936      4.002178      1.573580
  H      -0.938247      3.440475      1.187832
  C       0.572642      1.856521      1.127674
  H      -0.130082      1.013057      1.335162
  H       1.522079      1.584978      1.646393
  C       0.835588      1.946574     -0.396540
  H       1.521508      2.805499     -0.603453
  H      -0.119231      2.186747     -0.927409
  C       1.443913      0.649847     -0.989114
  H       2.371209      0.387137     -0.421875
  H       0.735894     -0.198362     -0.825653
  C       1.788506      0.750726     -2.495795
  H       0.878005      1.034348     -3.078219
  H       2.520906      1.580322     -2.655025
  C       2.372410     -0.571526     -3.081898
  H       1.595277     -1.368049     -3.029392
  H       3.206893     -0.909648     -2.417334
  C       2.914036     -0.409141     -4.492314
  H       3.844229      0.192841     -4.562595
  C       2.388981     -0.883456     -5.649547
  H       2.935131     -0.650573     -6.585703
  C       1.110826     -1.688454     -5.822572
  H       0.732720     -2.043145     -4.837343
  H       1.337460     -2.607707     -6.420056
  C      -0.034020     -0.907571     -6.543973
  H      -0.305477     -0.010853     -5.934705
  H      -0.943328     -1.554011     -6.561824
  C       0.292038     -0.468885     -7.995168
  H       1.177972      0.211179     -7.996772
  H       0.597547     -1.369815     -8.581439
  C      -0.893041      0.242988     -8.697765
  H      -1.768875     -0.448349     -8.737710
  H      -1.223986      1.102096     -8.063901
  C      -0.572944      0.781694    -10.121517
  H       0.211974      1.572742    -10.036409
  H      -1.481540      1.296448    -10.520173
  C      -0.099162     -0.275513    -11.158895
  H       0.115056      0.247929    -12.122959
  H       0.877527     -0.713522    -10.837610
  C      -1.107448     -1.423304    -11.426908
  H      -1.293299     -1.996110    -10.487430
  H      -2.096562     -0.985333    -11.711074
  C      -0.636534     -2.401416    -12.531572
  H      -0.491651     -1.876512    -13.505208
  H       0.337451     -2.874418    -12.262706
  H      -1.374820     -3.218988    -12.695209
138
Coordinates from ORCA-job /wrk/rja7/qm_final_3_replicates/qm_final_1.1/qm/7/freq E -2722.583778847914
  N       5.236041      3.157527     12.901510
  C       4.117292      3.515967     11.863275
  H       3.920482      4.602293     12.010190
  H       3.239035      2.902694     12.153078
  C       5.528069      1.643064     12.958507
  H       6.023277      1.345111     12.016731
  H       6.183278      1.465674     13.837870
  H       4.561684      1.101199     13.021104
  C       4.725796      3.590626     14.271001
  H       4.525839      4.681954     14.261101
  H       3.789646      3.038837     14.490696
  H       5.492796      3.354430     15.037724
  C       6.523746      3.902267     12.588552
  H       6.317839      4.992534     12.551492
  H       6.918577      3.557194     11.613075
  H       7.266090      3.686448     13.385261
  C       4.453724      3.241427     10.374890
  H       3.524052      3.553066      9.825543
  H       5.267298      3.926189     10.023463
  P       3.629269      0.618138     10.248507
  O       2.868810      0.893307     11.552435
  O       4.398066     -0.638631      9.908143
  O       4.841439      1.912995     10.080263
  O       2.591913      1.111831      8.999967
  C       2.997202      0.836364      7.646564
  H       3.261052     -0.241915      7.520734
  H       3.904183      1.435110      7.369954
  C       1.839584      1.229510      6.711371
  H       1.484045      2.251881      6.965117
  O       0.745893      0.275697      6.931550
  C      -0.548282      0.745818      6.954599
  O      -0.867683      1.917769      6.806928
  C      -1.521424     -0.424836      7.165686
  H      -2.535125      0.010703      7.308364
  H      -1.233879     -0.951554      8.105302
  C       2.250530      1.175651      5.221941
  H       2.541181      0.141085      4.933279
  H       3.100176      1.871160      5.039803
  O       1.126089      1.517262      4.353210
  C       0.899736      2.865193      4.121119
  O       1.639754      3.753497      4.517164
  C      -0.348491      3.072186      3.255561
  H      -1.078314      2.253483      3.439977
  H      -0.811616      4.028056      3.586286
  C      -1.522312     -1.443260      5.983836
  H      -2.199731     -2.288761      6.256101
  H      -0.502091     -1.881992      5.881717
  C      -1.973012     -0.833691      4.632469
  H      -1.278779     -0.010042      4.343866
  H      -2.979133     -0.361631      4.758380
  C      -2.037791     -1.860605      3.471789
  H      -2.687480     -2.720946      3.771069
  H      -1.020992     -2.293572      3.300556
  C      -2.572769     -1.249273      2.151457
  H      -1.916428     -0.396687      1.852381
  H      -3.580247     -0.800995      2.340119
  C      -2.691908     -2.262733      0.983811
  H      -3.330702     -3.116562      1.317134
  H      -1.689858     -2.700294      0.752873
  C      -3.308333     -1.662793     -0.319677
  H      -4.243094     -1.113534     -0.035160
  H      -3.641417     -2.489939     -0.986707
  C      -2.385830     -0.714257     -1.070991
  H      -1.857845      0.034409     -0.448487
  C      -2.161198     -0.682226     -2.409555
  H      -1.471785      0.095487     -2.796779
  C      -2.825013     -1.551606     -3.468466
  H      -3.124327     -2.538825     -3.043826
  H      -2.088374     -1.766651     -4.277250
  C      -4.089964     -0.867633     -4.080486
  H      -3.795863      0.112463     -4.530615
  H      -4.786863     -0.620878     -3.244812
  C      -4.846658     -1.718653     -5.137097
  H      -5.827030     -1.227665     -5.353282
  H      -5.099006     -2.715067     -4.695353
  C      -4.091269     -1.925920     -6.475225
  H      -3.120282     -2.444083     -6.288069
  H      -3.823326     -0.928262     -6.903469
  C      -4.896427     -2.734005     -7.524203
  H      -5.886317     -2.240649     -7.693193
  H      -5.132406     -3.745727     -7.109246
  C      -4.168702     -2.892943     -8.883182
  H      -3.167846     -3.364652     -8.715600
  H      -3.956015     -1.881091     -9.308936
  C      -4.959811     -3.728247     -9.922216
  H      -5.964159     -3.262718    -10.080679
  H      -5.162011     -4.743686     -9.500179
  C      -4.236173     -3.867620    -11.283753
  H      -4.824729     -4.485136    -12.000723
  H      -3.237347     -4.349861    -11.165529
  H      -4.066258     -2.872444    -11.756817
  C      -0.005260      3.161243      1.734286
  H       0.711822      4.002066      1.573845
  H      -0.938345      3.440354      1.188028
  C       0.572576      1.856422      1.127832
  H      -0.130113      1.012925      1.335306
  H       1.522022      1.584907      1.646553
  C       0.835509      1.946507     -0.396380
  H       1.521376      2.805476     -0.603288
  H      -0.119330      2.186629     -0.927238
  C       1.443901      0.649826     -0.988982
  H       2.371208      0.387151     -0.421743
  H       0.735929     -0.198427     -0.825558
  C       1.788492      0.750757     -2.495660
  H       0.877973      1.034372     -3.078059
  H       2.520872      1.580372     -2.654884
  C       2.372421     -0.571467     -3.081803
  H       1.595279     -1.367986     -3.029360
  H       3.206886     -0.909617     -2.417231
  C       2.914094     -0.409002     -4.492193
  H       3.844206      0.193113     -4.562414
  C       2.389168     -0.883392     -5.649449
  H       2.935334     -0.650427     -6.585576
  C       1.111122     -1.688549     -5.822560
  H       0.733051     -2.043363     -4.837362
  H       1.337891     -2.607724     -6.420112
  C      -0.033805     -0.907763     -6.543934
  H      -0.305390     -0.011115     -5.934615
  H      -0.943037     -1.554310     -6.561829
  C       0.292226     -0.468953     -7.995094
  H       1.178140      0.211135     -7.996661
  H       0.597754     -1.369838     -8.581425
  C      -0.892880      0.242934     -8.697627
  H      -1.768703     -0.448413     -8.737597
  H      -1.223825      1.102008     -8.063717
  C      -0.572814      0.781709    -10.121362
  H       0.212148      1.572710    -10.036223
  H      -1.481397      1.296524    -10.519967
  C      -0.099118     -0.275470    -11.158802
  H       0.115257      0.248011    -12.122810
  H       0.877483     -0.713656    -10.837488
  C      -1.107558     -1.423089    -11.426978
  H      -1.293604     -1.995907    -10.487544
  H      -2.096574     -0.984948    -11.711228
  C      -0.636673     -2.401219    -12.531637
  H      -0.491634     -1.876297    -13.505242
  H       0.337226     -2.874350    -12.262694
  H      -1.375058     -3.218676    -12.695407
138
Coordinates from ORCA-job /wrk/rja7/qm_final_3_replicates/qm_final_1.1/qm/7/freq E -2722.583778851683
  N       5.236004      3.157784     12.901418
  C       4.117269      3.516120     11.863129
  H       3.920443      4.602457     12.009949
  H       3.239014      2.902867     12.152976
  C       5.528091      1.643337     12.958502
  H       6.023336      1.345364     12.016752
  H       6.183276      1.466016     13.837897
  H       4.561725      1.101437     13.021093
  C       4.725696      3.590934     14.270872
  H       4.525642      4.682243     14.260891
  H       3.789592      3.039076     14.490588
  H       5.492710      3.354854     15.037617
  C       6.523686      3.902568     12.588468
  H       6.317728      4.992824     12.551366
  H       6.918560      3.557484     11.613013
  H       7.266012      3.686808     13.385210
  C       4.453723      3.241461     10.374768
  H       3.524060      3.553064      9.825388
  H       5.267304      3.926201     10.023313
  P       3.629281      0.618164     10.248589
  O       2.868860      0.893413     11.552523
  O       4.398072     -0.638621      9.908278
  O       4.841432      1.913010     10.080237
  O       2.591883      1.111764      9.000043
  C       2.997148      0.836192      7.646652
  H       3.260910     -0.242116      7.520884
  H       3.904179      1.434846      7.370009
  C       1.839557      1.229376      6.711445
  H       1.484072      2.251776      6.965147
  O       0.745808      0.275628      6.931660
  C      -0.548341      0.745817      6.954636
  O      -0.867672      1.917781      6.806920
  C      -1.521561     -0.424774      7.165721
  H      -2.535247      0.010835      7.308287
  H      -1.234124     -0.951456      8.105390
  C       2.250499      1.175431      5.222015
  H       2.541084      0.140834      4.933399
  H       3.100192      1.870876      5.039851
  O       1.126081      1.517076      4.353272
  C       0.899785      2.865009      4.121157
  O       1.639853      3.753290      4.517161
  C      -0.348445      3.072042      3.255615
  H      -1.078259      2.253322      3.439991
  H      -0.811584      4.027888      3.586391
  C      -1.522421     -1.443275      5.983937
  H      -2.199881     -2.288736      6.256223
  H      -0.502209     -1.882044      5.881894
  C      -1.973021     -0.833777      4.632503
  H      -1.278731     -0.010179      4.343895
  H      -2.979131     -0.361667      4.758317
  C      -2.037773     -1.860762      3.471883
  H      -2.687486     -2.721078      3.771181
  H      -1.020972     -2.293758      3.300729
  C      -2.572679     -1.249494      2.151495
  H      -1.916334     -0.396913      1.852412
  H      -3.580176     -0.801228      2.340081
  C      -2.691729     -2.262993      0.983873
  H      -3.330497     -3.116844      1.317190
  H      -1.689653     -2.700516      0.752978
  C      -3.308133     -1.663124     -0.319655
  H      -4.242958     -1.113932     -0.035217
  H      -3.641146     -2.490309     -0.986675
  C      -2.385650     -0.714552     -1.070956
  H      -1.857613      0.034066     -0.448440
  C      -2.161110     -0.682432     -2.409536
  H      -1.471697      0.095285     -2.796751
  C      -2.825003     -1.551734     -3.468460
  H      -3.124371     -2.538952     -3.043858
  H      -2.088389     -1.766785     -4.277265
  C      -4.089926     -0.867645     -4.080426
  H      -3.795755      0.112444     -4.530523
  H      -4.786783     -0.620887     -3.244718
  C      -4.846679     -1.718565     -5.137078
  H      -5.827038     -1.227530     -5.353204
  H      -5.099051     -2.715005     -4.695405
  C      -4.091312     -1.925763     -6.475228
  H      -3.120329     -2.443946     -6.288119
  H      -3.823364     -0.928080     -6.903414
  C      -4.896498     -2.733768     -7.524247
  H      -5.886404     -2.240413     -7.693156
  H      -5.132448     -3.745529     -7.109369
  C      -4.168831     -2.892576     -8.883271
  H      -3.167967     -3.364299     -8.715776
  H      -3.956164     -1.880685     -9.308942
  C      -4.959984     -3.727783     -9.922351
  H      -5.964279     -3.262148    -10.080838
  H      -5.162301     -4.743212     -9.500345
  C      -4.236313     -3.867193    -11.283866
  H      -4.824896     -4.484649    -12.000865
  H      -3.237532     -4.349523    -11.165618
  H      -4.066297     -2.872026    -11.756909
  C      -0.005200      3.161155      1.734348
  H       0.711896      4.001975      1.573955
  H      -0.938273      3.440292      1.188083
  C       0.572639      1.856340      1.127875
  H      -0.130035      1.012833      1.335355
  H       1.522091      1.584847      1.646597
  C       0.835551      1.946436     -0.396337
  H       1.521412      2.805406     -0.603259
  H      -0.119302      2.186554     -0.927169
  C       1.443941      0.649759     -0.988952
  H       2.371259      0.387088     -0.421728
  H       0.735976     -0.198498     -0.825521
  C       1.788516      0.750697     -2.495633
  H       0.877987      1.034328     -3.078009
  H       2.520903      1.580302     -2.654869
  C       2.372420     -0.571531     -3.081795
  H       1.595265     -1.368037     -3.029369
  H       3.206873     -0.909703     -2.417217
  C       2.914109     -0.409044     -4.492175
  H       3.844184      0.193131     -4.562381
  C       2.389231     -0.883463     -5.649438
  H       2.935401     -0.650464     -6.585554
  C       1.111241     -1.688700     -5.822585
  H       0.733191     -2.043573     -4.837400
  H       1.338073     -2.607835     -6.420173
  C      -0.033735     -0.907967     -6.543941
  H      -0.305394     -0.011362     -5.934591
  H      -0.942919     -1.554578     -6.561878
  C       0.292285     -0.469067     -7.995077
  H       1.178170      0.211056     -7.996613
  H       0.597834     -1.369915     -8.581454
  C      -0.892854      0.242806     -8.697574
  H      -1.768656     -0.448565     -8.737553
  H      -1.223812      1.101852     -8.063632
  C      -0.572814      0.781645    -10.121291
  H       0.212158      1.572633    -10.036121
  H      -1.481399      1.296484    -10.519858
  C      -0.099137     -0.275483    -11.158789
  H       0.115300      0.248050    -12.122755
  H       0.877432     -0.713738    -10.837473
  C      -1.107619     -1.423038    -11.427083
  H      -1.293748     -1.995896    -10.487688
  H      -2.096595     -0.984832    -11.711369
  C      -0.636709     -2.401134    -12.531760
  H      -0.491599     -1.876174    -13.505335
  H       0.337156     -2.874312    -12.262782
  H      -1.375118     -3.218551    -12.695625
