138
Coordinates from ORCA-job /wrk/rja7/qm_final_3_replicates/qm_final_1.1/qm/10/freq E -2722.293165767021
  N       2.274000      0.592000     12.427000
  C       1.379000      0.012000     11.383000
  H       1.898000     -0.050000     10.438000
  H       0.552000      0.680000     11.193000
  C       3.441000     -0.276000     12.661000
  H       3.062000     -1.280000     12.784000
  H       4.086000     -0.315000     11.796000
  H       3.947000      0.116000     13.531000
  C       1.566000      0.864000     13.706000
  H       1.539000     -0.078000     14.235000
  H       2.042000      1.558000     14.382000
  H       0.571000      1.255000     13.552000
  C       2.795000      1.922000     11.997000
  H       3.493000      1.787000     11.183000
  H       3.450000      2.367000     12.731000
  H       2.030000      2.519000     11.525000
  C       0.661000     -1.351000     11.759000
  H       0.243000     -1.205000     12.779000
  H      -0.228000     -1.525000     11.116000
  P       1.984000     -3.027000     10.357000
  O       1.601000     -4.411000     10.132000
  O       3.417000     -2.708000     10.184000
  O       1.581000     -2.453000     11.727000
  O       1.216000     -2.120000      9.272000
  C       1.556000     -2.295000      7.894000
  H       0.709000     -2.532000      7.215000
  H       2.364000     -3.042000      7.744000
  C       2.199000     -0.957000      7.282000
  H       2.789000     -0.471000      8.088000
  O       1.150000     -0.131000      6.773000
  C       1.366000      0.890000      6.017000
  O       2.426000      1.531000      5.860000
  C       0.088000      1.341000      5.348000
  H      -0.566000      1.582000      6.213000
  H      -0.439000      0.532000      4.799000
  C       3.272000     -1.239000      6.143000
  H       4.059000     -1.938000      6.500000
  H       3.906000     -0.348000      5.944000
  O       2.733000     -1.644000      4.853000
  C       2.450000     -2.890000      4.698000
  O       2.526000     -3.789000      5.500000
  C       2.196000     -3.069000      3.227000
  H       3.125000     -2.902000      2.641000
  H       1.770000     -4.066000      2.985000
  C       0.254000      2.624000      4.550000
  H       0.942000      3.310000      5.090000
  H      -0.702000      3.188000      4.501000
  C       0.670000      2.400000      3.125000
  H       1.490000      1.650000      3.090000
  H       1.052000      3.337000      2.667000
  C      -0.423000      1.883000      2.145000
  H      -1.463000      2.217000      2.347000
  H      -0.505000      0.803000      2.390000
  C      -0.124000      2.045000      0.668000
  H       0.853000      1.537000      0.522000
  H      -0.013000      3.121000      0.414000
  C      -1.212000      1.474000     -0.178000
  H      -2.062000      2.172000     -0.021000
  H      -1.551000      0.474000      0.170000
  C      -0.773000      1.340000     -1.590000
  H      -1.532000      0.733000     -2.129000
  H       0.117000      0.689000     -1.458000
  C      -0.301000      2.608000     -2.377000
  H      -0.352000      3.520000     -1.764000
  C      -0.081000      2.668000     -3.712000
  H       0.452000      3.550000     -4.100000
  C      -0.048000      1.589000     -4.681000
  H      -0.082000      0.566000     -4.251000
  H       0.970000      1.554000     -5.125000
  C      -0.939000      1.807000     -5.866000
  H      -2.038000      1.728000     -5.722000
  H      -0.699000      0.973000     -6.561000
  C      -0.618000      3.062000     -6.550000
  H       0.485000      3.196000     -6.555000
  H      -0.962000      3.923000     -5.938000
  C      -1.142000      3.192000     -8.063000
  H      -0.674000      2.447000     -8.742000
  H      -0.731000      4.120000     -8.516000
  C      -2.692000      3.298000     -8.126000
  H      -3.186000      2.542000     -7.478000
  H      -2.990000      3.078000     -9.174000
  C      -3.324000      4.707000     -7.742000
  H      -3.022000      4.915000     -6.693000
  H      -4.414000      4.500000     -7.786000
  C      -3.095000      5.888000     -8.582000
  H      -3.007000      5.570000     -9.643000
  H      -2.123000      6.361000     -8.326000
  C      -4.068000      7.019000     -8.352000
  H      -3.721000      7.921000     -8.900000
  H      -4.160000      7.221000     -7.263000
  H      -5.033000      6.601000     -8.711000
  C       1.120000     -2.080000      2.713000
  H       1.352000     -1.040000      3.025000
  H       0.117000     -2.330000      3.121000
  C       0.959000     -2.106000      1.170000
  H       1.681000     -1.378000      0.744000
  H      -0.036000     -1.691000      0.900000
  C       1.189000     -3.463000      0.527000
  H       0.448000     -4.057000      1.103000
  H       2.203000     -3.849000      0.768000
  C       0.882000     -3.659000     -0.951000
  H       0.226000     -2.817000     -1.260000
  H       1.721000     -3.298000     -1.583000
  C       0.402000     -4.996000     -1.260000
  H       1.171000     -5.711000     -0.899000
  H      -0.497000     -5.358000     -0.717000
  C       0.242000     -4.991000     -2.790000
  H       0.577000     -5.923000     -3.295000
  H       0.900000     -4.197000     -3.202000
  C      -1.136000     -4.713000     -3.277000
  H      -1.785000     -5.461000     -2.797000
  C      -1.682000     -3.682000     -3.903000
  H      -2.778000     -3.736000     -3.975000
  C      -1.079000     -2.362000     -4.430000
  H      -0.140000     -2.148000     -3.877000
  H      -1.777000     -1.500000     -4.362000
  C      -0.669000     -2.418000     -5.916000
  H       0.092000     -3.172000     -6.210000
  H      -0.210000     -1.435000     -6.153000
  C      -1.832000     -2.357000     -6.916000
  H      -2.149000     -3.404000     -7.113000
  H      -2.729000     -1.847000     -6.504000
  C      -1.391000     -1.725000     -8.258000
  H      -1.209000     -0.631000     -8.186000
  H      -0.450000     -2.289000     -8.435000
  C      -2.379000     -1.973000     -9.360000
  H      -3.356000     -1.507000     -9.108000
  H      -2.427000     -3.083000     -9.389000
  C      -1.914000     -1.388000    -10.691000
  H      -1.004000     -1.896000    -11.076000
  H      -2.717000     -1.580000    -11.435000
  C      -1.683000      0.154000    -10.708000
  H      -2.426000      0.620000    -10.026000
  H      -0.664000      0.308000    -10.292000
  C      -1.730000      0.781000    -12.100000
  H      -1.714000      1.889000    -12.027000
  H      -0.758000      0.486000    -12.551000
  H      -2.657000      0.454000    -12.617000
138
Coordinates from ORCA-job /wrk/rja7/qm_final_3_replicates/qm_final_1.1/qm/10/freq E -2722.380416222651
  N       2.298824      0.651296     12.418068
  C       1.362308      0.060578     11.404186
  H       1.878833     -0.060313     10.452698
  H       0.553327      0.763246     11.194356
  C       3.451626     -0.263848     12.679116
  H       3.043248     -1.258188     12.856061
  H       4.082298     -0.362671     11.796333
  H       3.996153      0.143461     13.530968
  C       1.611362      1.000820     13.703540
  H       1.548389      0.080878     14.285980
  H       2.140829      1.713457     14.335528
  H       0.622109      1.427409     13.536946
  C       2.862535      1.948512     11.906878
  H       3.544408      1.738874     11.078854
  H       3.545747      2.408943     12.619511
  H       2.099037      2.558489     11.425858
  C       0.609342     -1.259297     11.834575
  H       0.195827     -1.077479     12.852643
  H      -0.283282     -1.422772     11.192802
  P       1.950057     -3.044235     10.491712
  O       1.520893     -4.445415     10.328123
  O       3.411534     -2.740326     10.346307
  O       1.504433     -2.378772     11.851468
  O       1.195491     -2.131344      9.365689
  C       1.538713     -2.344166      7.998483
  H       0.681573     -2.576803      7.328954
  H       2.320779     -3.120351      7.869568
  C       2.216417     -1.034069      7.385926
  H       2.810026     -0.558489      8.198211
  O       1.177033     -0.178305      6.871711
  C       1.408731      0.865036      6.110524
  O       2.480048      1.479735      5.974697
  C       0.130844      1.345086      5.435725
  H      -0.530277      1.586092      6.299742
  H      -0.398728      0.541989      4.878972
  C       3.288936     -1.341540      6.262211
  H       4.052529     -2.063452      6.629201
  H       3.936932     -0.459448      6.072484
  O       2.754111     -1.723525      4.958861
  C       2.431241     -2.985753      4.757905
  O       2.478756     -3.901250      5.557440
  C       2.167245     -3.156836      3.272435
  H       3.105522     -3.016619      2.692029
  H       1.726612     -4.149567      3.042836
  C       0.311811      2.634331      4.633308
  H       1.001775      3.315066      5.177761
  H      -0.645260      3.201960      4.583079
  C       0.752718      2.411715      3.201053
  H       1.575020      1.661433      3.173362
  H       1.145385      3.351888      2.752640
  C      -0.337471      1.893664      2.215728
  H      -1.376248      2.239828      2.421490
  H      -0.429247      0.808506      2.452485
  C      -0.026527      2.058595      0.730682
  H       0.950564      1.545802      0.580544
  H       0.094740      3.137214      0.486062
  C      -1.121733      1.490660     -0.142664
  H      -1.977527      2.188061      0.009531
  H      -1.460439      0.488581      0.203951
  C      -0.691216      1.359023     -1.580593
  H      -1.452844      0.755697     -2.122821
  H       0.206656      0.707877     -1.480205
  C      -0.249215      2.633404     -2.357211
  H      -0.295034      3.545799     -1.739800
  C      -0.048639      2.703963     -3.695112
  H       0.463259      3.602259     -4.083450
  C      -0.021397      1.608265     -4.678618
  H      -0.042581      0.587071     -4.240205
  H       0.993788      1.584760     -5.140252
  C      -0.951435      1.799597     -5.863509
  H      -2.043759      1.697894     -5.674934
  H      -0.717123      0.958582     -6.558548
  C      -0.683868      3.073053     -6.590209
  H       0.416618      3.236887     -6.642241
  H      -1.029858      3.938753     -5.982664
  C      -1.271626      3.166554     -8.069192
  H      -0.811760      2.418782     -8.752869
  H      -0.901619      4.102759     -8.546624
  C      -2.824813      3.218953     -8.086237
  H      -3.273636      2.455081     -7.414080
  H      -3.154121      2.976469     -9.121994
  C      -3.473984      4.609047     -7.692104
  H      -3.145466      4.840131     -6.654043
  H      -4.564843      4.384469     -7.692550
  C      -3.270820      5.789542     -8.576521
  H      -3.206310      5.450822     -9.635010
  H      -2.290655      6.272444     -8.355057
  C      -4.271582      6.919394     -8.357257
  H      -3.956990      7.816825     -8.931400
  H      -4.348423      7.151742     -7.272309
  H      -5.248431      6.498671     -8.685929
  C       1.113229     -2.145165      2.736330
  H       1.367626     -1.108598      3.042992
  H       0.103270     -2.372171      3.146622
  C       0.958601     -2.166606      1.185362
  H       1.704494     -1.454245      0.762853
  H      -0.026023     -1.724358      0.913489
  C       1.136615     -3.535426      0.525662
  H       0.375645     -4.126773      1.085647
  H       2.135785     -3.963448      0.758729
  C       0.829321     -3.677094     -0.968579
  H       0.196117     -2.804485     -1.254258
  H       1.693780     -3.330500     -1.579350
  C       0.299989     -5.006267     -1.351934
  H       1.042004     -5.763660     -1.011148
  H      -0.619744     -5.339893     -0.822118
  C       0.134381     -4.988605     -2.892135
  H       0.434105     -5.934894     -3.398703
  H       0.822758     -4.219824     -3.305766
  C      -1.248184     -4.655665     -3.367700
  H      -1.942394     -5.375528     -2.897011
  C      -1.743555     -3.584087     -3.992418
  H      -2.843864     -3.570425     -4.074900
  C      -1.050134     -2.308307     -4.500599
  H      -0.105873     -2.158198     -3.932266
  H      -1.695370     -1.407320     -4.422920
  C      -0.629541     -2.375543     -5.988371
  H       0.088727     -3.175560     -6.271240
  H      -0.102657     -1.419085     -6.209650
  C      -1.786423     -2.273498     -7.006545
  H      -2.153024     -3.307690     -7.200723
  H      -2.661776     -1.718619     -6.600500
  C      -1.314100     -1.671826     -8.357215
  H      -1.084128     -0.585663     -8.279861
  H      -0.392935     -2.269875     -8.541688
  C      -2.317281     -1.887324     -9.476602
  H      -3.277121     -1.382545     -9.226050
  H      -2.418206     -2.995125     -9.510718
  C      -1.830298     -1.334189    -10.822483
  H      -0.943203     -1.888240    -11.203043
  H      -2.643165     -1.499934    -11.566329
  C      -1.529132      0.197261    -10.850086
  H      -2.250110      0.704010    -10.170877
  H      -0.503522      0.316184    -10.434722
  C      -1.552603      0.812788    -12.257651
  H      -1.490977      1.921352    -12.197639
  H      -0.602090      0.478466    -12.728656
  H      -2.491222      0.523253    -12.776805
138
Coordinates from ORCA-job /wrk/rja7/qm_final_3_replicates/qm_final_1.1/qm/10/freq E -2722.440785496873
  N       2.325075      0.697520     12.410931
  C       1.345757      0.102224     11.425310
  H       1.851059     -0.055055     10.465096
  H       0.548597      0.832758     11.214739
  C       3.475243     -0.249785     12.676532
  H       3.054246     -1.238382     12.894816
  H       4.081957     -0.384511     11.772281
  H       4.056537      0.166682     13.509698
  C       1.666559      1.091861     13.710064
  H       1.586425      0.187787     14.328186
  H       2.246433      1.814211     14.299555
  H       0.678770      1.541008     13.542652
  C       2.907455      1.971545     11.836690
  H       3.564202      1.708819     10.991451
  H       3.615274      2.441605     12.530534
  H       2.134650      2.592599     11.367120
  C       0.583665     -1.190223     11.893752
  H       0.181601     -0.994783     12.915945
  H      -0.315160     -1.344438     11.256544
  P       1.956249     -3.061590     10.583484
  O       1.492119     -4.479597     10.480904
  O       3.440140     -2.749240     10.459140
  O       1.465260     -2.313804     11.938925
  O       1.193492     -2.142669      9.425697
  C       1.533620     -2.383265      8.063895
  H       0.662279     -2.618649      7.411874
  H       2.295410     -3.181666      7.947377
  C       2.227118     -1.095168      7.448657
  H       2.825863     -0.625700      8.262940
  O       1.185915     -0.219189      6.942011
  C       1.430626      0.846622      6.178576
  O       2.511032      1.433197      6.061140
  C       0.150381      1.352086      5.507858
  H      -0.514757      1.591167      6.372605
  H      -0.382308      0.554264      4.945011
  C       3.289709     -1.411734      6.330644
  H       4.038212     -2.150069      6.700003
  H       3.939747     -0.530539      6.144667
  O       2.752675     -1.776182      5.022685
  C       2.406106     -3.053494      4.792128
  O       2.444674     -3.972942      5.595072
  C       2.125107     -3.221555      3.301215
  H       3.066837     -3.098198      2.720128
  H       1.682058     -4.216855      3.091139
  C       0.346814      2.645942      4.701633
  H       1.041834      3.319971      5.249046
  H      -0.609889      3.217781      4.652191
  C       0.811933      2.421396      3.263785
  H       1.634878      1.669576      3.246427
  H       1.217901      3.362735      2.825265
  C      -0.277375      1.904737      2.275026
  H      -1.311829      2.269545      2.484088
  H      -0.385422      0.816453      2.502568
  C       0.050784      2.067269      0.784108
  H       1.024780      1.544652      0.631468
  H       0.188834      3.146764      0.546085
  C      -1.048717      1.504051     -0.114825
  H      -1.909739      2.201691      0.023211
  H      -1.390158      0.502307      0.233230
  C      -0.617672      1.370922     -1.571240
  H      -1.378257      0.771431     -2.120053
  H       0.286381      0.719205     -1.496693
  C      -0.203513      2.652373     -2.333013
  H      -0.249282      3.565334     -1.712240
  C      -0.011631      2.737581     -3.672107
  H       0.476541      3.654377     -4.055341
  C       0.021679      1.627803     -4.668318
  H       0.012216      0.608483     -4.222588
  H       1.036596      1.621927     -5.139081
  C      -0.936933      1.790175     -5.855288
  H      -2.020833      1.663248     -5.629197
  H      -0.701279      0.946801     -6.551314
  C      -0.719989      3.082446     -6.610865
  H       0.375887      3.274857     -6.697430
  H      -1.075085      3.947224     -6.004232
  C      -1.351745      3.145709     -8.059259
  H      -0.889838      2.398085     -8.743611
  H      -1.018816      4.091713     -8.549220
  C      -2.906001      3.138138     -8.056603
  H      -3.315325      2.361253     -7.372837
  H      -3.246639      2.875200     -9.085522
  C      -3.586758      4.503882     -7.658625
  H      -3.253195      4.758910     -6.626512
  H      -4.675459      4.259787     -7.634322
  C      -3.400159      5.684806     -8.580986
  H      -3.339217      5.330517     -9.636618
  H      -2.420065      6.180049     -8.375289
  C      -4.439095      6.802001     -8.387124
  H      -4.153303      7.698128     -8.978273
  H      -4.523157      7.061010     -7.307894
  H      -5.418300      6.376149     -8.706196
  C       1.081755     -2.197464      2.755992
  H       1.352846     -1.163318      3.058198
  H       0.071791     -2.411369      3.177498
  C       0.926748     -2.215656      1.200261
  H       1.686879     -1.514490      0.776415
  H      -0.052297     -1.757293      0.929503
  C       1.065724     -3.593636      0.529757
  H       0.294378     -4.191322      1.074680
  H       2.055101     -4.049796      0.754040
  C       0.760810     -3.683275     -0.977365
  H       0.136801     -2.792984     -1.241495
  H       1.645220     -3.345230     -1.569531
  C       0.205120     -5.004187     -1.431232
  H       0.930095     -5.790784     -1.112662
  H      -0.729659     -5.320420     -0.913937
  C       0.038601     -4.971401     -2.977162
  H       0.319339     -5.925550     -3.483395
  H       0.747301     -4.216711     -3.387102
  C      -1.350438     -4.605245     -3.443170
  H      -2.080696     -5.304232     -2.988332
  C      -1.804971     -3.502938     -4.066033
  H      -2.904775     -3.436028     -4.164699
  C      -1.036620     -2.268570     -4.549857
  H      -0.096777     -2.170972     -3.960814
  H      -1.640210     -1.340270     -4.462918
  C      -0.596929     -2.337269     -6.036609
  H       0.087713     -3.171945     -6.306130
  H      -0.014593     -1.404818     -6.235010
  C      -1.743589     -2.208218     -7.073699
  H      -2.145080     -3.231372     -7.268980
  H      -2.603301     -1.621795     -6.673869
  C      -1.246356     -1.624628     -8.426714
  H      -0.984363     -0.545683     -8.336077
  H      -0.336734     -2.239434     -8.624741
  C      -2.259374     -1.814305     -9.562683
  H      -3.208292     -1.287660     -9.309615
  H      -2.398601     -2.918541     -9.610932
  C      -1.758518     -1.277782    -10.918250
  H      -0.888253     -1.862784    -11.296148
  H      -2.576980     -1.423897    -11.663186
  C      -1.408804      0.244734    -10.945029
  H      -2.113858      0.777693    -10.267296
  H      -0.380086      0.342062    -10.528182
  C      -1.416685      0.856384    -12.362859
  H      -1.326338      1.964573    -12.308756
  H      -0.485491      0.501223    -12.858289
  H      -2.359847      0.593533    -12.888672
138
Coordinates from ORCA-job /wrk/rja7/qm_final_3_replicates/qm_final_1.1/qm/10/freq E -2722.493995647379
  N       2.411688      0.748736     12.388083
  C       1.340745      0.192616     11.452174
  H       1.813840     -0.027913     10.479735
  H       0.592972      0.990769     11.253908
  C       3.519750     -0.282249     12.641475
  H       3.050041     -1.240480     12.921243
  H       4.067288     -0.483522     11.703334
  H       4.175682      0.121197     13.435551
  C       1.829165      1.215721     13.711465
  H       1.700686      0.338077     14.371264
  H       2.511072      1.915314     14.229804
  H       0.863801      1.731380     13.554029
  C       3.049864      1.963669     11.723725
  H       3.637768      1.612913     10.849347
  H       3.809858      2.415259     12.386107
  H       2.281013      2.633942     11.299543
  C       0.540974     -1.042862     11.971430
  H       0.165755     -0.824617     13.002152
  H      -0.370922     -1.159542     11.340819
  P       1.904089     -3.050328     10.703222
  O       1.363887     -4.465248     10.686479
  O       3.412230     -2.748922     10.600998
  O       1.374524     -2.189508     12.046296
  O       1.141731     -2.113716      9.507403
  C       1.475275     -2.408322      8.151384
  H       0.576629     -2.636225      7.531923
  H       2.186998     -3.256464      8.062496
  C       2.211738     -1.174744      7.512233
  H       2.826052     -0.715439      8.323120
  O       1.178935     -0.258931      7.020797
  C       1.456308      0.829281      6.259146
  O       2.555722      1.366213      6.160618
  C       0.176937      1.378590      5.602406
  H      -0.490402      1.622658      6.466750
  H      -0.365178      0.588516      5.036087
  C       3.252153     -1.528615      6.400780
  H       3.962456     -2.302180      6.777441
  H       3.914742     -0.658139      6.211185
  O       2.708191     -1.868304      5.090083
  C       2.317889     -3.154749      4.833379
  O       2.330748     -4.068829      5.645534
  C       2.011015     -3.318178      3.340355
  H       2.960807     -3.234375      2.762291
  H       1.559984     -4.316163      3.165569
  C       0.405600      2.667634      4.780332
  H       1.115514      3.328572      5.326228
  H      -0.545043      3.251693      4.728193
  C       0.900331      2.423148      3.339334
  H       1.718790      1.664600      3.345723
  H       1.333320      3.358805      2.910686
  C      -0.191677      1.911696      2.349418
  H      -1.211020      2.322660      2.559212
  H      -0.337931      0.823595      2.566700
  C       0.163536      2.062196      0.852692
  H       1.125778      1.515994      0.693958
  H       0.339546      3.139087      0.621441
  C      -0.943479      1.517970     -0.078224
  H      -1.807621      2.219527      0.033337
  H      -1.296687      0.520733      0.273998
  C      -0.511856      1.378791     -1.554187
  H      -1.276304      0.788867     -2.108086
  H       0.396651      0.722789     -1.522108
  C      -0.143115      2.671443     -2.297602
  H      -0.185163      3.585361     -1.673384
  C       0.039414      2.781905     -3.637735
  H       0.476210      3.730244     -4.012600
  C       0.090139      1.660048     -4.650104
  H       0.099105      0.645179     -4.192454
  H       1.102125      1.689165     -5.133626
  C      -0.909323      1.771459     -5.831916
  H      -1.974223      1.602559     -5.545192
  H      -0.669458      0.928710     -6.530098
  C      -0.779256      3.085285     -6.619506
  H       0.304668      3.322351     -6.755925
  H      -1.153962      3.941933     -6.009675
  C      -1.464479      3.098362     -8.026454
  H      -0.988215      2.351603     -8.704313
  H      -1.194175      4.058112     -8.531756
  C      -3.014792      2.981105     -8.007261
  H      -3.353878      2.179805     -7.311196
  H      -3.355879      2.680996     -9.027568
  C      -3.772795      4.295571     -7.610864
  H      -3.449376      4.593921     -6.585944
  H      -4.850986      4.005733     -7.558148
  C      -3.632236      5.477231     -8.580470
  H      -3.564156      5.104865     -9.631852
  H      -2.667304      6.010423     -8.391791
  C      -4.749502      6.540907     -8.426482
  H      -4.524479      7.440639     -9.039107
  H      -4.857827      6.834517     -7.357123
  H      -5.718015      6.085238     -8.740387
  C       0.999203     -2.266836      2.779071
  H       1.308843     -1.241680      3.075892
  H      -0.011766     -2.447048      3.217291
  C       0.850542     -2.282971      1.218298
  H       1.642598     -1.616489      0.790460
  H      -0.110788     -1.787349      0.944667
  C       0.911526     -3.673825      0.540773
  H       0.114541     -4.270166      1.054814
  H       1.877891     -4.180355      0.761511
  C       0.635123     -3.685667     -0.983321
  H       0.030165     -2.774064     -1.231035
  H       1.559644     -3.380348     -1.536622
  C       0.048109     -4.982082     -1.536236
  H       0.735956     -5.812765     -1.240426
  H      -0.915823     -5.261053     -1.048200
  C      -0.099862     -4.921080     -3.088584
  H       0.150323     -5.888713     -3.587848
  H       0.649265     -4.195460     -3.482797
  C      -1.484005     -4.494618     -3.553759
  H      -2.274633     -5.154825     -3.137857
  C      -1.858707     -3.353873     -4.178395
  H      -2.948590     -3.204899     -4.316304
  C      -0.972873     -2.194371     -4.624062
  H      -0.053269     -2.173805     -3.995293
  H      -1.511141     -1.227473     -4.528280
  C      -0.495737     -2.268531     -6.104205
  H       0.133021     -3.156239     -6.344291
  H       0.168666     -1.382406     -6.267711
  C      -1.624066     -2.106883     -7.165634
  H      -2.078298     -3.110352     -7.356978
  H      -2.455531     -1.471927     -6.775083
  C      -1.097071     -1.548261     -8.519760
  H      -0.788597     -0.483056     -8.404845
  H      -0.203953     -2.178918     -8.750986
  C      -2.128744     -1.687063     -9.668464
  H      -3.059423     -1.133735     -9.399016
  H      -2.329825     -2.780984     -9.748338
  C      -1.621287     -1.157896    -11.033315
  H      -0.779486     -1.781750    -11.418708
  H      -2.450759     -1.268919    -11.774832
  C      -1.204132      0.348671    -11.042058
  H      -1.882677      0.910186    -10.358139
  H      -0.171537      0.414513    -10.625317
  C      -1.195959      0.973701    -12.462425
  H      -1.066993      2.079332    -12.402256
  H      -0.299288      0.596125    -13.004715
  H      -2.145611      0.754893    -12.997961
138
Coordinates from ORCA-job /wrk/rja7/qm_final_3_replicates/qm_final_1.1/qm/10/freq E -2722.525485629000
  N       2.420398      0.758870     12.397140
  C       1.302580      0.228880     11.470972
  H       1.777536     -0.025979     10.503326
  H       0.603780      1.078937     11.279477
  C       3.505402     -0.312065     12.671585
  H       3.013066     -1.242285     13.008647
  H       4.016718     -0.566662     11.722207
  H       4.199291      0.104534     13.432784
  C       1.858588      1.260701     13.723909
  H       1.679719      0.401357     14.401946
  H       2.597186      1.936138     14.203691
  H       0.914798      1.817140     13.546218
  C       3.087706      1.932694     11.675764
  H       3.623170      1.533431     10.785588
  H       3.858746      2.380231     12.335276
  H       2.318307      2.641896     11.309233
  C       0.481596     -0.987969     11.982130
  H       0.081889     -0.780490     13.008532
  H      -0.409543     -1.074390     11.312873
  P       1.887364     -3.053347     10.730816
  O       1.328293     -4.469244     10.747604
  O       3.396925     -2.707724     10.673711
  O       1.276767     -2.151031     12.071753
  O       1.111305     -2.107298      9.509980
  C       1.468172     -2.434179      8.159834
  H       0.554698     -2.661093      7.560204
  H       2.136330     -3.321935      8.105582
  C       2.234206     -1.241879      7.509512
  H       2.853009     -0.788896      8.322156
  O       1.203472     -0.293850      7.045347
  C       1.508925      0.832063      6.322327
  O       2.623264      1.333935      6.250332
  C       0.230198      1.420114      5.687038
  H      -0.446939      1.651968      6.547221
  H      -0.304408      0.634453      5.106085
  C       3.256857     -1.608375      6.400504
  H       3.925188     -2.419620      6.774998
  H       3.919777     -0.738929      6.209067
  O       2.699613     -1.922212      5.091690
  C       2.294027     -3.216868      4.816925
  O       2.302177     -4.125727      5.633638
  C       1.933850     -3.364263      3.331538
  H       2.879667     -3.296723      2.741954
  H       1.500706     -4.375851      3.190800
  C       0.480898      2.705317      4.854247
  H       1.199484      3.355962      5.402641
  H      -0.468608      3.290743      4.795777
  C       1.003850      2.444381      3.414157
  H       1.825889      1.689852      3.448615
  H       1.456528      3.377881      3.000406
  C      -0.084036      1.933990      2.419279
  H      -1.079096      2.408485      2.614832
  H      -0.277544      0.851837      2.629010
  C       0.308143      2.064391      0.922672
  H       1.255469      1.491567      0.762961
  H       0.532034      3.134083      0.695001
  C      -0.796835      1.544658     -0.042396
  H      -1.665533      2.246255      0.030861
  H      -1.165218      0.552963      0.312090
  C      -0.352125      1.397275     -1.526432
  H      -1.121345      0.814690     -2.083687
  H       0.559315      0.741771     -1.531894
  C      -0.036646      2.704226     -2.255882
  H      -0.074932      3.619157     -1.630096
  C       0.160522      2.843138     -3.592715
  H       0.502823      3.833935     -3.956988
  C       0.254183      1.722226     -4.621940
  H       0.275767      0.713691     -4.150847
  H       1.262627      1.799098     -5.109973
  C      -0.779662      1.775388     -5.793475
  H      -1.816747      1.561085     -5.440328
  H      -0.532722      0.938967     -6.498367
  C      -0.748888      3.105098     -6.598042
  H       0.317762      3.387679     -6.781649
  H      -1.150775      3.944575     -5.979673
  C      -1.476219      3.061345     -7.970844
  H      -0.980097      2.309404     -8.629116
  H      -1.275991      4.028208     -8.495210
  C      -3.013000      2.824452     -7.932289
  H      -3.265691      2.002519     -7.221720
  H      -3.348526      2.476740     -8.939507
  C      -3.862779      4.075859     -7.546610
  H      -3.555378      4.432312     -6.534091
  H      -4.922430      3.731265     -7.455672
  C      -3.799611      5.246954     -8.565864
  H      -3.738760      4.849381     -9.610541
  H      -2.857879      5.830102     -8.414487
  C      -4.995577      6.233489     -8.435657
  H      -4.854009      7.128853     -9.080953
  H      -5.113299      6.569969     -7.378920
  H      -5.949776      5.731941     -8.723588
  C       0.925482     -2.299862      2.792428
  H       1.262705     -1.286177      3.098123
  H      -0.072036     -2.470116      3.265176
  C       0.758026     -2.296451      1.233957
  H       1.568469     -1.662230      0.791326
  H      -0.191899     -1.767778      0.980312
  C       0.737519     -3.686599      0.542041
  H      -0.073212     -4.292778      1.022755
  H       1.688142     -4.230921      0.746098
  C       0.496842     -3.615652     -0.990970
  H      -0.128415     -2.713630     -1.224588
  H       1.453928     -3.326806     -1.498348
  C      -0.062851     -4.901214     -1.634861
  H       0.617553     -5.748197     -1.367843
  H      -1.043835     -5.175132     -1.176055
  C      -0.198750     -4.798228     -3.188694
  H       0.046548     -5.769032     -3.684830
  H       0.566336     -4.079429     -3.564146
  C      -1.585450     -4.350645     -3.642474
  H      -2.407611     -5.010850     -3.291825
  C      -1.920074     -3.188332     -4.258976
  H      -2.998313     -3.009122     -4.448928
  C      -0.972298     -2.066311     -4.661247
  H      -0.081662     -2.072395     -3.991834
  H      -1.490964     -1.088983     -4.550287
  C      -0.457309     -2.126590     -6.132356
  H       0.150465     -3.040746     -6.329290
  H       0.240821     -1.263270     -6.273433
  C      -1.575955     -2.006908     -7.211129
  H      -2.037845     -3.011763     -7.375057
  H      -2.403550     -1.353081     -6.840067
  C      -1.046870     -1.477522     -8.574486
  H      -0.734089     -0.412222     -8.454122
  H      -0.142667     -2.083035     -8.832298
  C      -2.088462     -1.624351     -9.726276
  H      -3.021176     -1.073762     -9.453671
  H      -2.322502     -2.712404     -9.807438
  C      -1.594720     -1.130673    -11.115938
  H      -0.759304     -1.776975    -11.480976
  H      -2.427553     -1.266360    -11.850232
  C      -1.161390      0.368220    -11.165312
  H      -1.841372      0.962775    -10.512507
  H      -0.136313      0.458549    -10.733583
  C      -1.133451      0.951340    -12.606504
  H      -0.998460      2.058475    -12.581708
  H      -0.259936      0.548827    -13.169817
  H      -2.076480      0.730731    -13.155115
138
Coordinates from ORCA-job /wrk/rja7/qm_final_3_replicates/qm_final_1.1/qm/10/freq E -2722.540496401954
  N       2.164994      0.742796     12.448023
  C       1.155218      0.205054     11.394969
  H       1.742850     -0.010367     10.479890
  H       0.454996      1.045658     11.170382
  C       3.240705     -0.313066     12.813741
  H       2.731910     -1.247854     13.111916
  H       3.831259     -0.557614     11.907867
  H       3.861519      0.118339     13.628893
  C       1.442628      1.177871     13.720708
  H       1.188507      0.287214     14.330606
  H       2.119105      1.838099     14.303628
  H       0.519279      1.731351     13.448276
  C       2.868436      1.951069     11.821923
  H       3.476952      1.596125     10.962724
  H       3.545558      2.400135     12.578187
  H       2.107256      2.670979     11.457582
  C       0.373307     -1.072867     11.790500
  H      -0.166565     -0.923799     12.762374
  H      -0.410955     -1.198844     11.001144
  P       2.085200     -2.985624     10.652757
  O       1.705069     -4.456640     10.645918
  O       3.525035     -2.423814     10.712615
  O       1.229201     -2.178471     11.949011
  O       1.261390     -2.136421      9.374742
  C       1.702119     -2.479862      8.047310
  H       0.812175     -2.746094      7.428225
  H       2.376004     -3.365719      8.047480
  C       2.462683     -1.289526      7.403849
  H       3.074480     -0.831576      8.219512
  O       1.418717     -0.336889      6.965004
  C       1.729055      0.831324      6.306498
  O       2.847330      1.327946      6.260442
  C       0.446559      1.446668      5.704602
  H      -0.236475      1.648770      6.566217
  H      -0.075352      0.668190      5.101581
  C       3.470364     -1.641023      6.281216
  H       4.108503     -2.485173      6.632409
  H       4.128896     -0.768486      6.092313
  O       2.878586     -1.922865      4.979815
  C       2.455390     -3.214835      4.699834
  O       2.473820     -4.125608      5.512307
  C       2.021862     -3.339800      3.231524
  H       2.949862     -3.291727      2.610305
  H       1.590511     -4.356119      3.115934
  C       0.695879      2.742445      4.884465
  H       1.422001      3.382226      5.436211
  H      -0.257490      3.321954      4.839122
  C       1.213954      2.495158      3.436307
  H       2.050312      1.756314      3.468612
  H       1.658182      3.438596      3.036721
  C       0.122027      1.983258      2.449980
  H      -0.849431      2.505624      2.639816
  H      -0.099166      0.907648      2.660476
  C       0.520134      2.098361      0.952048
  H       1.457428      1.512022      0.782482
  H       0.770242      3.161717      0.719591
  C      -0.588015      1.587033     -0.016341
  H      -1.467877      2.275011      0.044272
  H      -0.949543      0.593442      0.341385
  C      -0.149719      1.441634     -1.504877
  H      -0.922828      0.850580     -2.049390
  H       0.771778      0.803585     -1.541082
  C       0.098905      2.759504     -2.239369
  H       0.062869      3.677932     -1.618077
  C       0.298584      2.909503     -3.574943
  H       0.528340      3.927712     -3.949108
  C       0.422696      1.787651     -4.603580
  H       0.458929      0.791679     -4.106897
  H       1.418794      1.897942     -5.107881
  C      -0.649648      1.772821     -5.746000
  H      -1.655607      1.536361     -5.324251
  H      -0.407016      0.926175     -6.436303
  C      -0.706907      3.077943     -6.597955
  H       0.340624      3.389029     -6.837061
  H      -1.127637      3.919721     -5.995930
  C      -1.474754      2.933623     -7.941493
  H      -0.968708      2.150871     -8.556827
  H      -1.340744      3.877211     -8.524288
  C      -2.993052      2.609368     -7.841067
  H      -3.157208      1.804334     -7.086247
  H      -3.342885      2.187148     -8.814034
  C      -3.905347      3.819376     -7.482802
  H      -3.582551      4.261163     -6.508229
  H      -4.939326      3.430828     -7.311967
  C      -3.962019      4.933335     -8.574541
  H      -3.958947      4.473658     -9.596143
  H      -3.039517      5.561391     -8.525860
  C      -5.199817      5.861474     -8.424211
  H      -5.160796      6.718585     -9.134613
  H      -5.263891      6.274875     -7.389815
  H      -6.150276      5.307937     -8.611102
  C       1.018394     -2.252002      2.740729
  H       1.404906     -1.252525      3.035730
  H       0.046334     -2.392482      3.272293
  C       0.776894     -2.247535      1.195576
  H       1.613035     -1.697396      0.695013
  H      -0.139362     -1.643991      0.987544
  C       0.583285     -3.637688      0.530018
  H      -0.256637     -4.178610      1.034934
  H       1.489039     -4.265799      0.699839
  C       0.317188     -3.544671     -0.997957
  H      -0.295442     -2.635311     -1.228700
  H       1.287925     -3.334968     -1.516487
  C      -0.306616     -4.816094     -1.627048
  H       0.335037     -5.695857     -1.374581
  H      -1.292751     -5.022394     -1.143476
  C      -0.484898     -4.717502     -3.178146
  H      -0.337949     -5.719638     -3.650064
  H       0.327816     -4.076973     -3.590827
  C      -1.843108     -4.160230     -3.589623
  H      -2.718074     -4.758964     -3.258578
  C      -2.083230     -2.979536     -4.215548
  H      -3.140172     -2.713724     -4.420362
  C      -1.035382     -1.960657     -4.643265
  H      -0.146524     -2.027353     -3.975430
  H      -1.465795     -0.940117     -4.524257
  C      -0.549092     -2.079177     -6.120652
  H      -0.046333     -3.061640     -6.288667
  H       0.237474     -1.302602     -6.281627
  C      -1.672674     -1.884669     -7.179800
  H      -2.249216     -2.834461     -7.296911
  H      -2.409897     -1.127644     -6.812817
  C      -1.122571     -1.444203     -8.563466
  H      -0.672031     -0.428009     -8.451453
  H      -0.297463     -2.137447     -8.863029
  C      -2.206827     -1.445499     -9.683552
  H      -3.052618     -0.780580     -9.380989
  H      -2.612779     -2.482814     -9.762640
  C      -1.696461     -1.024821    -11.092092
  H      -0.960449     -1.780213    -11.463461
  H      -2.556775     -1.065005    -11.805076
  C      -1.069548      0.399652    -11.165413
  H      -1.667879      1.096478    -10.532573
  H      -0.045019      0.378360    -10.722482
  C      -0.959091      0.949877    -12.614059
  H      -0.669720      2.027226    -12.611067
  H      -0.173627      0.412460    -13.195306
  H      -1.924219      0.862087    -13.164147
138
Coordinates from ORCA-job /wrk/rja7/qm_final_3_replicates/qm_final_1.1/qm/10/freq E -2722.545681169498
  N       2.106188      0.998073     12.467013
  C       1.286717      0.268026     11.343768
  H       2.009001      0.018595     10.539329
  H       0.585193      1.048601     10.966057
  C       3.182462      0.103945     13.134348
  H       2.687616     -0.797236     13.535664
  H       3.896076     -0.244439     12.359573
  H       3.666461      0.719166     13.924667
  C       1.164151      1.515662     13.550914
  H       0.848633      0.675733     14.201024
  H       1.709380      2.273368     14.152493
  H       0.275989      1.976369     13.069063
  C       2.811473      2.175804     11.791303
  H       3.539440      1.774748     11.057414
  H       3.333196      2.768784     12.572587
  H       2.050541      2.805022     11.284054
  C       0.535284     -1.036305     11.729393
  H      -0.107211     -0.886274     12.636218
  H      -0.154489     -1.213618     10.864362
  P       2.333551     -2.922949     10.685369
  O       2.083225     -4.412565     10.781988
  O       3.705461     -2.221498     10.681002
  O       1.393871     -2.128231     11.954673
  O       1.400508     -2.231374      9.378221
  C       1.838303     -2.632321      8.060661
  H       0.940500     -2.949263      7.478406
  H       2.519910     -3.512120      8.097267
  C       2.558068     -1.455167      7.361768
  H       3.175425     -0.958745      8.150175
  O       1.478655     -0.531361      6.939475
  C       1.761042      0.661590      6.315289
  O       2.873522      1.170583      6.255461
  C       0.456473      1.266337      5.753139
  H      -0.221292      1.443311      6.623223
  H      -0.050245      0.476856      5.150418
  C       3.536823     -1.801877      6.211021
  H       4.169904     -2.658414      6.537318
  H       4.174543     -0.918484      6.006798
  O       2.907010     -2.067104      4.920210
  C       2.523806     -3.364847      4.609556
  O       2.615376     -4.302052      5.385690
  C       2.045530     -3.455321      3.151100
  H       2.958092     -3.345277      2.512692
  H       1.680231     -4.495394      3.015343
  C       0.667659      2.564383      4.926120
  H       1.394163      3.214018      5.465690
  H      -0.299244      3.121877      4.895896
  C       1.166890      2.325120      3.468220
  H       2.024915      1.610531      3.489229
  H       1.588418      3.280848      3.073433
  C       0.065480      1.806440      2.500019
  H      -0.880870      2.374275      2.683976
  H      -0.178294      0.738898      2.721273
  C       0.456598      1.904953      0.998966
  H       1.381077      1.303183      0.812999
  H       0.734845      2.960758      0.761688
  C      -0.664463      1.419083      0.033964
  H      -1.545348      2.104658      0.099539
  H      -1.026994      0.422729      0.383623
  C      -0.243022      1.300673     -1.461628
  H      -1.027456      0.725236     -2.007889
  H       0.677704      0.666479     -1.539185
  C      -0.022277      2.646123     -2.153633
  H      -0.056874      3.543186     -1.501546
  C       0.229072      2.858304     -3.470647
  H       0.390088      3.905190     -3.796666
  C       0.399361      1.792382     -4.549897
  H       0.389840      0.775275     -4.094822
  H       1.414051      1.925582     -5.006374
  C      -0.641239      1.839978     -5.721634
  H      -1.651645      1.595496     -5.316797
  H      -0.394757      1.026510     -6.447649
  C      -0.679112      3.188007     -6.508307
  H       0.375747      3.508847     -6.695967
  H      -1.133401      3.993617     -5.882730
  C      -1.387224      3.094450     -7.889396
  H      -0.851681      2.325853     -8.496683
  H      -1.241413      4.058525     -8.433007
  C      -2.902935      2.739417     -7.867684
  H      -3.071011      1.890208     -7.163770
  H      -3.207011      2.355640     -8.871673
  C      -3.850409      3.908622     -7.480372
  H      -3.572210      4.307577     -6.473213
  H      -4.886919      3.508083     -7.359940
  C      -3.884799      5.085815     -8.509116
  H      -3.880026      4.682237     -9.554194
  H      -2.956239      5.698569     -8.417586
  C      -5.118956      6.007243     -8.320394
  H      -5.080702      6.899166     -8.988335
  H      -5.186071      6.381227     -7.270849
  H      -6.075172      5.474903     -8.537127
  C       0.987274     -2.395934      2.726667
  H       1.343225     -1.397737      3.064001
  H       0.035921     -2.597009      3.276259
  C       0.721867     -2.334753      1.191306
  H       1.554356     -1.780316      0.691282
  H      -0.192841     -1.715199      1.025215
  C       0.499353     -3.698467      0.483058
  H      -0.341915     -4.258984      0.961783
  H       1.400494     -4.342197      0.623286
  C       0.248913     -3.552407     -1.043880
  H      -0.430673     -2.689906     -1.259279
  H       1.222678     -3.300322     -1.534999
  C      -0.291104     -4.848024     -1.712786
  H       0.393461     -5.698702     -1.478422
  H      -1.271970     -5.106139     -1.242191
  C      -0.476391     -4.729648     -3.263232
  H      -0.326382     -5.733311     -3.731059
  H       0.333309     -4.086451     -3.676294
  C      -1.839408     -4.179280     -3.658326
  H      -2.711905     -4.806556     -3.378947
  C      -2.087397     -2.991800     -4.267752
  H      -3.142424     -2.740105     -4.496735
  C      -1.044981     -1.960385     -4.678741
  H      -0.159025     -2.014604     -4.006399
  H      -1.487090     -0.946557     -4.533088
  C      -0.565003     -2.053337     -6.159772
  H      -0.068912     -3.041359     -6.319260
  H       0.226252     -1.282863     -6.318102
  C      -1.699541     -1.865884     -7.205430
  H      -2.293949     -2.806809     -7.295929
  H      -2.416140     -1.089482     -6.838048
  C      -1.167780     -1.442421     -8.598849
  H      -0.684661     -0.440736     -8.486037
  H      -0.356752     -2.138105     -8.930919
  C      -2.269450     -1.394188     -9.696404
  H      -3.083818     -0.698686     -9.374450
  H      -2.743508     -2.403672     -9.769944
  C      -1.771986     -0.999672    -11.117328
  H      -1.069046     -1.787696    -11.486607
  H      -2.642499     -1.020409    -11.818253
  C      -1.087060      0.392511    -11.211163
  H      -1.670262      1.134854    -10.615524
  H      -0.077750      0.351012    -10.735488
  C      -0.916839      0.902992    -12.665948
  H      -0.563792      1.960708    -12.684029
  H      -0.174735      0.299855    -13.240638
  H      -1.876640      0.867672    -13.234035
138
Coordinates from ORCA-job /wrk/rja7/qm_final_3_replicates/qm_final_1.1/qm/10/freq E -2722.555518061081
  N       2.035726      0.942410     12.455693
  C       1.173108      0.274871     11.324075
  H       1.876152      0.063110     10.492777
  H       0.462561      1.070497     11.008503
  C       3.105927     -0.005374     13.038478
  H       2.593018     -0.891729     13.449525
  H       3.758159     -0.363969     12.215337
  H       3.657978      0.569596     13.811686
  C       1.136325      1.424211     13.588342
  H       0.798240      0.552037     14.179005
  H       1.715881      2.115484     14.233875
  H       0.260065      1.951178     13.158613
  C       2.746558      2.133979     11.818702
  H       3.423162      1.755474     11.029468
  H       3.318879      2.672546     12.603079
  H       1.985784      2.817971     11.389756
  C       0.447896     -1.055380     11.670432
  H      -0.235762     -0.937926     12.550813
  H      -0.195242     -1.251488     10.775068
  P       2.436306     -2.731250     10.682246
  O       2.437043     -4.234412     10.787905
  O       3.668314     -1.817510     10.702140
  O       1.349652     -2.105105     11.923630
  O       1.440812     -2.213368      9.347859
  C       1.927407     -2.616487      8.047777
  H       1.060758     -2.987981      7.451636
  H       2.648728     -3.463191      8.115757
  C       2.604480     -1.415280      7.345253
  H       3.203304     -0.889675      8.127836
  O       1.496134     -0.535628      6.908373
  C       1.749057      0.672458      6.316130
  O       2.849328      1.210583      6.261010
  C       0.435534      1.251537      5.752175
  H      -0.250058      1.416418      6.617872
  H      -0.051371      0.449204      5.149998
  C       3.589490     -1.733556      6.188269
  H       4.237133     -2.583173      6.501093
  H       4.205010     -0.834706      5.984932
  O       2.952424     -2.004766      4.899447
  C       2.624629     -3.307955      4.576830
  O       2.769842     -4.254801      5.333076
  C       2.130143     -3.393386      3.123430
  H       3.027435     -3.221855      2.476246
  H       1.821289     -4.448829      2.965688
  C       0.622767      2.549028      4.922201
  H       1.341060      3.210571      5.457892
  H      -0.352918      3.090875      4.892390
  C       1.116233      2.316984      3.463416
  H       1.991341      1.623039      3.478576
  H       1.514076      3.282844      3.068819
  C       0.020778      1.784029      2.498576
  H      -0.916889      2.372783      2.656549
  H      -0.234588      0.725591      2.746334
  C       0.419902      1.848237      0.999667
  H       1.339633      1.235264      0.828211
  H       0.711837      2.895753      0.742878
  C      -0.698532      1.360607      0.039864
  H      -1.581347      2.043171      0.104569
  H      -1.060256      0.364457      0.389899
  C      -0.276401      1.247442     -1.451927
  H      -1.058259      0.666425     -1.996776
  H       0.649143      0.623035     -1.530107
  C      -0.069205      2.599424     -2.139071
  H      -0.124430      3.491575     -1.482208
  C       0.213309      2.824368     -3.446409
  H       0.334386      3.878274     -3.766293
  C       0.414528      1.777781     -4.532149
  H       0.386066      0.755611     -4.091336
  H       1.439769      1.914925     -4.960480
  C      -0.602089      1.845994     -5.718390
  H      -1.619977      1.605656     -5.331199
  H      -0.348715      1.039146     -6.448736
  C      -0.619660      3.200625     -6.483672
  H       0.439133      3.524961     -6.637713
  H      -1.094960      3.994134     -5.859623
  C      -1.290435      3.123786     -7.887566
  H      -0.744395      2.356328     -8.485528
  H      -1.129178      4.090473     -8.420723
  C      -2.808798      2.775405     -7.900729
  H      -2.989828      1.903987     -7.228117
  H      -3.096770      2.422988     -8.920856
  C      -3.756657      3.934474     -7.486529
  H      -3.485632      4.298657     -6.464432
  H      -4.796550      3.536949     -7.388530
  C      -3.778848      5.147278     -8.465411
  H      -3.805031      4.781333     -9.523280
  H      -2.832450      5.730552     -8.368905
  C      -4.976854      6.094732     -8.214626
  H      -4.932573      7.004664     -8.857785
  H      -5.003032      6.442554     -7.154357
  H      -5.951335      5.591068     -8.417493
  C       1.014513     -2.382073      2.735560
  H       1.321668     -1.374630      3.094873
  H       0.078893     -2.641366      3.287872
  C       0.734611     -2.300250      1.207780
  H       1.563023     -1.739865      0.708692
  H      -0.180134     -1.676056      1.061379
  C       0.512609     -3.653028      0.483807
  H      -0.324072     -4.218704      0.963569
  H       1.414973     -4.299031      0.607574
  C       0.248463     -3.503391     -1.039171
  H      -0.490590     -2.690695     -1.242056
  H       1.203591     -3.194327     -1.531835
  C      -0.220345     -4.826683     -1.702948
  H       0.513109     -5.636833     -1.476642
  H      -1.181402     -5.141756     -1.226294
  C      -0.424580     -4.714221     -3.251341
  H      -0.276657     -5.722424     -3.709651
  H       0.377710     -4.071710     -3.679796
  C      -1.792122     -4.176050     -3.635687
  H      -2.650939     -4.826701     -3.369589
  C      -2.063006     -2.992521     -4.240473
  H      -3.123201     -2.762400     -4.466383
  C      -1.046907     -1.940250     -4.668797
  H      -0.144016     -1.977014     -4.018289
  H      -1.499174     -0.932771     -4.505772
  C      -0.605782     -2.025900     -6.162100
  H      -0.113473     -3.014139     -6.331015
  H       0.180271     -1.254838     -6.342168
  C      -1.764053     -1.835372     -7.178755
  H      -2.380664     -2.764646     -7.227499
  H      -2.452147     -1.034938     -6.809773
  C      -1.266753     -1.457787     -8.597057
  H      -0.742143     -0.473525     -8.523867
  H      -0.489155     -2.186084     -8.939334
  C      -2.395333     -1.382497     -9.657403
  H      -3.162955     -0.637231     -9.330883
  H      -2.930206     -2.363915     -9.682331
  C      -1.922368     -1.055372    -11.102051
  H      -1.261559     -1.884100    -11.459876
  H      -2.810553     -1.064257    -11.780303
  C      -1.178567      0.297595    -11.262166
  H      -1.736186      1.098433    -10.719538
  H      -0.181093      0.238063    -10.764424
  C      -0.963611      0.719111    -12.736301
  H      -0.535485      1.745893    -12.807095
  H      -0.270165      0.029324    -13.272975
  H      -1.922642      0.726310    -13.308194
138
Coordinates from ORCA-job /wrk/rja7/qm_final_3_replicates/qm_final_1.1/qm/10/freq E -2722.558578728971
  N       1.887007      0.807843     12.568466
  C       1.120986      0.265455     11.311984
  H       1.892663      0.124846     10.529657
  H       0.435907      1.088330     11.011821
  C       2.875634     -0.221755     13.148498
  H       2.300635     -1.114029     13.454061
  H       3.571346     -0.543829     12.344096
  H       3.389697      0.264787     14.004085
  C       0.897083      1.210300     13.653116
  H       0.471276      0.294781     14.106332
  H       1.426102      1.800091     14.429281
  H       0.086230      1.821876     13.206285
  C       2.678236      2.029499     12.113556
  H       3.407338      1.703991     11.347101
  H       3.204097      2.471801     12.985258
  H       1.979903      2.779158     11.687601
  C       0.373949     -1.083837     11.492687
  H      -0.364374     -1.032467     12.333727
  H      -0.213541     -1.204200     10.547587
  P       2.428706     -2.655508     10.514187
  O       2.584117     -4.148880     10.612548
  O       3.567067     -1.629356     10.568600
  O       1.262622     -2.153076     11.731704
  O       1.440109     -2.226408      9.152811
  C       1.985219     -2.601211      7.870143
  H       1.148831     -2.961449      7.226087
  H       2.708509     -3.446116      7.955491
  C       2.691783     -1.386167      7.217521
  H       3.296770     -0.893266      8.015271
  O       1.605683     -0.475566      6.789344
  C       1.890825      0.753812      6.268212
  O       3.002179      1.272216      6.256001
  C       0.599274      1.401473      5.727792
  H      -0.084821      1.556103      6.597120
  H       0.085959      0.641393      5.093815
  C       3.669787     -1.707428      6.056150
  H       4.287535     -2.586467      6.347205
  H       4.319233     -0.830197      5.864070
  O       3.005968     -1.954341      4.776051
  C       2.618867     -3.243720      4.482501
  O       2.715458     -4.180402      5.260782
  C       2.103020     -3.336700      3.036826
  H       2.996498     -3.222032      2.372586
  H       1.734790     -4.375840      2.899956
  C       0.833091      2.723724      4.951783
  H       1.567507      3.344463      5.513603
  H      -0.124948      3.296839      4.934176
  C       1.331260      2.525079      3.491659
  H       2.203208      1.827055      3.497656
  H       1.731011      3.497460      3.114318
  C       0.246605      2.000014      2.512725
  H      -0.690861      2.595113      2.646525
  H      -0.020039      0.947887      2.775166
  C       0.670002      2.032452      1.020791
  H       1.595135      1.418683      0.884659
  H       0.959666      3.074684      0.741231
  C      -0.425490      1.502736      0.061337
  H      -1.326513      2.162884      0.110346
  H      -0.765119      0.503692      0.423961
  C       0.018067      1.370438     -1.421026
  H      -0.733621      0.737742     -1.951827
  H       0.973500      0.788346     -1.463943
  C       0.156194      2.705434     -2.159989
  H       0.039833      3.618183     -1.540456
  C       0.402325      2.885282     -3.482723
  H       0.444044      3.926967     -3.859249
  C       0.635800      1.798604     -4.518827
  H       0.690849      0.805801     -4.020814
  H       1.635609      1.973838     -4.992075
  C      -0.426010      1.718124     -5.662670
  H      -1.409430      1.434006     -5.218964
  H      -0.139551      0.878818     -6.340997
  C      -0.574101      3.002208     -6.524161
  H       0.447061      3.397129     -6.750553
  H      -1.086074      3.801976     -5.938776
  C      -1.301206      2.766828     -7.884701
  H      -0.723926      2.000574     -8.456236
  H      -1.243511      3.699552     -8.493927
  C      -2.785981      2.302906     -7.789538
  H      -2.858160      1.459362     -7.062934
  H      -3.096699      1.870693     -8.771864
  C      -3.805765      3.402400     -7.381424
  H      -3.503940      3.855580     -6.404730
  H      -4.794866      2.919096     -7.188256
  C      -4.012300      4.536299     -8.425339
  H      -4.104774      4.094844     -9.450556
  H      -3.110342      5.193690     -8.457080
  C      -5.250125      5.412363     -8.119576
  H      -5.339105      6.269284     -8.826966
  H      -5.200213      5.838311     -7.089240
  H      -6.193635      4.820677     -8.184445
  C       1.032188     -2.280442      2.642759
  H       1.390907     -1.279505      2.971315
  H       0.091476     -2.479618      3.211371
  C       0.729611     -2.221531      1.119898
  H       1.598159     -1.756933      0.590393
  H      -0.123657     -1.517547      0.969365
  C       0.372052     -3.568864      0.444705
  H      -0.507238     -4.029192      0.960718
  H       1.207992     -4.297416      0.575186
  C       0.081028     -3.443197     -1.074410
  H      -0.606595     -2.586479     -1.271611
  H       1.037446     -3.207628     -1.603227
  C      -0.508389     -4.737758     -1.692790
  H       0.165899     -5.598935     -1.469818
  H      -1.477947     -4.972059     -1.188488
  C      -0.738008     -4.628572     -3.236599
  H      -0.734416     -5.654796     -3.678623
  H       0.129274     -4.101927     -3.697193
  C      -2.033629     -3.924868     -3.600256
  H      -2.957903     -4.469253     -3.314613
  C      -2.172917     -2.717259     -4.201631
  H      -3.203240     -2.360628     -4.401215
  C      -1.051608     -1.791987     -4.659234
  H      -0.137983     -1.947245     -4.041510
  H      -1.366522     -0.736425     -4.477383
  C      -0.673685     -1.923578     -6.167004
  H      -0.323162     -2.966149     -6.360200
  H       0.201897     -1.261447     -6.369972
  C      -1.822250     -1.561519     -7.146972
  H      -2.575929     -2.385477     -7.159740
  H      -2.364890     -0.660490     -6.767204
  C      -1.326317     -1.283212     -8.588904
  H      -0.642005     -0.400740     -8.557917
  H      -0.695351     -2.137257     -8.942585
  C      -2.464278     -1.027535     -9.606354
  H      -3.078172     -0.156341     -9.265247
  H      -3.160181     -1.902408     -9.593762
  C      -1.992044     -0.791389    -11.067301
  H      -1.481544     -1.715551    -11.437676
  H      -2.890972     -0.662136    -11.718702
  C      -1.049605      0.425909    -11.263373
  H      -1.473472      1.316341    -10.737407
  H      -0.070865      0.221207    -10.766671
  C      -0.786599      0.772114    -12.748372
  H      -0.185979      1.705448    -12.849837
  H      -0.233117     -0.043788    -13.269982
  H      -1.740084      0.934429    -13.305973
138
Coordinates from ORCA-job /wrk/rja7/qm_final_3_replicates/qm_final_1.1/qm/10/freq E -2722.562305264678
  N       1.656756      0.741352     12.575617
  C       1.024009      0.280870     11.224461
  H       1.858153      0.268448     10.498616
  H       0.294145      1.071823     10.942304
  C       2.647597     -0.294355     13.134335
  H       2.089755     -1.227446     13.339976
  H       3.397627     -0.527402     12.344991
  H       3.093499      0.132463     14.058154
  C       0.564682      0.994468     13.602536
  H       0.134689      0.020250     13.909289
  H       0.994421      1.501643     14.490686
  H      -0.228802      1.635602     13.162962
  C       2.415680      2.033760     12.303819
  H       3.213194      1.815549     11.565029
  H       2.868883      2.407739     13.244890
  H       1.723185      2.795841     11.889063
  C       0.371643     -1.125791     11.258583
  H      -0.409024     -1.182820     12.059081
  H      -0.163413     -1.219682     10.280246
  P       2.584404     -2.444589     10.317615
  O       3.039466     -3.870576     10.460649
  O       3.508474     -1.218208     10.367023
  O       1.323466     -2.150398     11.494082
  O       1.594076     -2.232819      8.922256
  C       2.228468     -2.533090      7.666705
  H       1.461964     -2.952246      6.973687
  H       3.026701     -3.306054      7.777754
  C       2.855996     -1.247002      7.064451
  H       3.422085     -0.730562      7.874238
  O       1.715980     -0.410053      6.635523
  C       1.918044      0.846800      6.159484
  O       2.993531      1.436620      6.154189
  C       0.585497      1.437143      5.656164
  H      -0.081508      1.567704      6.543664
  H       0.085112      0.657891      5.035735
  C       3.853224     -1.487822      5.904032
  H       4.515590     -2.341525      6.172502
  H       4.465261     -0.581660      5.722454
  O       3.183128     -1.757161      4.633348
  C       2.859409     -3.060023      4.355480
  O       2.999588     -3.984654      5.144483
  C       2.321323     -3.193048      2.921684
  H       3.188483     -3.025886      2.235330
  H       2.007653     -4.251089      2.795575
  C       0.750093      2.762817      4.874924
  H       1.480184      3.409692      5.412179
  H      -0.225005      3.306980      4.879288
  C       1.213324      2.569966      3.404647
  H       2.099776      1.890924      3.384013
  H       1.574506      3.550409      3.007970
  C       0.116383      2.011753      2.459818
  H      -0.820165      2.612279      2.577137
  H      -0.147943      0.971655      2.778315
  C       0.514926      1.981411      0.962972
  H       1.411840      1.325343      0.834352
  H       0.840869      3.003408      0.650901
  C      -0.622936      1.491407      0.035108
  H      -1.483519      2.203199      0.099317
  H      -1.010631      0.515783      0.411354
  C      -0.205925      1.331667     -1.450756
  H      -1.004483      0.760443     -1.990424
  H       0.700565      0.676343     -1.484295
  C       0.059426      2.656871     -2.172864
  H       0.012543      3.567921     -1.541577
  C       0.337263      2.820356     -3.490421
  H       0.505340      3.852838     -3.859187
  C       0.433327      1.725241     -4.533608
  H       0.325413      0.727123     -4.054239
  H       1.461118      1.745472     -4.980619
  C      -0.600831      1.832956     -5.696222
  H      -1.628985      1.710807     -5.279224
  H      -0.439369      0.962177     -6.372500
  C      -0.517499      3.125942     -6.546762
  H       0.556542      3.360651     -6.750902
  H      -0.904857      3.992860     -5.961199
  C      -1.265809      3.031537     -7.912610
  H      -0.828923      2.186138     -8.500276
  H      -1.045487      3.947437     -8.510344
  C      -2.807505      2.835448     -7.812270
  H      -3.024884      1.994439     -7.112716
  H      -3.190029      2.497147     -8.805681
  C      -3.619303      4.080249     -7.357192
  H      -3.233758      4.448680     -6.374569
  H      -4.671600      3.756762     -7.162966
  C      -3.654375      5.253226     -8.367784
  H      -3.862335      4.855219     -9.392805
  H      -2.648704      5.737586     -8.427631
  C      -4.694909      6.337063     -7.997956
  H      -4.656041      7.202741     -8.697822
  H      -4.519793      6.730521     -6.968652
  H      -5.729582      5.920245     -8.019167
  C       1.170764     -2.219840      2.526525
  H       1.446412     -1.178075      2.811910
  H       0.251247     -2.469867      3.109854
  C       0.850037     -2.253469      1.008891
  H       1.693611     -1.775955      0.448956
  H      -0.035992     -1.601588      0.825161
  C       0.566379     -3.656567      0.424003
  H      -0.280767     -4.117777      0.992425
  H       1.440031     -4.332084      0.585579
  C       0.234397     -3.652544     -1.089208
  H      -0.536255     -2.874682     -1.308556
  H       1.143650     -3.346531     -1.663137
  C      -0.252989     -5.025122     -1.613817
  H       0.511227     -5.807182     -1.385892
  H      -1.173608     -5.331918     -1.060421
  C      -0.541590     -4.999243     -3.146562
  H      -0.491908     -6.039696     -3.551283
  H       0.274657     -4.436565     -3.657484
  C      -1.888103     -4.389799     -3.490774
  H      -2.763326     -5.004336     -3.191070
  C      -2.120734     -3.183918     -4.063916
  H      -3.176763     -2.893941     -4.238888
  C      -1.074011     -2.166896     -4.497677
  H      -0.140316     -2.284855     -3.901305
  H      -1.451937     -1.139723     -4.271611
  C      -0.708520     -2.235285     -6.014476
  H      -0.277052     -3.239661     -6.241982
  H       0.105737     -1.496697     -6.212996
  C      -1.888196     -1.946989     -6.981619
  H      -2.574505     -2.828798     -7.001064
  H      -2.497389     -1.097019     -6.586785
  C      -1.426113     -1.619752     -8.425661
  H      -0.812911     -0.688047     -8.401735
  H      -0.735752     -2.426886     -8.778990
  C      -2.584174     -1.447635     -9.435054
  H      -3.264116     -0.633673     -9.080923
  H      -3.202371     -2.378844     -9.433473
  C      -2.129988     -1.132602    -10.885444
  H      -1.519394     -1.985067    -11.276609
  H      -3.034385     -1.083771    -11.540579
  C      -1.328511      0.187884    -11.047951
  H      -1.869631      1.020370    -10.531050
  H      -0.348263      0.090159    -10.521710
  C      -1.070219      0.566523    -12.525679
  H      -0.555089      1.550842    -12.613311
  H      -0.431339     -0.196470    -13.028532
  H      -2.026280      0.640457    -13.095883
138
Coordinates from ORCA-job /wrk/rja7/qm_final_3_replicates/qm_final_1.1/qm/10/freq E -2722.566858823237
  N       1.542222      0.845061     12.611774
  C       0.920579      0.240600     11.300434
  H       1.726085      0.308014     10.542035
  H       0.095581      0.938857     11.037033
  C       2.695096      0.004257     13.192245
  H       2.294028     -0.975902     13.503544
  H       3.433900     -0.174468     12.379839
  H       3.113686      0.569562     14.052324
  C       0.463138      1.016593     13.669457
  H       0.154872      0.017993     14.034278
  H       0.867828      1.611998     14.513924
  H      -0.409390      1.543108     13.229698
  C       2.110013      2.207440     12.235474
  H       2.896879      2.052599     11.470998
  H       2.538004      2.690520     13.138182
  H       1.299665      2.845638     11.826068
  C       0.422023     -1.231982     11.358827
  H      -0.348860     -1.369371     12.159262
  H      -0.101649     -1.381022     10.380560
  P       2.756078     -2.311334     10.392649
  O       3.405115     -3.655553     10.577734
  O       3.494896     -0.960850     10.421505
  O       1.454823     -2.181107     11.566392
  O       1.731091     -2.277306      9.004805
  C       2.374698     -2.580745      7.750309
  H       1.622955     -3.073108      7.093206
  H       3.212005     -3.305516      7.883163
  C       2.919742     -1.286226      7.091633
  H       3.467526     -0.717758      7.879148
  O       1.727364     -0.517310      6.676907
  C       1.874073      0.752410      6.211397
  O       2.930597      1.375272      6.187127
  C       0.513964      1.296022      5.729252
  H      -0.140642      1.414890      6.626517
  H       0.027215      0.495189      5.125570
  C       3.904836     -1.470433      5.901991
  H       4.636327     -2.272245      6.149623
  H       4.437513     -0.516363      5.717067
  O       3.242887     -1.754663      4.622979
  C       3.083911     -3.064575      4.240136
  O       3.417323     -4.024918      4.919667
  C       2.506080     -3.149334      2.818656
  H       3.306532     -2.789940      2.123922
  H       2.357936     -4.229457      2.607195
  C       0.633714      2.616891      4.930497
  H       1.353477      3.284459      5.456196
  H      -0.353395      3.138518      4.937731
  C       1.097423      2.418986      3.459037
  H       1.994951      1.754379      3.439274
  H       1.446749      3.403041      3.062161
  C      -0.001186      1.860157      2.517367
  H      -0.920682      2.489158      2.617826
  H      -0.292604      0.830681      2.842024
  C       0.412748      1.805254      1.025237
  H       1.290494      1.122357      0.905498
  H       0.775903      2.814081      0.710889
  C      -0.731730      1.353339      0.084780
  H      -1.574038      2.086604      0.142931
  H      -1.148577      0.385802      0.452937
  C      -0.310665      1.193628     -1.400920
  H      -1.116056      0.647772     -1.951753
  H       0.579266      0.517448     -1.444597
  C      -0.003910      2.520474     -2.099665
  H      -0.040598      3.425365     -1.459411
  C       0.320189      2.697155     -3.403428
  H       0.515590      3.731919     -3.749076
  C       0.434510      1.613668     -4.459207
  H       0.279974      0.611547     -3.999977
  H       1.477328      1.615201     -4.868364
  C      -0.557123      1.770810     -5.653235
  H      -1.599476      1.695268     -5.263007
  H      -0.417364      0.897209     -6.333325
  C      -0.382502      3.068666     -6.485702
  H       0.709157      3.244458     -6.649640
  H      -0.745457      3.949750     -5.905006
  C      -1.080537      3.025228     -7.877737
  H      -0.682797      2.149917     -8.446420
  H      -0.774319      3.924360     -8.463223
  C      -2.634516      2.936335     -7.842959
  H      -2.939078      2.100781     -7.170263
  H      -2.999361      2.643263     -8.857015
  C      -3.368231      4.230075     -7.397492
  H      -2.999211      4.551931     -6.392272
  H      -4.451243      3.994259     -7.252705
  C      -3.252410      5.421359     -8.384804
  H      -3.469009      5.065459     -9.422518
  H      -2.201265      5.798559     -8.406536
  C      -4.192434      6.596516     -8.024255
  H      -4.053534      7.464597     -8.709313
  H      -4.005657      6.960327     -6.986009
  H      -5.263751      6.290034     -8.077555
  C       1.206720     -2.333129      2.557182
  H       1.343456     -1.291299      2.927981
  H       0.369497     -2.769031      3.154927
  C       0.810129     -2.286832      1.055649
  H       1.567205     -1.682236      0.496199
  H      -0.149139     -1.723050      0.965052
  C       0.641378     -3.665905      0.372182
  H      -0.128569     -4.262292      0.922823
  H       1.587948     -4.252122      0.450342
  C       0.261465     -3.578414     -1.128087
  H      -0.624462     -2.913229     -1.267308
  H       1.104192     -3.101879     -1.686503
  C      -0.024461     -4.964591     -1.762477
  H       0.850240     -5.638292     -1.595914
  H      -0.884354     -5.441197     -1.231021
  C      -0.333060     -4.885538     -3.292091
  H      -0.184102     -5.896237     -3.744078
  H       0.418402     -4.222300     -3.778581
  C      -1.740898     -4.403859     -3.595917
  H      -2.546088     -5.121631     -3.333752
  C      -2.105606     -3.207431     -4.119296
  H      -3.186799     -3.030806     -4.288205
  C      -1.179771     -2.067251     -4.524426
  H      -0.240865     -2.086031     -3.926906
  H      -1.676733     -1.099156     -4.272111
  C      -0.809660     -2.053396     -6.040898
  H      -0.261486     -2.996020     -6.282551
  H      -0.089202     -1.220163     -6.223541
  C      -2.021709     -1.904693     -6.998224
  H      -2.614044     -2.851644     -6.994333
  H      -2.709565     -1.113551     -6.610664
  C      -1.610411     -1.558517     -8.451611
  H      -1.095584     -0.567737     -8.448115
  H      -0.842418     -2.291945     -8.804818
  C      -2.792746     -1.532002     -9.450122
  H      -3.543947     -0.774657     -9.114877
  H      -3.324315     -2.514064     -9.403325
  C      -2.395351     -1.246215    -10.925109
  H      -1.708273     -2.053732    -11.283269
  H      -3.310102     -1.327078    -11.562347
  C      -1.734865      0.135778    -11.178831
  H      -2.360283      0.940257    -10.718747
  H      -0.750598      0.182955    -10.653865
  C      -1.518185      0.440348    -12.680309
  H      -1.097735      1.460374    -12.836958
  H      -0.818319     -0.291585    -13.147758
  H      -2.478231      0.387444    -13.246893
138
Coordinates from ORCA-job /wrk/rja7/qm_final_3_replicates/qm_final_1.1/qm/10/freq E -2722.569716574147
  N       1.398652      0.866747     12.558603
  C       0.835431      0.167565     11.266154
  H       1.596317      0.359916     10.481862
  H      -0.101386      0.723553     11.037553
  C       2.686142      0.216806     13.101608
  H       2.451853     -0.805633     13.445925
  H       3.407512      0.141306     12.258489
  H       3.047653      0.855225     13.935256
  C       0.342411      0.878951     13.651593
  H       0.177769     -0.155962     14.007979
  H       0.696015      1.510862     14.492955
  H      -0.603876      1.293677     13.247256
  C       1.741646      2.297340     12.158897
  H       2.514641      2.255362     11.366405
  H       2.124182      2.843889     13.045678
  H       0.829555      2.802317     11.779058
  C       0.572228     -1.361631     11.333265
  H      -0.150511     -1.612680     12.150984
  H       0.051215     -1.588410     10.367571
  P       3.028906     -2.105993     10.330265
  O       3.894260     -3.316508     10.559081
  O       3.541945     -0.649064     10.317753
  O       1.728200     -2.165633     11.513032
  O       2.006533     -2.289515      8.954980
  C       2.674502     -2.572789      7.706757
  H       1.956487     -3.132394      7.065277
  H       3.557969     -3.236391      7.862992
  C       3.136813     -1.269282      7.006912
  H       3.681695     -0.656989      7.763111
  O       1.894953     -0.563007      6.617752
  C       1.969149      0.723756      6.175497
  O       2.994707      1.395799      6.143056
  C       0.574535      1.218257      5.734513
  H      -0.053297      1.318269      6.652936
  H       0.093885      0.399923      5.149980
  C       4.087268     -1.446791      5.788396
  H       4.842134     -2.231708      6.019058
  H       4.593634     -0.484636      5.575758
  O       3.389745     -1.761615      4.534222
  C       3.196996     -3.080717      4.194005
  O       3.511939     -4.027627      4.900898
  C       2.591089     -3.195164      2.786323
  H       3.390476     -2.894275      2.063176
  H       2.394274     -4.274757      2.617720
  C       0.626879      2.543436      4.931764
  H       1.331953      3.235527      5.445285
  H      -0.377979      3.028932      4.959492
  C       1.070203      2.370830      3.448993
  H       1.993752      1.744189      3.408716
  H       1.370567      3.370333      3.050970
  C      -0.024443      1.778434      2.522627
  H      -0.956504      2.387311      2.630685
  H      -0.289980      0.745033      2.852790
  C       0.374501      1.730554      1.024839
  H       1.256292      1.055866      0.891873
  H       0.725042      2.743748      0.709881
  C      -0.779247      1.269934      0.098277
  H      -1.636151      1.982280      0.191934
  H      -1.165188      0.285254      0.456134
  C      -0.396394      1.152014     -1.403439
  H      -1.205840      0.604329     -1.940536
  H       0.505202      0.495656     -1.496765
  C      -0.139177      2.498458     -2.082673
  H      -0.193368      3.391982     -1.428148
  C       0.171431      2.703005     -3.386263
  H       0.341822      3.747067     -3.716198
  C       0.311612      1.635802     -4.458555
  H       0.167318      0.623399     -4.017652
  H       1.358480      1.656603     -4.856403
  C      -0.666771      1.799178     -5.664985
  H      -1.714320      1.722100     -5.289224
  H      -0.518935      0.928554     -6.348401
  C      -0.476412      3.102253     -6.486847
  H       0.618744      3.280259     -6.620825
  H      -0.856052      3.980465     -5.912478
  C      -1.131183      3.063035     -7.899543
  H      -0.714088      2.191500     -8.458901
  H      -0.806103      3.965168     -8.470369
  C      -2.685228      2.968384     -7.922177
  H      -3.012472      2.111656     -7.286753
  H      -3.011599      2.705897     -8.958386
  C      -3.437509      4.247821     -7.464806
  H      -3.110564      4.535004     -6.435179
  H      -4.526209      4.011436     -7.373068
  C      -3.272091      5.471631     -8.405637
  H      -3.473122      5.157918     -9.459640
  H      -2.212091      5.822071     -8.390822
  C      -4.193624      6.656002     -8.025438
  H      -4.025741      7.539978     -8.683268
  H      -4.015657      6.986002     -6.974379
  H      -5.270550      6.376054     -8.104476
  C       1.324673     -2.331006      2.524987
  H       1.529009     -1.283283      2.841163
  H       0.489989     -2.696326      3.171946
  C       0.869900     -2.327022      1.036902
  H       1.663149     -1.842334      0.414457
  H      -0.025935     -1.665551      0.949647
  C       0.516002     -3.713017      0.439781
  H      -0.302033     -4.181714      1.041879
  H       1.386968     -4.405464      0.528737
  C       0.099735     -3.658319     -1.053239
  H      -0.719306     -2.913512     -1.199962
  H       0.968074     -3.293496     -1.655417
  C      -0.342536     -5.036126     -1.615812
  H       0.461895     -5.788572     -1.431812
  H      -1.234759     -5.397070     -1.046867
  C      -0.676613     -5.005509     -3.142716
  H      -0.706360     -6.053679     -3.527639
  H       0.159508     -4.507042     -3.684650
  C      -1.997928     -4.320792     -3.452285
  H      -2.902825     -4.882594     -3.140044
  C      -2.174710     -3.107494     -4.031007
  H      -3.215163     -2.758151     -4.185906
  C      -1.079373     -2.167685     -4.517127
  H      -0.135404     -2.342583     -3.954207
  H      -1.381767     -1.119045     -4.283573
  C      -0.777051     -2.255877     -6.044409
  H      -0.443178     -3.292783     -6.291410
  H       0.092039     -1.593159     -6.267597
  C      -1.966942     -1.854041     -6.953740
  H      -2.752995     -2.646287     -6.914785
  H      -2.444929     -0.928246     -6.547797
  C      -1.547117     -1.597692     -8.421935
  H      -0.815257     -0.753599     -8.434535
  H      -0.987039     -2.484370     -8.812580
  C      -2.733211     -1.278409     -9.365732
  H      -3.273554     -0.374930     -8.987075
  H      -3.475507     -2.111967     -9.307555
  C      -2.344251     -1.054573    -10.853383
  H      -1.863879     -1.982986    -11.252598
  H      -3.279155     -0.920174    -11.451042
  C      -1.410567      0.157507    -11.115302
  H      -1.841838      1.070624    -10.635506
  H      -0.426895     -0.008881    -10.614780
  C      -1.170257      0.425980    -12.620584
  H      -0.531892      1.325043    -12.781816
  H      -0.668773     -0.439148    -13.115094
  H      -2.131396      0.600665    -13.160544
138
Coordinates from ORCA-job /wrk/rja7/qm_final_3_replicates/qm_final_1.1/qm/10/freq E -2722.571284575708
  N       1.107091      0.574745     12.593482
  C       0.662253      0.017015     11.196010
  H       1.473788      0.309700     10.498548
  H      -0.282090      0.555417     10.954263
  C       2.350948     -0.139012     13.156810
  H       2.088375     -1.189053     13.383835
  H       3.129264     -0.137060     12.361500
  H       2.654390      0.406817     14.074689
  C      -0.031702      0.459646     13.591534
  H      -0.234770     -0.611496     13.787482
  H       0.259257      0.960544     14.538620
  H      -0.939112      0.945929     13.177321
  C       1.466280      2.043123     12.385472
  H       2.300200      2.092488     11.657003
  H       1.778255      2.485261     13.354275
  H       0.583956      2.587035     11.989234
  C       0.458938     -1.512992     11.106470
  H      -0.293118     -1.865010     11.857861
  H      -0.001924     -1.669905     10.095926
  P       2.994944     -2.044237     10.201222
  O       3.965438     -3.170169     10.449308
  O       3.369181     -0.542374     10.283299
  O       1.635908     -2.288116     11.283602
  O       2.088546     -2.267367      8.761113
  C       2.841799     -2.445500      7.544565
  H       2.190884     -3.002923      6.832505
  H       3.749731     -3.070759      7.725958
  C       3.278062     -1.091708      6.928827
  H       3.775934     -0.486418      7.721834
  O       2.024110     -0.417381      6.520369
  C       2.056498      0.893628      6.149227
  O       3.055612      1.604506      6.167928
  C       0.651442      1.360295      5.706405
  H       0.022555      1.442751      6.626550
  H       0.185913      0.536905      5.117160
  C       4.266154     -1.205782      5.737254
  H       5.030869     -1.982815      5.962964
  H       4.759452     -0.229266      5.561878
  O       3.598760     -1.510242      4.466671
  C       3.426410     -2.828565      4.118088
  O       3.727388     -3.774365      4.833471
  C       2.814592     -2.945959      2.712939
  H       3.600145     -2.631500      1.981152
  H       2.624506     -4.026603      2.542219
  C       0.676757      2.693344      4.914906
  H       1.357407      3.399860      5.441283
  H      -0.340237      3.153304      4.933300
  C       1.143282      2.542154      3.436780
  H       2.081337      1.937531      3.406799
  H       1.421461      3.550083      3.043477
  C       0.079866      1.919648      2.493467
  H      -0.859773      2.523627      2.553698
  H      -0.193502      0.896924      2.849885
  C       0.525516      1.823942      1.010424
  H       1.403936      1.137294      0.928738
  H       0.893344      2.824397      0.675141
  C      -0.603768      1.335431      0.067573
  H      -1.467412      2.042895      0.134831
  H      -0.989714      0.354252      0.434974
  C      -0.193452      1.192662     -1.425207
  H      -0.994355      0.630396     -1.960993
  H       0.714534      0.540804     -1.494491
  C       0.056186      2.528523     -2.129592
  H      -0.023155      3.434781     -1.495442
  C       0.356647      2.708711     -3.439969
  H       0.511974      3.747284     -3.794769
  C       0.500210      1.619636     -4.490637
  H       0.371781      0.615387     -4.029513
  H       1.544180      1.638406     -4.897426
  C      -0.489474      1.749293     -5.693732
  H      -1.534759      1.685843     -5.307811
  H      -0.350108      0.858485     -6.353293
  C      -0.303644      3.029816     -6.550832
  H       0.789555      3.199289     -6.709439
  H      -0.665325      3.923339     -5.989091
  C      -0.992795      2.970526     -7.946708
  H      -0.603391      2.081204     -8.499032
  H      -0.663871      3.854368     -8.543486
  C      -2.549165      2.904179     -7.933932
  H      -2.879429      2.042379     -7.305273
  H      -2.902951      2.666805     -8.966862
  C      -3.272059      4.189560     -7.441374
  H      -2.923243      4.452269     -6.412796
  H      -4.362494      3.967118     -7.335988
  C      -3.103688      5.425410     -8.364838
  H      -3.363290      5.140674     -9.415383
  H      -2.031478      5.735628     -8.391373
  C      -3.961493      6.636562     -7.922473
  H      -3.797496      7.520457     -8.580820
  H      -3.715594      6.946500     -6.879069
  H      -5.049905      6.392902     -7.945870
  C       1.533797     -2.097328      2.469675
  H       1.735484     -1.042257      2.760630
  H       0.718980     -2.458805      3.144049
  C       1.033945     -2.129160      0.996976
  H       1.820122     -1.686331      0.335281
  H       0.152607     -1.449187      0.911485
  C       0.629436     -3.527619      0.464017
  H      -0.173897     -3.948910      1.118838
  H       1.487214     -4.237547      0.545622
  C       0.142917     -3.517594     -1.008360
  H      -0.694626     -2.789071     -1.129093
  H       0.969858     -3.142755     -1.661206
  C      -0.301649     -4.915349     -1.514299
  H       0.529284     -5.645092     -1.355054
  H      -1.153669     -5.283768     -0.890845
  C      -0.712652     -4.941008     -3.021585
  H      -0.774146     -6.004736     -3.357010
  H       0.100967     -4.476880     -3.625348
  C      -2.045497     -4.261243     -3.298355
  H      -2.936505     -4.816692     -2.937841
  C      -2.247408     -3.059884     -3.894588
  H      -3.294458     -2.715044     -4.013256
  C      -1.175150     -2.125564     -4.439021
  H      -0.208673     -2.292646     -3.912942
  H      -1.470370     -1.073473     -4.213676
  C      -0.933312     -2.239047     -5.975932
  H      -0.601938     -3.276599     -6.223112
  H      -0.077462     -1.573088     -6.242239
  C      -2.154887     -1.853679     -6.849908
  H      -2.949658     -2.632136     -6.750457
  H      -2.604831     -0.906579     -6.460355
  C      -1.793735     -1.664321     -8.344860
  H      -1.044078     -0.839795     -8.425048
  H      -1.276490     -2.582867     -8.720347
  C      -3.014824     -1.352467     -9.247062
  H      -3.504879     -0.411518     -8.891267
  H      -3.776184     -2.158684     -9.109263
  C      -2.693599     -1.221631    -10.761676
  H      -2.242411     -2.177314    -11.129316
  H      -3.654415     -1.108221    -11.321744
  C      -1.761318     -0.039542    -11.139691
  H      -2.173931      0.906854    -10.713224
  H      -0.762189     -0.177069    -10.661136
  C      -1.573127      0.118193    -12.668503
  H      -0.919705      0.986416    -12.915871
  H      -1.108344     -0.792111    -13.115378
  H      -2.550656      0.278038    -13.182313
138
Coordinates from ORCA-job /wrk/rja7/qm_final_3_replicates/qm_final_1.1/qm/10/freq E -2722.572581183068
  N       1.218886      0.638583     12.539006
  C       0.674203      0.082215     11.178463
  H       1.457062      0.324219     10.430338
  H      -0.262249      0.651477     10.979951
  C       2.459410     -0.125040     13.043672
  H       2.162721     -1.159345     13.300811
  H       3.194716     -0.165209     12.209523
  H       2.835630      0.417447     13.936470
  C       0.134421      0.586606     13.600321
  H      -0.124101     -0.471448     13.803519
  H       0.511926      1.059377     14.530855
  H      -0.763231      1.132312     13.241912
  C       1.627253      2.088680     12.292256
  H       2.427367      2.097038     11.524865
  H       2.004770      2.527622     13.239194
  H       0.748940      2.661448     11.929034
  C       0.397015     -1.436949     11.135579
  H      -0.353398     -1.728613     11.914081
  H      -0.096822     -1.600268     10.140872
  P       2.894731     -2.127709     10.222122
  O       3.799323     -3.306004     10.485353
  O       3.371011     -0.650697     10.282111
  O       1.532837     -2.272636     11.313048
  O       1.969567     -2.318026      8.795495
  C       2.701836     -2.501116      7.568777
  H       2.032563     -3.036588      6.858164
  H       3.601031     -3.142318      7.737605
  C       3.156401     -1.148666      6.961646
  H       3.628722     -0.536467      7.764819
  O       1.916964     -0.473893      6.513859
  C       1.959724      0.841831      6.156483
  O       2.958066      1.551631      6.208485
  C       0.557934      1.323345      5.716943
  H      -0.059677      1.418170      6.643951
  H       0.074100      0.505627      5.134992
  C       4.184506     -1.262033      5.804567
  H       4.938189     -2.044214      6.049051
  H       4.689541     -0.286594      5.655844
  O       3.561509     -1.549829      4.510108
  C       3.426752     -2.863560      4.129809
  O       3.755361     -3.817133      4.822291
  C       2.843721     -2.962108      2.711737
  H       3.623085     -2.590508      2.000790
  H       2.699839     -4.043826      2.504364
  C       0.592611      2.658505      4.928841
  H       1.277402      3.357589      5.459745
  H      -0.421163      3.125431      4.949861
  C       1.057462      2.516026      3.448990
  H       1.987993      1.900408      3.412883
  H       1.346135      3.524676      3.065408
  C      -0.012001      1.917543      2.495932
  H      -0.941136      2.537956      2.552830
  H      -0.308849      0.898117      2.845696
  C       0.442857      1.823109      1.014974
  H       1.305960      1.116999      0.939072
  H       0.835891      2.816730      0.688358
  C      -0.687291      1.361766      0.058185
  H      -1.540898      2.081447      0.125480
  H      -1.090665      0.383744      0.413404
  C      -0.265437      1.219131     -1.431493
  H      -1.069176      0.665224     -1.975571
  H       0.635776      0.557647     -1.493995
  C       0.001841      2.553573     -2.134277
  H      -0.090889      3.461472     -1.504093
  C       0.318433      2.730926     -3.442225
  H       0.476066      3.768863     -3.798103
  C       0.485615      1.639002     -4.487492
  H       0.364421      0.635283     -4.024587
  H       1.534361      1.666813     -4.881902
  C      -0.487736      1.751753     -5.707156
  H      -1.539183      1.688945     -5.337556
  H      -0.335572      0.854672     -6.354602
  C      -0.292251      3.024217     -6.575187
  H       0.802518      3.192337     -6.724722
  H      -0.657739      3.922855     -6.024370
  C      -0.968406      2.955625     -7.977155
  H      -0.561914      2.070679     -8.525814
  H      -0.644437      3.843179     -8.571067
  C      -2.523344      2.867623     -7.982683
  H      -2.847420      1.972370     -7.398603
  H      -2.863393      2.675515     -9.029034
  C      -3.274467      4.117983     -7.441180
  H      -2.952675      4.331246     -6.392531
  H      -4.363247      3.874314     -7.372896
  C      -3.105676      5.401208     -8.298481
  H      -3.358977      5.170984     -9.365006
  H      -2.034564      5.716365     -8.303173
  C      -3.973094      6.584373     -7.801182
  H      -3.815835      7.497439     -8.419964
  H      -3.729790      6.848424     -6.744633
  H      -5.059626      6.333299     -7.836167
  C       1.530135     -2.160808      2.482083
  H       1.686651     -1.104187      2.795457
  H       0.727914     -2.569719      3.144474
  C       1.040244     -2.183041      1.008261
  H       1.825873     -1.726097      0.355702
  H       0.152916     -1.513714      0.921722
  C       0.656913     -3.580470      0.458476
  H      -0.145380     -4.016902      1.104533
  H       1.523413     -4.280265      0.537155
  C       0.176087     -3.547651     -1.014400
  H      -0.680561     -2.838479     -1.116056
  H       0.991389     -3.125605     -1.653537
  C      -0.228203     -4.939622     -1.562498
  H       0.625232     -5.648849     -1.430123
  H      -1.066057     -5.354305     -0.948964
  C      -0.643506     -4.928250     -3.067436
  H      -0.723649     -5.984887     -3.421066
  H       0.175216     -4.465424     -3.665320
  C      -1.968552     -4.226023     -3.327514
  H      -2.864962     -4.779561     -2.977293
  C      -2.159595     -3.009590     -3.897193
  H      -3.204438     -2.655031     -4.007999
  C      -1.081700     -2.071789     -4.426477
  H      -0.113008     -2.259312     -3.911347
  H      -1.368239     -1.022140     -4.178019
  C      -0.851237     -2.154947     -5.967964
  H      -0.522128     -3.187804     -6.236744
  H       0.001500     -1.481674     -6.230332
  C      -2.081734     -1.762634     -6.826744
  H      -2.889326     -2.523349     -6.696217
  H      -2.508448     -0.799813     -6.449339
  C      -1.750454     -1.618762     -8.334871
  H      -0.972459     -0.826803     -8.453725
  H      -1.282940     -2.566436     -8.702372
  C      -2.983786     -1.278125     -9.211498
  H      -3.426392     -0.311776     -8.862881
  H      -3.768566     -2.053967     -9.037007
  C      -2.698638     -1.191227    -10.736256
  H      -2.271438     -2.162937    -11.090384
  H      -3.671315     -1.075020    -11.275040
  C      -1.758079     -0.033517    -11.166996
  H      -2.156710      0.930564    -10.767864
  H      -0.753334     -0.164578    -10.697893
  C      -1.590299      0.069753    -12.703332
  H      -0.921372      0.914305    -12.988683
  H      -1.149631     -0.864366    -13.124809
  H      -2.571998      0.232613    -13.207571
138
Coordinates from ORCA-job /wrk/rja7/qm_final_3_replicates/qm_final_1.1/qm/10/freq E -2722.573529194837
  N       1.180865      0.671429     12.511510
  C       0.692830      0.099329     11.132760
  H       1.501734      0.335988     10.410181
  H      -0.236486      0.666519     10.898318
  C       2.401475     -0.079394     13.084949
  H       2.100564     -1.114726     13.331065
  H       3.183686     -0.111917     12.294348
  H       2.722835      0.473147     13.993275
  C       0.050256      0.627400     13.525782
  H      -0.230801     -0.427435     13.713284
  H       0.396863      1.091528     14.472424
  H      -0.823999      1.186069     13.130724
  C       1.592533      2.121675     12.268886
  H       2.434706      2.129345     11.547993
  H       1.909871      2.573247     13.232319
  H       0.728477      2.679977     11.852850
  C       0.408831     -1.420623     11.079638
  H      -0.365792     -1.709478     11.835524
  H      -0.055519     -1.579749     10.070101
  P       2.908061     -2.179763     10.199549
  O       3.775662     -3.379626     10.495960
  O       3.430098     -0.716088     10.230317
  O       1.532016     -2.264324     11.279355
  O       1.984695     -2.376397      8.774184
  C       2.721565     -2.547877      7.547825
  H       2.061994     -3.093213      6.836612
  H       3.631117     -3.172445      7.718214
  C       3.149540     -1.183689      6.946372
  H       3.586869     -0.558985      7.759489
  O       1.900231     -0.539770      6.481703
  C       1.912725      0.786976      6.157097
  O       2.892054      1.519370      6.239767
  C       0.502627      1.241243      5.715172
  H      -0.112473      1.321773      6.645258
  H       0.032113      0.417785      5.130617
  C       4.205140     -1.249211      5.807758
  H       4.978805     -2.009664      6.057121
  H       4.678043     -0.253309      5.687869
  O       3.624079     -1.526412      4.492149
  C       3.538397     -2.833796      4.071303
  O       3.902919     -3.794768      4.734278
  C       2.956482     -2.906654      2.651361
  H       3.716215     -2.477841      1.951533
  H       2.858445     -3.986036      2.407645
  C       0.509544      2.583305      4.938064
  H       1.170486      3.294356      5.483466
  H      -0.516745      3.022367      4.955278
  C       0.989632      2.468915      3.460153
  H       1.934646      1.875134      3.424051
  H       1.259088      3.488712      3.093084
  C      -0.061166      1.863322      2.490415
  H      -0.999190      2.470329      2.547343
  H      -0.347086      0.834060      2.821050
  C       0.411005      1.799505      1.012656
  H       1.290146      1.113219      0.937312
  H       0.787614      2.804716      0.702556
  C      -0.695879      1.325164      0.033502
  H      -1.569978      2.020071      0.096732
  H      -1.077253      0.331871      0.369993
  C      -0.248543      1.208269     -1.451272
  H      -1.028650      0.637572     -2.014307
  H       0.669870      0.571337     -1.507274
  C      -0.003826      2.555954     -2.136496
  H      -0.128095      3.455294     -1.499166
  C       0.333983      2.756370     -3.435570
  H       0.468480      3.802331     -3.776812
  C       0.555925      1.681036     -4.488743
  H       0.454013      0.669215     -4.037468
  H       1.611192      1.746115     -4.860259
  C      -0.391495      1.778272     -5.731521
  H      -1.449811      1.696569     -5.386314
  H      -0.208996      0.887284     -6.378353
  C      -0.196654      3.057815     -6.592097
  H       0.898981      3.237427     -6.721090
  H      -0.581925      3.950259     -6.044318
  C      -0.841438      2.986851     -8.008016
  H      -0.402951      2.115629     -8.554945
  H      -0.526384      3.888013     -8.585994
  C      -2.391751      2.859296     -8.052044
  H      -2.701248      1.920211     -7.533195
  H      -2.706400      2.727005     -9.115479
  C      -3.188355      4.051012     -7.447843
  H      -2.912777      4.186869     -6.373128
  H      -4.273972      3.785086     -7.442826
  C      -3.009611      5.401502     -8.196270
  H      -3.229408      5.256447     -9.285510
  H      -1.942855      5.726898     -8.143929
  C      -3.910615      6.530182     -7.635350
  H      -3.753239      7.489955     -8.179283
  H      -3.700608      6.717846     -6.555616
  H      -4.992065      6.268828     -7.719755
  C       1.609541     -2.150751      2.462406
  H       1.737849     -1.094440      2.789517
  H       0.839250     -2.597591      3.137892
  C       1.087577     -2.167839      1.000740
  H       1.856445     -1.707482      0.331204
  H       0.196242     -1.501895      0.936169
  C       0.695291     -3.563533      0.451430
  H      -0.093170     -4.008675      1.108112
  H       1.566454     -4.259542      0.508947
  C       0.188777     -3.513196     -1.012211
  H      -0.680660     -2.816079     -1.088021
  H       0.987966     -3.067882     -1.656074
  C      -0.199842     -4.901728     -1.579057
  H       0.668990     -5.596607     -1.475115
  H      -1.018784     -5.341078     -0.957204
  C      -0.644995     -4.873780     -3.075083
  H      -0.739062     -5.928157     -3.432274
  H       0.163490     -4.412518     -3.687620
  C      -1.974175     -4.167474     -3.300786
  H      -2.865182     -4.726486     -2.945630
  C      -2.177807     -2.945548     -3.854758
  H      -3.226287     -2.597929     -3.951347
  C      -1.113319     -1.993456     -4.386414
  H      -0.139873     -2.169007     -3.876262
  H      -1.413860     -0.948839     -4.132043
  C      -0.889481     -2.069812     -5.929946
  H      -0.547310     -3.098973     -6.197251
  H      -0.047954     -1.384507     -6.197927
  C      -2.133896     -1.707602     -6.781538
  H      -2.938345     -2.464174     -6.613118
  H      -2.556567     -0.733193     -6.430635
  C      -1.828897     -1.615964     -8.299548
  H      -1.039502     -0.843000     -8.458041
  H      -1.385977     -2.581936     -8.648764
  C      -3.074951     -1.281481     -9.162662
  H      -3.498191     -0.300625     -8.832347
  H      -3.866525     -2.041916     -8.954005
  C      -2.816522     -1.239643    -10.694075
  H      -2.391202     -2.220855    -11.023382
  H      -3.797837     -1.142423    -11.220755
  C      -1.885247     -0.092912    -11.172662
  H      -2.291084      0.883782    -10.811281
  H      -0.878008     -0.195809    -10.701816
  C      -1.720066     -0.048472    -12.712471
  H      -1.051297      0.784502    -13.030552
  H      -1.280059     -0.997237    -13.100972
  H      -2.701917      0.094361    -13.222626
138
Coordinates from ORCA-job /wrk/rja7/qm_final_3_replicates/qm_final_1.1/qm/10/freq E -2722.574024171754
  N       1.295270      0.651179     12.432643
  C       0.751798      0.081333     11.072149
  H       1.565496      0.253132     10.336479
  H      -0.138454      0.708561     10.840667
  C       2.473363     -0.157706     13.016382
  H       2.108076     -1.159355     13.305434
  H       3.238899     -0.271708     12.216791
  H       2.845397      0.406643     13.898204
  C       0.176674      0.712824     13.459995
  H      -0.183638     -0.313234     13.668517
  H       0.570524      1.164015     14.394224
  H      -0.656258      1.331475     13.064763
  C       1.798401      2.062562     12.144676
  H       2.634002      1.993540     11.419680
  H       2.148587      2.522011     13.092921
  H       0.968489      2.663812     11.718917
  C       0.362325     -1.418961     11.033901
  H      -0.420810     -1.657348     11.798253
  H      -0.119958     -1.546683     10.028962
  P       2.817827     -2.256196     10.141627
  O       3.660084     -3.476740     10.422120
  O       3.365124     -0.803768     10.201093
  O       1.434856     -2.328505     11.211446
  O       1.895931     -2.407272      8.711866
  C       2.632953     -2.551900      7.481292
  H       1.971296     -3.079804      6.758125
  H       3.540350     -3.183717      7.634408
  C       3.059633     -1.172390      6.916295
  H       3.471031     -0.560527      7.751782
  O       1.813297     -0.533311      6.436582
  C       1.817434      0.804373      6.162285
  O       2.789297      1.541275      6.284133
  C       0.414943      1.259134      5.699848
  H      -0.213751      1.335996      6.621203
  H      -0.045941      0.438580      5.103806
  C       4.138744     -1.202681      5.797871
  H       4.918637     -1.954319      6.053395
  H       4.595961     -0.197312      5.698416
  O       3.583617     -1.480511      4.470986
  C       3.500006     -2.789525      4.054737
  O       3.845756     -3.748853      4.730088
  C       2.928550     -2.866501      2.630796
  H       3.695063     -2.444521      1.934259
  H       2.827714     -3.946380      2.391200
  C       0.433907      2.605298      4.931310
  H       1.083365      3.314602      5.492736
  H      -0.593926      3.041276      4.932289
  C       0.940700      2.497654      3.462692
  H       1.888174      1.906515      3.441262
  H       1.214551      3.519537      3.104818
  C      -0.091744      1.892503      2.475004
  H      -1.028190      2.503424      2.513782
  H      -0.386062      0.864753      2.801571
  C       0.407663      1.826252      1.007115
  H       1.292911      1.145732      0.949757
  H       0.783695      2.832364      0.699014
  C      -0.676217      1.338863      0.010291
  H      -1.563249      2.018084      0.060432
  H      -1.046694      0.337990      0.337760
  C      -0.201627      1.234649     -1.466028
  H      -0.960930      0.650845     -2.043182
  H       0.729602      0.616012     -1.506376
  C       0.025058      2.589225     -2.143632
  H      -0.117797      3.483325     -1.502746
  C       0.366111      2.803438     -3.439538
  H       0.476417      3.853879     -3.775607
  C       0.606494      1.738994     -4.498756
  H       0.526441      0.724766     -4.048494
  H       1.656956      1.829169     -4.877896
  C      -0.355927      1.816857     -5.730864
  H      -1.408149      1.723229     -5.370744
  H      -0.170252      0.924768     -6.374983
  C      -0.191463      3.091631     -6.604122
  H       0.899081      3.280817     -6.759560
  H      -0.575575      3.984311     -6.055690
  C      -0.866427      2.995386     -8.003517
  H      -0.413314      2.135125     -8.555614
  H      -0.598264      3.904283     -8.592975
  C      -2.410722      2.809202     -8.006246
  H      -2.666879      1.849460     -7.497086
  H      -2.749923      2.683140     -9.063544
  C      -3.234638      3.956657     -7.358133
  H      -2.942862      4.077612     -6.285775
  H      -4.310350      3.653742     -7.338727
  C      -3.117158      5.329154     -8.077112
  H      -3.365695      5.202846     -9.162143
  H      -2.059237      5.685100     -8.048242
  C      -4.035086      6.414800     -7.462467
  H      -3.927756      7.391090     -7.989237
  H      -3.795761      6.586966     -6.386365
  H      -5.109767      6.120061     -7.517831
  C       1.587139     -2.102819      2.432534
  H       1.727584     -1.042540      2.741274
  H       0.815538     -2.529104      3.119543
  C       1.061875     -2.142640      0.973295
  H       1.842892     -1.724577      0.290115
  H       0.189997     -1.451831      0.891363
  C       0.629235     -3.541402      0.461489
  H      -0.170404     -3.948118      1.129320
  H       1.480694     -4.259690      0.536678
  C       0.123986     -3.514436     -1.002799
  H      -0.735818     -2.808105     -1.092424
  H       0.931385     -3.097460     -1.654923
  C      -0.287349     -4.907125     -1.543128
  H       0.571078     -5.613404     -1.432427
  H      -1.110590     -5.322761     -0.910793
  C      -0.737841     -4.892848     -3.037838
  H      -0.860575     -5.950838     -3.375342
  H       0.079723     -4.463659     -3.661743
  C      -2.049751     -4.158974     -3.271004
  H      -2.955521     -4.699007     -2.924020
  C      -2.222233     -2.933045     -3.825686
  H      -3.261735     -2.562456     -3.931908
  C      -1.131506     -2.002270     -4.340438
  H      -0.170670     -2.194988     -3.812957
  H      -1.415778     -0.952288     -4.088270
  C      -0.880423     -2.084718     -5.879437
  H      -0.556751     -3.122573     -6.136873
  H      -0.018011     -1.420967     -6.131049
  C      -2.097416     -1.696247     -6.756460
  H      -2.927322     -2.425913     -6.593330
  H      -2.495052     -0.704532     -6.425664
  C      -1.760413     -1.629568     -8.268060
  H      -0.941489     -0.885670     -8.419109
  H      -1.341285     -2.612411     -8.599248
  C      -2.976543     -1.265679     -9.160636
  H      -3.383467     -0.273708     -8.842589
  H      -3.793768     -2.003532     -8.969641
  C      -2.678423     -1.232411    -10.685009
  H      -2.252063     -2.218676    -10.997557
  H      -3.643939     -1.129685    -11.238830
  C      -1.724687     -0.095984    -11.141472
  H      -2.141773      0.887494    -10.811001
  H      -0.738262     -0.193959    -10.627968
  C      -1.496306     -0.073114    -12.673199
  H      -0.807724      0.749746    -12.974572
  H      -1.051401     -1.031217    -13.032299
  H      -2.454921      0.071610    -13.225726
138
Coordinates from ORCA-job /wrk/rja7/qm_final_3_replicates/qm_final_1.1/qm/10/freq E -2722.574176016730
  N       0.996580      0.468394     12.392217
  C       0.528970     -0.112926     11.010694
  H       1.318316      0.180798     10.288697
  H      -0.428928      0.411368     10.791648
  C       2.259336     -0.218071     12.953562
  H       2.011321     -1.263600     13.208455
  H       3.030268     -0.218197     12.151540
  H       2.565878      0.355712     13.854212
  C      -0.123585      0.367907     13.414383
  H      -0.370869     -0.699072     13.578727
  H       0.215963      0.819044     14.369776
  H      -1.018158      0.908867     13.040642
  C       1.336623      1.935810     12.151917
  H       2.182958      1.982707     11.437288
  H       1.625131      2.404717     13.115771
  H       0.450360      2.451513     11.727998
  C       0.318062     -1.647670     10.920639
  H      -0.440053     -1.993027     11.668693
  H      -0.141272     -1.800167      9.908692
  P       2.873328     -2.204987     10.061137
  O       3.814551     -3.356603     10.316324
  O       3.293184     -0.715007     10.194567
  O       1.482729     -2.442144     11.091230
  O       2.011960     -2.374937      8.598672
  C       2.796222     -2.439761      7.388043
  H       2.184639     -2.978542      6.628430
  H       3.727770     -3.032178      7.553294
  C       3.177586     -1.029646      6.865779
  H       3.554298     -0.424940      7.721950
  O       1.917502     -0.426732      6.373703
  C       1.874501      0.918036      6.144262
  O       2.814100      1.687076      6.313235
  C       0.469683      1.337727      5.658149
  H      -0.172199      1.409011      6.571306
  H       0.032904      0.506294      5.059694
  C       4.271343     -0.998909      5.762160
  H       5.077740     -1.721808      6.018893
  H       4.691639      0.023793      5.681220
  O       3.740814     -1.284221      4.426313
  C       3.684364     -2.592788      4.005255
  O       4.040763     -3.548366      4.680765
  C       3.105157     -2.675417      2.584086
  H       3.852733     -2.229474      1.882477
  H       3.023941     -3.755135      2.337787
  C       0.476099      2.680316      4.883711
  H       1.104698      3.403774      5.450816
  H      -0.558809      3.098889      4.866291
  C       1.006191      2.570220      3.423560
  H       1.955815      1.982097      3.417453
  H       1.280729      3.591485      3.064209
  C      -0.009272      1.955327      2.424236
  H      -0.943264      2.571200      2.433327
  H      -0.316811      0.937028      2.766394
  C       0.516040      1.854145      0.967401
  H       1.392677      1.160634      0.939584
  H       0.910082      2.849142      0.646151
  C      -0.559763      1.364525     -0.036432
  H      -1.433517      2.062041     -0.011683
  H      -0.953945      0.377376      0.305654
  C      -0.068428      1.222916     -1.504424
  H      -0.834417      0.651989     -2.082898
  H       0.845748      0.577133     -1.521336
  C       0.209874      2.558135     -2.198580
  H       0.101075      3.465238     -1.569498
  C       0.555585      2.737812     -3.497499
  H       0.714220      3.776491     -3.850972
  C       0.739325      1.646822     -4.539156
  H       0.626295      0.643930     -4.069560
  H       1.786397      1.687171     -4.935761
  C      -0.240766      1.743695     -5.753657
  H      -1.289655      1.715940     -5.373302
  H      -0.115048      0.826180     -6.375951
  C      -0.028839      2.982595     -6.665060
  H       1.064536      3.101484     -6.863893
  H      -0.338445      3.910715     -6.128277
  C      -0.763519      2.890385     -8.033275
  H      -0.382641      1.993520     -8.581005
  H      -0.470915      3.768056     -8.657696
  C      -2.313905      2.790563     -7.964225
  H      -2.599981      1.854270     -7.428916
  H      -2.704811      2.669198     -9.005098
  C      -3.043146      3.990757     -7.298558
  H      -2.706953      4.102572     -6.238470
  H      -4.133519      3.751806     -7.241307
  C      -2.869677      5.346228     -8.034534
  H      -3.168069      5.225217     -9.106446
  H      -1.791355      5.635527     -8.051061
  C      -3.692342      6.492251     -7.395041
  H      -3.548826      7.454631     -7.938299
  H      -3.396685      6.658823     -6.332287
  H      -4.783719      6.260893     -7.401235
  C       1.742624     -1.942967      2.404656
  H       1.865522     -0.877730      2.702773
  H       0.993856     -2.379774      3.109937
  C       1.187464     -2.006624      0.955711
  H       1.949462     -1.586221      0.252277
  H       0.305013     -1.327417      0.882493
  C       0.764078     -3.417655      0.467769
  H      -0.010387     -3.826351      1.163737
  H       1.627695     -4.122579      0.527512
  C       0.210128     -3.417834     -0.979723
  H      -0.664353     -2.727313     -1.045259
  H       0.983758     -2.989447     -1.664533
  C      -0.195794     -4.822877     -1.490723
  H       0.681449     -5.509671     -1.407924
  H      -0.984048     -5.250428     -0.822889
  C      -0.706677     -4.834221     -2.966672
  H      -0.818668     -5.897861     -3.289855
  H       0.074432     -4.392470     -3.627978
  C      -2.046311     -4.137565     -3.153597
  H      -2.921870     -4.702161     -2.770073
  C      -2.275359     -2.918950     -3.702737
  H      -3.328455     -2.578149     -3.766586
  C      -1.233461     -1.958312     -4.260146
  H      -0.252670     -2.112117     -3.757308
  H      -1.545562     -0.914821     -4.014682
  C      -1.019918     -2.056700     -5.803764
  H      -0.661335     -3.083938     -6.057714
  H      -0.191850     -1.364079     -6.087371
  C      -2.272024     -1.725056     -6.653198
  H      -3.072376     -2.477563     -6.450869
  H      -2.690733     -0.738896     -6.331915
  C      -1.979883     -1.677337     -8.174505
  H      -1.197913     -0.904054     -8.368056
  H      -1.528281     -2.650376     -8.492018
  C      -3.235722     -1.391140     -9.039626
  H      -3.685016     -0.415105     -8.728800
  H      -4.007322     -2.167218     -8.814095
  C      -2.975804     -1.365198    -10.570988
  H      -2.487543     -2.323747    -10.878812
  H      -3.957802     -1.339983    -11.104121
  C      -2.117778     -0.170089    -11.066462
  H      -2.608132      0.785748    -10.754745
  H      -1.122390     -0.178962    -10.561893
  C      -1.907497     -0.168395    -12.600855
  H      -1.287608      0.697121    -12.930409
  H      -1.391402     -1.098054    -12.938720
  H      -2.880027     -0.113055    -13.144919
138
Coordinates from ORCA-job /wrk/rja7/qm_final_3_replicates/qm_final_1.1/qm/10/freq E -2722.574552036308
  N       0.971663      0.535880     12.371083
  C       0.522447      0.013021     10.963071
  H       1.354574      0.272637     10.278128
  H      -0.397517      0.590302     10.716473
  C       2.154375     -0.259300     12.960867
  H       1.815277     -1.289276     13.176823
  H       2.953742     -0.301696     12.187934
  H       2.468496      0.264965     13.888274
  C      -0.193716      0.492352     13.345043
  H      -0.524037     -0.557935     13.467824
  H       0.136986      0.891964     14.326109
  H      -1.030496      1.106786     12.951863
  C       1.428406      1.979127     12.179058
  H       2.305537      1.976548     11.501199
  H       1.709749      2.406536     13.164057
  H       0.602441      2.568670     11.730585
  C       0.244983     -1.506640     10.852747
  H      -0.545985     -1.821258     11.580159
  H      -0.194833     -1.632947      9.828302
  P       2.786518     -2.192585     10.044866
  O       3.677223     -3.372359     10.347024
  O       3.262543     -0.717004     10.140321
  O       1.371821     -2.345658     11.056260
  O       1.945543     -2.370232      8.571444
  C       2.751642     -2.476562      7.377856
  H       2.139191     -3.009191      6.615165
  H       3.662206     -3.092838      7.569835
  C       3.183391     -1.086409      6.841792
  H       3.576001     -0.486901      7.694738
  O       1.948341     -0.443376      6.335757
  C       1.948641      0.904134      6.118415
  O       2.906021      1.644022      6.316565
  C       0.555539      1.376265      5.647398
  H      -0.074971      1.464427      6.567194
  H       0.083708      0.565480      5.047641
  C       4.282057     -1.102658      5.743632
  H       5.069610     -1.840875      6.015880
  H       4.729452     -0.092680      5.650071
  O       3.750767     -1.393485      4.409608
  C       3.688289     -2.704630      3.998282
  O       4.063648     -3.654674      4.671156
  C       3.106032     -2.795133      2.579093
  H       3.842386     -2.334185      1.875415
  H       3.041526     -3.875560      2.330309
  C       0.600929      2.725270      4.884264
  H       1.260086      3.421469      5.450591
  H      -0.419431      3.178354      4.883630
  C       1.108567      2.614630      3.415666
  H       2.040845      1.999983      3.390411
  H       1.406910      3.631334      3.062351
  C       0.064091      2.035824      2.424333
  H      -0.857459      2.669060      2.459484
  H      -0.256425      1.018674      2.758067
  C       0.558861      1.945803      0.956329
  H       1.425353      1.241614      0.903974
  H       0.959156      2.938998      0.637444
  C      -0.543329      1.478775     -0.029629
  H      -1.404501      2.191001      0.011568
  H      -0.947975      0.498146      0.317993
  C      -0.078739      1.327279     -1.505458
  H      -0.861803      0.764078     -2.068623
  H       0.826590      0.669853     -1.534587
  C       0.203604      2.654215     -2.213446
  H       0.110631      3.568139     -1.591881
  C       0.535145      2.815903     -3.518755
  H       0.692587      3.849033     -3.889012
  C       0.704036      1.708466     -4.545709
  H       0.611211      0.713911     -4.055722
  H       1.740856      1.750593     -4.967877
  C      -0.306787      1.772410     -5.735813
  H      -1.345070      1.742043     -5.327744
  H      -0.187769      0.844004     -6.344296
  C      -0.131857      2.994846     -6.675787
  H       0.953505      3.115260     -6.913808
  H      -0.428317      3.931287     -6.146363
  C      -0.914106      2.872494     -8.015431
  H      -0.549464      1.966765     -8.559404
  H      -0.648214      3.738592     -8.667168
  C      -2.461126      2.771412     -7.887011
  H      -2.725459      1.839264     -7.333506
  H      -2.891061      2.640516     -8.910680
  C      -3.164425      3.977197     -7.203749
  H      -2.788472      4.098854     -6.158157
  H      -4.251839      3.739063     -7.103412
  C      -3.019291      5.325192     -7.958307
  H      -3.361400      5.194148     -9.015731
  H      -1.942148      5.611921     -8.021588
  C      -3.811667      6.479174     -7.295579
  H      -3.689823      7.436080     -7.853497
  H      -3.470356      6.654868     -6.248058
  H      -4.902598      6.249556     -7.253056
  C       1.729457     -2.087005      2.406921
  H       1.832013     -1.022054      2.714303
  H       0.988191     -2.542839      3.108013
  C       1.179360     -2.146684      0.956588
  H       1.938180     -1.709301      0.260137
  H       0.289042     -1.479025      0.886147
  C       0.775807     -3.557095      0.451477
  H       0.001761     -3.981747      1.138437
  H       1.646701     -4.253520      0.507539
  C       0.230543     -3.542337     -0.998980
  H      -0.642157     -2.849378     -1.059612
  H       1.007910     -3.107398     -1.675410
  C      -0.181771     -4.937743     -1.529838
  H       0.691758     -5.630667     -1.459613
  H      -0.971646     -5.371371     -0.867975
  C      -0.693759     -4.919263     -3.005651
  H      -0.819580     -5.975729     -3.346465
  H       0.093061     -4.476294     -3.659270
  C      -2.022518     -4.199121     -3.182595
  H      -2.907649     -4.756089     -2.810240
  C      -2.229479     -2.967113     -3.710792
  H      -3.275981     -2.605415     -3.768629
  C      -1.168454     -2.020412     -4.257878
  H      -0.189950     -2.203621     -3.760654
  H      -1.455411     -0.973341     -3.996285
  C      -0.960591     -2.101633     -5.803239
  H      -0.633154     -3.135075     -6.073390
  H      -0.112277     -1.429633     -6.077555
  C      -2.201683     -1.717305     -6.646840
  H      -3.028068     -2.442501     -6.449700
  H      -2.584473     -0.719837     -6.315350
  C      -1.910850     -1.666776     -8.168646
  H      -1.099269     -0.923091     -8.357236
  H      -1.498785     -2.654241     -8.495507
  C      -3.155418     -1.324344     -9.029208
  H      -3.565729     -0.333799     -8.710152
  H      -3.956064     -2.071235     -8.807191
  C      -2.897383     -1.300583    -10.561558
  H      -2.442627     -2.274052    -10.873917
  H      -3.878691     -1.240671    -11.093093
  C      -1.999919     -0.134394    -11.056056
  H      -2.460622      0.836451    -10.748160
  H      -1.007560     -0.174025    -10.547198
  C      -1.783823     -0.141747    -12.589480
  H      -1.136410      0.703766    -12.918013
  H      -1.295277     -1.087560    -12.923314
  H      -2.752024     -0.057574    -13.137447
138
Coordinates from ORCA-job /wrk/rja7/qm_final_3_replicates/qm_final_1.1/qm/10/freq E -2722.574338939638
  N       1.330910      0.746242     12.327383
  C       0.768326      0.202937     10.970099
  H       1.592915      0.330553     10.239443
  H      -0.094265      0.863435     10.723905
  C       2.438907     -0.148928     12.922574
  H       1.996627     -1.125645     13.196306
  H       3.205725     -0.313407     12.132939
  H       2.837131      0.378754     13.814930
  C       0.207609      0.883744     13.341319
  H      -0.232536     -0.114965     13.533202
  H       0.621604      1.293074     14.286135
  H      -0.570380      1.567975     12.942410
  C       1.937429      2.118146     12.039368
  H       2.785629      1.981686     11.338652
  H       2.296370      2.562780     12.991283
  H       1.165229      2.770384     11.581900
  C       0.326338     -1.279451     10.960354
  H      -0.465363     -1.467014     11.730154
  H      -0.161581     -1.413165      9.958312
  P       2.743385     -2.284230     10.107903
  O       3.499417     -3.551856     10.426315
  O       3.395217     -0.873469     10.116040
  O       1.364799     -2.219949     11.176308
  O       1.818081     -2.414280      8.679773
  C       2.557815     -2.569633      7.450956
  H       1.892657     -3.092184      6.726854
  H       3.459684     -3.208459      7.605438
  C       2.997487     -1.194195      6.889217
  H       3.403329     -0.588398      7.732343
  O       1.759606     -0.547490      6.394285
  C       1.752968      0.802804      6.185238
  O       2.707265      1.546385      6.384019
  C       0.357181      1.265772      5.712838
  H      -0.268046      1.364547      6.635116
  H      -0.115922      0.446965      5.125209
  C       4.091306     -1.228018      5.788324
  H       4.869912     -1.976055      6.060418
  H       4.552566     -0.223578      5.699083
  O       3.563159     -1.498961      4.450381
  C       3.470091     -2.806891      4.029727
  O       3.818555     -3.769789      4.698309
  C       2.908510     -2.870732      2.601163
  H       3.665575     -2.417956      1.914528
  H       2.825954     -3.947379      2.340294
  C       0.392408      2.606889      4.935220
  H       1.035393      3.317527      5.501996
  H      -0.633970      3.045843      4.919227
  C       0.918392      2.488828      3.474125
  H       1.865478      1.896620      3.466636
  H       1.197644      3.507526      3.111274
  C      -0.100335      1.870609      2.479389
  H      -1.046721      2.466150      2.514506
  H      -0.381508      0.838905      2.805219
  C       0.406207      1.814892      1.014381
  H       1.313293      1.163619      0.963252
  H       0.749855      2.831927      0.704351
  C      -0.657482      1.290235      0.014357
  H      -1.564787      1.942528      0.060576
  H      -0.997064      0.278266      0.341044
  C      -0.170000      1.204572     -1.459109
  H      -0.905293      0.602897     -2.048645
  H       0.778598      0.611577     -1.493501
  C       0.033572      2.567688     -2.124006
  H      -0.134225      3.454373     -1.479058
  C       0.395067      2.792417     -3.411669
  H       0.497157      3.845464     -3.743118
  C       0.681624      1.733250     -4.464254
  H       0.652605      0.717099     -4.010353
  H       1.725296      1.870142     -4.847276
  C      -0.287774      1.765654     -5.689597
  H      -1.334568      1.638916     -5.324424
  H      -0.074197      0.876287     -6.328899
  C      -0.175110      3.037706     -6.573042
  H       0.906514      3.247291     -6.761718
  H      -0.559759      3.927060     -6.019969
  C      -0.892851      2.916282     -7.948911
  H      -0.443476      2.062425     -8.513156
  H      -0.662426      3.825022     -8.554327
  C      -2.433804      2.707416     -7.892608
  H      -2.657523      1.727582     -7.407584
  H      -2.814482      2.613031     -8.938762
  C      -3.239455      3.821173     -7.166206
  H      -2.916244      3.894586     -6.098528
  H      -4.313465      3.513662     -7.130953
  C      -3.144811      5.223895     -7.825182
  H      -3.432240      5.144849     -8.903799
  H      -2.085534      5.576168     -7.819030
  C      -4.034306      6.283325     -7.127490
  H      -3.945928      7.281428     -7.615093
  H      -3.750604      6.406319     -6.055463
  H      -5.110761      5.990874     -7.152535
  C       1.550858     -2.130471      2.414726
  H       1.672062     -1.072802      2.738843
  H       0.786926     -2.579849      3.095340
  C       1.031778     -2.157740      0.952415
  H       1.809105     -1.713008      0.281587
  H       0.146978     -1.483825      0.873191
  C       0.633706     -3.557165      0.414681
  H      -0.163082     -3.989068      1.070374
  H       1.499799     -4.258400      0.487154
  C       0.137113     -3.516888     -1.052527
  H      -0.725585     -2.812260     -1.136975
  H       0.943438     -3.082989     -1.695357
  C      -0.267297     -4.903038     -1.613705
  H       0.597328     -5.604236     -1.518519
  H      -1.084125     -5.335933     -0.984840
  C      -0.724805     -4.869097     -3.106764
  H      -0.835891     -5.921945     -3.463385
  H       0.084077     -4.417421     -3.726198
  C      -2.047329     -4.147597     -3.323275
  H      -2.945951     -4.704503     -2.984647
  C      -2.232075     -2.911297     -3.850304
  H      -3.274492     -2.545108     -3.943785
  C      -1.145848     -1.969757     -4.355942
  H      -0.188711     -2.155226     -3.819220
  H      -1.438920     -0.920258     -4.109498
  C      -0.878172     -2.058440     -5.891596
  H      -0.541604     -3.093483     -6.143565
  H      -0.018638     -1.388273     -6.135280
  C      -2.087101     -1.680333     -6.784347
  H      -2.914607     -2.414469     -6.629613
  H      -2.493474     -0.689843     -6.460116
  C      -1.732289     -1.609764     -8.292215
  H      -0.924464     -0.852419     -8.434795
  H      -1.293857     -2.587210     -8.614875
  C      -2.944488     -1.271844     -9.200816
  H      -3.389111     -0.298005     -8.877866
  H      -3.737991     -2.040203     -9.033427
  C      -2.618495     -1.206295    -10.719171
  H      -2.123079     -2.159920    -11.031013
  H      -3.575661     -1.160327    -11.294364
  C      -1.731825     -0.004743    -11.144779
  H      -2.235374      0.945107    -10.839252
  H      -0.764422     -0.027137    -10.588662
  C      -1.440742      0.029248    -12.665812
  H      -0.807743      0.903494    -12.943684
  H      -0.902997     -0.891012    -12.995575
  H      -2.382501      0.092848    -13.260574
138
Coordinates from ORCA-job /wrk/rja7/qm_final_3_replicates/qm_final_1.1/qm/10/freq E -2722.575189943155
  N       1.143295      0.623740     12.288985
  C       0.626298      0.049815     10.922151
  H       1.443139      0.244014     10.196729
  H      -0.273633      0.659782     10.681186
  C       2.319858     -0.175675     12.889295
  H       1.961392     -1.183866     13.165616
  H       3.099392     -0.275098     12.101328
  H       2.670618      0.387229     13.780342
  C       0.007957      0.672861     13.297737
  H      -0.359489     -0.356074     13.479968
  H       0.386404      1.104747     14.247383
  H      -0.815267      1.301666     12.898435
  C       1.640789      2.039166     12.007667
  H       2.498223      1.971000     11.308395
  H       1.959242      2.508350     12.962208
  H       0.819732      2.630235     11.551938
  C       0.269086     -1.458903     10.874370
  H      -0.520816     -1.711684     11.627059
  H      -0.197598     -1.593585      9.862886
  P       2.756184     -2.278499     10.034864
  O       3.586221     -3.505480     10.322568
  O       3.310853     -0.829948     10.117715
  O       1.354098     -2.348916     11.072105
  O       1.872131     -2.409759      8.580675
  C       2.646628     -2.520658      7.367261
  H       2.009121     -3.040880      6.617006
  H       3.554718     -3.148612      7.530064
  C       3.075961     -1.126497      6.843886
  H       3.464324     -0.535792      7.705022
  O       1.838814     -0.481358      6.345707
  C       1.827765      0.873432      6.174112
  O       2.781034      1.613158      6.391919
  C       0.438330      1.345313      5.693236
  H      -0.190913      1.451666      6.611805
  H      -0.038141      0.529824      5.103858
  C       4.179950     -1.119271      5.752172
  H       4.976067     -1.848018      6.025186
  H       4.612700     -0.101069      5.672889
  O       3.668412     -1.400021      4.409123
  C       3.598074     -2.710171      3.991204
  O       3.947808     -3.666647      4.668212
  C       3.023316     -2.788121      2.568601
  H       3.768256     -2.330509      1.871898
  H       2.951262     -3.867021      2.314663
  C       0.491962      2.684656      4.913824
  H       1.146586      3.386195      5.478845
  H      -0.527809      3.138866      4.898122
  C       1.013757      2.554613      3.452308
  H       1.946759      1.940085      3.442554
  H       1.317090      3.566916      3.091015
  C      -0.022811      1.965552      2.458960
  H      -0.947119      2.595140      2.488846
  H      -0.339819      0.946282      2.790275
  C       0.482710      1.881668      0.995034
  H       1.362637      1.193432      0.947029
  H       0.868095      2.881879      0.679528
  C      -0.602293      1.397004     -0.001525
  H      -1.480690      2.088042      0.037592
  H      -0.985398      0.404055      0.334702
  C      -0.120804      1.274575     -1.474191
  H      -0.880774      0.695595     -2.053947
  H       0.803544      0.643888     -1.503169
  C       0.131772      2.620376     -2.158257
  H      -0.003263      3.521627     -1.525980
  C       0.495871      2.814763     -3.450293
  H       0.628769      3.858992     -3.797751
  C       0.737284      1.731755     -4.489664
  H       0.683789      0.725174     -4.017358
  H       1.778650      1.832085     -4.889460
  C      -0.251020      1.769312     -5.699730
  H      -1.294248      1.686242     -5.312744
  H      -0.078918      0.858369     -6.320942
  C      -0.113739      3.014489     -6.617358
  H       0.969969      3.180310     -6.835434
  H      -0.455040      3.930173     -6.079225
  C      -0.866733      2.881918     -7.973291
  H      -0.454719      2.002072     -8.525891
  H      -0.627497      3.769575     -8.606010
  C      -2.410727      2.714165     -7.875782
  H      -2.646235      1.747954     -7.370120
  H      -2.818995      2.612559     -8.911073
  C      -3.170487      3.858771     -7.148734
  H      -2.822850      3.937786     -6.089265
  H      -4.251553      3.581765     -7.086287
  C      -3.052477      5.250033     -7.828030
  H      -3.369812      5.165672     -8.897846
  H      -1.983685      5.571504     -7.853206
  C      -3.893972      6.342353     -7.122454
  H      -3.792394      7.331238     -7.626256
  H      -3.578231      6.473027     -6.060331
  H      -4.978255      6.079414     -7.114646
  C       1.655360     -2.064261      2.394028
  H       1.771689     -1.000978      2.702237
  H       0.908281     -2.511393      3.094480
  C       1.109973     -2.117596      0.942334
  H       1.874926     -1.686756      0.248657
  H       0.224669     -1.443151      0.868410
  C       0.699092     -3.525615      0.436773
  H      -0.084431     -3.946380      1.115077
  H       1.565624     -4.226820      0.502549
  C       0.172285     -3.508746     -1.020261
  H      -0.695220     -2.810051     -1.096587
  H       0.964607     -3.084374     -1.686030
  C      -0.238769     -4.904507     -1.553004
  H       0.630437     -5.601177     -1.468679
  H      -1.039880     -5.331059     -0.900066
  C      -0.731570     -4.890888     -3.035447
  H      -0.852256     -5.948723     -3.373725
  H       0.062813     -4.449832     -3.680610
  C      -2.058707     -4.171763     -3.229055
  H      -2.949622     -4.728041     -2.869891
  C      -2.257100     -2.939076     -3.759583
  H      -3.302166     -2.576598     -3.834466
  C      -1.184895     -1.995966     -4.291772
  H      -0.217583     -2.171864     -3.770567
  H      -1.478599     -0.946765     -4.046317
  C      -0.943984     -2.092268     -5.831162
  H      -0.611556     -3.128935     -6.082118
  H      -0.089128     -1.423787     -6.094186
  C      -2.169374     -1.719511     -6.702743
  H      -2.994543     -2.451098     -6.525541
  H      -2.567345     -0.725699     -6.378670
  C      -1.843085     -1.658918     -8.216893
  H      -1.034753     -0.905669     -8.378732
  H      -1.412938     -2.638959     -8.542782
  C      -3.069472     -1.321251     -9.105537
  H      -3.504816     -0.343712     -8.781031
  H      -3.864537     -2.083720     -8.919067
  C      -2.769004     -1.266768    -10.629460
  H      -2.281779     -2.224415    -10.942048
  H      -3.734862     -1.222022    -11.189963
  C      -1.883780     -0.072437    -11.076885
  H      -2.383004      0.882819    -10.779778
  H      -0.912455     -0.089283    -10.527543
  C      -1.604619     -0.057866    -12.600033
  H      -0.971682      0.811033    -12.894061
  H      -1.073713     -0.984243    -12.923864
  H      -2.550993      0.001309    -13.188198
138
Coordinates from ORCA-job /wrk/rja7/qm_final_3_replicates/qm_final_1.1/qm/10/freq E -2722.575307872745
  N       1.005768      0.591655     12.257090
  C       0.537887     -0.006504     10.884750
  H       1.354477      0.227280     10.171911
  H      -0.389077      0.554649     10.627238
  C       2.203114     -0.160176     12.875946
  H       1.878803     -1.180921     13.148872
  H       2.995676     -0.232694     12.098035
  H       2.519432      0.416270     13.771170
  C      -0.147056      0.593874     13.246893
  H      -0.474380     -0.449678     13.423333
  H       0.196199      1.040403     14.203092
  H      -0.989209      1.188145     12.834356
  C       1.450000      2.025462     11.980716
  H       2.322252      1.990517     11.297263
  H       1.733012      2.509331     12.938868
  H       0.615079      2.582106     11.507300
  C       0.263819     -1.531250     10.842937
  H      -0.514338     -1.821044     11.594309
  H      -0.190918     -1.696668      9.830595
  P       2.798838     -2.217978     10.027671
  O       3.689608     -3.399025     10.324496
  O       3.276414     -0.742132     10.111113
  O       1.395542     -2.359137     11.054104
  O       1.937249     -2.396463      8.565125
  C       2.728499     -2.495689      7.360676
  H       2.108634     -3.030685      6.605761
  H       3.644846     -3.107971      7.536791
  C       3.143838     -1.098386      6.832355
  H       3.527916     -0.500901      7.690429
  O       1.901700     -0.466318      6.328600
  C       1.875160      0.889288      6.168463
  O       2.815082      1.639366      6.408328
  C       0.482759      1.352738      5.687826
  H      -0.146207      1.461571      6.606590
  H       0.008845      0.534192      5.101163
  C       4.245554     -1.086710      5.739108
  H       5.046810     -1.810163      6.011712
  H       4.673660     -0.066834      5.657328
  O       3.731372     -1.371471      4.397818
  C       3.661344     -2.682071      3.982624
  O       4.021265     -3.636796      4.656925
  C       3.083788     -2.761829      2.561379
  H       3.822712     -2.298207      1.862315
  H       3.015807     -3.840394      2.305661
  C       0.533010      2.689644      4.903633
  H       1.184558      3.395027      5.467494
  H      -0.487922      3.141033      4.884303
  C       1.057756      2.556133      3.443367
  H       1.991267      1.942301      3.436376
  H       1.360445      3.567750      3.079390
  C       0.024078      1.963304      2.449003
  H      -0.901719      2.590881      2.475219
  H      -0.291770      0.944931      2.783940
  C       0.531493      1.874141      0.985864
  H       1.410038      1.184057      0.940861
  H       0.918671      2.873004      0.668230
  C      -0.554699      1.390684     -0.009964
  H      -1.429289      2.086604      0.027769
  H      -0.943171      0.400541      0.328959
  C      -0.074405      1.262629     -1.482781
  H      -0.839587      0.690331     -2.061568
  H       0.844018      0.623723     -1.511330
  C       0.191861      2.604561     -2.168915
  H       0.063908      3.508447     -1.538957
  C       0.556555      2.790730     -3.461886
  H       0.703811      3.831834     -3.813120
  C       0.776505      1.700775     -4.498388
  H       0.715930      0.696937     -4.021505
  H       1.815368      1.786786     -4.908141
  C      -0.223254      1.744802     -5.697877
  H      -1.263900      1.681257     -5.299812
  H      -0.072228      0.826077     -6.313570
  C      -0.075788      2.979546     -6.626848
  H       1.007306      3.124090     -6.862572
  H      -0.391961      3.905623     -6.091230
  C      -0.853849      2.849939     -7.967888
  H      -0.467258      1.959106     -8.521080
  H      -0.611436      3.728336     -8.612410
  C      -2.398034      2.708942     -7.839304
  H      -2.640540      1.753296     -7.317149
  H      -2.826085      2.601142     -8.866062
  C      -3.125189      3.875800     -7.115040
  H      -2.758980      3.962951     -6.062770
  H      -4.209653      3.618166     -7.031978
  C      -2.993824      5.254257     -7.815795
  H      -3.328692      5.158576     -8.878929
  H      -1.920036      5.556720     -7.861827
  C      -3.805094      6.371744     -7.114400
  H      -3.694833      7.350511     -7.635669
  H      -3.470021      6.513559     -6.059652
  H      -4.893151      6.126722     -7.085207
  C       1.711060     -2.044928      2.392958
  H       1.822927     -0.981389      2.701754
  H       0.968994     -2.496382      3.095948
  C       1.158511     -2.099608      0.943564
  H       1.918008     -1.664351      0.246483
  H       0.269973     -1.428551      0.875156
  C       0.749347     -3.508582      0.439160
  H      -0.026979     -3.931353      1.124545
  H       1.617939     -4.207732      0.496714
  C       0.207281     -3.492562     -1.012221
  H      -0.659205     -2.791936     -1.078222
  H       0.991974     -3.069391     -1.687688
  C      -0.216000     -4.886712     -1.538819
  H       0.651321     -5.587085     -1.466039
  H      -1.010025     -5.310276     -0.875399
  C      -0.728302     -4.870686     -3.014609
  H      -0.863880     -5.927486     -3.350344
  H       0.061738     -4.437564     -3.670607
  C      -2.049620     -4.136601     -3.191552
  H      -2.940977     -4.679767     -2.813866
  C      -2.240911     -2.904112     -3.725063
  H      -3.281955     -2.527001     -3.781589
  C      -1.165976     -1.981234     -4.286603
  H      -0.190121     -2.169643     -3.786095
  H      -1.436705     -0.925473     -4.043248
  C      -0.962255     -2.092693     -5.830296
  H      -0.651156     -3.135709     -6.082213
  H      -0.104742     -1.438530     -6.118762
  C      -2.202112     -1.706571     -6.675066
  H      -3.032711     -2.425763     -6.474065
  H      -2.578698     -0.705623     -6.347024
  C      -1.911467     -1.659213     -8.196770
  H      -1.100362     -0.914619     -8.383382
  H      -1.498673     -2.645957     -8.524806
  C      -3.155887     -1.316631     -9.057901
  H      -3.575443     -0.333639     -8.728894
  H      -3.952011     -2.071730     -8.847705
  C      -2.891285     -1.272721    -10.588777
  H      -2.420003     -2.235916    -10.908716
  H      -3.869723     -1.222351    -11.126435
  C      -2.007280     -0.088101    -11.063544
  H      -2.490454      0.872420    -10.757286
  H      -1.022681     -0.112168    -10.538849
  C      -1.768223     -0.081892    -12.593426
  H      -1.137467      0.781369    -12.907990
  H      -1.251940     -1.013351    -12.926062
  H      -2.729630     -0.018905    -13.156174
138
Coordinates from ORCA-job /wrk/rja7/qm_final_3_replicates/qm_final_1.1/qm/10/freq E -2722.575479783730
  N       1.037440      0.618028     12.219033
  C       0.548352      0.031389     10.849498
  H       1.370311      0.236354     10.134420
  H      -0.360577      0.620734     10.590856
  C       2.203161     -0.177774     12.842765
  H       1.838306     -1.184421     13.117454
  H       2.993779     -0.283323     12.066671
  H       2.539625      0.388071     13.737321
  C      -0.115796      0.668904     13.207099
  H      -0.485420     -0.360296     13.384435
  H       0.243356      1.102535     14.163336
  H      -0.932553      1.296134     12.792363
  C       1.538237      2.031959     11.936746
  H       2.411332      1.958945     11.257429
  H       1.836113      2.509704     12.893417
  H       0.727883      2.618022     11.456338
  C       0.227512     -1.484114     10.816253
  H      -0.558471     -1.743754     11.570467
  H      -0.233640     -1.641849      9.805595
  P       2.741258     -2.263792     10.009845
  O       3.583768     -3.478564     10.310667
  O       3.277524     -0.808137     10.089219
  O       1.332918     -2.345541     11.034337
  O       1.878260     -2.411565      8.544205
  C       2.672101     -2.520272      7.341717
  H       2.044545     -3.039153      6.581865
  H       3.575573     -3.151403      7.517866
  C       3.116210     -1.128247      6.822433
  H       3.509095     -0.543674      7.685272
  O       1.887768     -0.469466      6.318495
  C       1.878694      0.889864      6.190903
  O       2.825306      1.622775      6.456464
  C       0.495779      1.382526      5.712056
  H      -0.128679      1.504840      6.632270
  H       0.003164      0.575942      5.124575
  C       4.221613     -1.128266      5.733202
  H       5.014317     -1.859934      6.009214
  H       4.661773     -0.113114      5.654763
  O       3.712048     -1.406099      4.388960
  C       3.625904     -2.716189      3.974793
  O       3.970938     -3.674602      4.651566
  C       3.049787     -2.789880      2.552678
  H       3.791628     -2.328792      1.855143
  H       2.974734     -3.867371      2.294524
  C       0.572990      2.720685      4.931544
  H       1.237342      3.411716      5.498261
  H      -0.439048      3.191704      4.912904
  C       1.095980      2.581673      3.471212
  H       2.019968      1.953478      3.463127
  H       1.414476      3.589088      3.109027
  C       0.054936      2.004626      2.475074
  H      -0.863716      2.642499      2.503310
  H      -0.272615      0.989247      2.807512
  C       0.561365      1.913102      1.011774
  H       1.436773      1.219150      0.966696
  H       0.952876      2.910207      0.693930
  C      -0.526726      1.433147      0.016332
  H      -1.399827      2.130840      0.055558
  H      -0.916887      0.443403      0.354489
  C      -0.047364      1.305961     -1.456859
  H      -0.812260      0.732267     -2.034572
  H       0.872424      0.668881     -1.486487
  C       0.213933      2.648431     -2.144361
  H       0.073833      3.552978     -1.517977
  C       0.583133      2.833598     -3.436315
  H       0.720611      3.874719     -3.791463
  C       0.818531      1.741212     -4.466870
  H       0.785890      0.740231     -3.981461
  H       1.851217      1.848064     -4.887027
  C      -0.193591      1.751109     -5.656473
  H      -1.228553      1.669663     -5.247026
  H      -0.029214      0.829015     -6.263738
  C      -0.082928      2.977834     -6.601053
  H       0.993780      3.139605     -6.854300
  H      -0.408347      3.904063     -6.071372
  C      -0.877811      2.817604     -7.929255
  H      -0.478133      1.931434     -8.480532
  H      -0.666837      3.695432     -8.585510
  C      -2.416385      2.640634     -7.776919
  H      -2.628358      1.681033     -7.249044
  H      -2.856400      2.519204     -8.797153
  C      -3.161218      3.792245     -7.045939
  H      -2.784731      3.890188     -5.998344
  H      -4.238344      3.509704     -6.949480
  C      -3.070985      5.171792     -7.751091
  H      -3.417015      5.065484     -8.809693
  H      -2.005239      5.499130     -7.811220
  C      -3.899146      6.271776     -7.042014
  H      -3.819403      7.251201     -7.567586
  H      -3.553337      6.425029     -5.992332
  H      -4.980484      6.000728     -6.997426
  C       1.681377     -2.064164      2.385227
  H       1.799681     -1.003053      2.699549
  H       0.935355     -2.514149      3.084924
  C       1.131406     -2.108311      0.934391
  H       1.893899     -1.671111      0.241806
  H       0.245258     -1.433944      0.867639
  C       0.720050     -3.513166      0.420380
  H      -0.059737     -3.937796      1.100664
  H       1.586899     -4.214558      0.476889
  C       0.183332     -3.488080     -1.032900
  H      -0.682531     -2.786770     -1.098418
  H       0.970957     -3.061055     -1.702472
  C      -0.237338     -4.879092     -1.569653
  H       0.630238     -5.579132     -1.496953
  H      -1.034050     -5.307147     -0.912358
  C      -0.742151     -4.855777     -3.048184
  H      -0.871122     -5.911111     -3.391010
  H       0.049493     -4.415291     -3.697283
  C      -2.066169     -4.127040     -3.228348
  H      -2.956998     -4.678350     -2.861448
  C      -2.261054     -2.891307     -3.753166
  H      -3.304044     -2.520522     -3.814685
  C      -1.188016     -1.956722     -4.298980
  H      -0.217827     -2.134026     -3.783575
  H      -1.473446     -0.903600     -4.061192
  C      -0.959693     -2.068721     -5.839219
  H      -0.627715     -3.107092     -6.083342
  H      -0.108738     -1.401480     -6.117191
  C      -2.193114     -1.706336     -6.703845
  H      -3.011818     -2.442796     -6.517164
  H      -2.595822     -0.713871     -6.381109
  C      -1.877896     -1.650752     -8.220423
  H      -1.085460     -0.883033     -8.393267
  H      -1.430942     -2.625218     -8.540294
  C      -3.116361     -1.345645     -9.103774
  H      -3.574396     -0.378227     -8.779926
  H      -3.890950     -2.127327     -8.911012
  C      -2.823792     -1.287188    -10.629013
  H      -2.312198     -2.231824    -10.942315
  H      -3.792387     -1.269712    -11.186148
  C      -1.973046     -0.070142    -11.082077
  H      -2.497942      0.871305    -10.785343
  H      -1.000746     -0.059648    -10.534626
  C      -1.699484     -0.051441    -12.605963
  H      -1.095161      0.835982    -12.904780
  H      -1.140459     -0.961763    -12.927851
  H      -2.649475     -0.023740    -13.190550
138
Coordinates from ORCA-job /wrk/rja7/qm_final_3_replicates/qm_final_1.1/qm/10/freq E -2722.575570384842
  N       1.123135      0.658965     12.199813
  C       0.601760      0.062357     10.845924
  H       1.414789      0.243543     10.114060
  H      -0.299735      0.666229     10.595455
  C       2.281831     -0.148979     12.822331
  H       1.903493     -1.145818     13.114434
  H       3.063200     -0.276722     12.040048
  H       2.636427      0.423011     13.705875
  C      -0.016203      0.747172     13.201293
  H      -0.404739     -0.271582     13.397588
  H       0.364293      1.186777     14.146468
  H      -0.824787      1.385442     12.787299
  C       1.647131      2.058869     11.889583
  H       2.510629      1.959124     11.201412
  H       1.964182      2.545090     12.835902
  H       0.841450      2.652274     11.410213
  C       0.250000     -1.446872     10.834791
  H      -0.530529     -1.682383     11.602665
  H      -0.227718     -1.605774      9.831936
  P       2.735689     -2.286168     10.003483
  O       3.552004     -3.521029     10.295012
  O       3.307072     -0.843280     10.071298
  O       1.339118     -2.329782     11.045734
  O       1.847426     -2.414180      8.550197
  C       2.622068     -2.529278      7.336458
  H       1.980261     -3.043335      6.585651
  H       3.524495     -3.165770      7.498217
  C       3.064427     -1.137099      6.818493
  H       3.455422     -0.552774      7.682434
  O       1.833826     -0.480336      6.317088
  C       1.814259      0.881126      6.212258
  O       2.756623      1.616959      6.484745
  C       0.430703      1.370226      5.731466
  H      -0.190014      1.503855      6.652503
  H      -0.065196      0.559591      5.152521
  C       4.171735     -1.127846      5.731843
  H       4.971266     -1.851012      6.010929
  H       4.602119     -0.107971      5.655858
  O       3.673031     -1.407937      4.384611
  C       3.589007     -2.719269      3.972346
  O       3.924385     -3.676642      4.655207
  C       3.021480     -2.794661      2.547227
  H       3.769358     -2.338371      1.853024
  H       2.943988     -3.872665      2.291494
  C       0.507344      2.702347      4.940136
  H       1.169786      3.398006      5.503421
  H      -0.505212      3.172097      4.916447
  C       1.032556      2.554188      3.481832
  H       1.958831      1.929164      3.478386
  H       1.348776      3.560215      3.113868
  C      -0.005728      1.968280      2.487995
  H      -0.927381      2.601886      2.514419
  H      -0.328181      0.951530      2.821678
  C       0.502880      1.878679      1.025629
  H       1.383997      1.191933      0.981528
  H       0.887304      2.878676      0.708070
  C      -0.579398      1.391058      0.027511
  H      -1.458341      2.081501      0.065524
  H      -0.961988      0.397469      0.362454
  C      -0.094263      1.273634     -1.444324
  H      -0.851991      0.696232     -2.028637
  H       0.831124      0.644412     -1.473852
  C       0.159270      2.623494     -2.120740
  H      -0.003475      3.521967     -1.491059
  C       0.552336      2.824241     -3.403395
  H       0.681861      3.870497     -3.746102
  C       0.826021      1.745486     -4.439403
  H       0.810650      0.739097     -3.963639
  H       1.861207      1.880351     -4.844750
  C      -0.170097      1.745845     -5.642859
  H      -1.207962      1.635774     -5.248133
  H       0.023327      0.835680     -6.259479
  C      -0.075978      2.988930     -6.568618
  H       1.000291      3.177094     -6.805034
  H      -0.427059      3.900080     -6.029143
  C      -0.849249      2.835091     -7.911011
  H      -0.421842      1.969307     -8.473801
  H      -0.649081      3.729728     -8.547536
  C      -2.386131      2.621930     -7.787262
  H      -2.585834      1.642651     -7.292005
  H      -2.808284      2.521545     -8.817087
  C      -3.166381      3.735065     -7.033283
  H      -2.809384      3.806759     -5.976679
  H      -4.239034      3.428520     -6.963662
  C      -3.092828      5.138852     -7.692226
  H      -3.418913      5.060499     -8.759677
  H      -2.033217      5.489035     -7.722894
  C      -3.955729      6.198268     -6.963003
  H      -3.887446      7.195726     -7.455316
  H      -3.631215      6.324601     -5.902958
  H      -5.032028      5.904808     -6.946378
  C       1.657644     -2.062804      2.370834
  H       1.781092     -1.000816      2.680143
  H       0.906730     -2.505336      3.070063
  C       1.113598     -2.111422      0.918419
  H       1.881862     -1.684311      0.226021
  H       0.232761     -1.431199      0.844467
  C       0.692504     -3.515913      0.412071
  H      -0.094349     -3.929837      1.090748
  H       1.552942     -4.224536      0.477523
  C       0.163999     -3.493793     -1.044064
  H      -0.689366     -2.778010     -1.120808
  H       0.963190     -3.087124     -1.712681
  C      -0.278599     -4.881646     -1.571721
  H       0.575201     -5.597405     -1.489452
  H      -1.086397     -5.289173     -0.914844
  C      -0.776827     -4.859420     -3.052281
  H      -0.930769     -5.914029     -3.386914
  H       0.027689     -4.443995     -3.701870
  C      -2.080669     -4.097148     -3.240945
  H      -2.986769     -4.619083     -2.868539
  C      -2.239594     -2.860566     -3.776004
  H      -3.271082     -2.459386     -3.840365
  C      -1.139011     -1.964924     -4.332398
  H      -0.172586     -2.170450     -3.820226
  H      -1.388613     -0.901335     -4.101089
  C      -0.924214     -2.094224     -5.873104
  H      -0.632554     -3.145539     -6.113082
  H      -0.051063     -1.460319     -6.160927
  C      -2.150141     -1.691090     -6.730467
  H      -2.992395     -2.399230     -6.539120
  H      -2.517409     -0.686068     -6.404480
  C      -1.842329     -1.643512     -8.248792
  H      -1.022273     -0.905522     -8.422252
  H      -1.435276     -2.632721     -8.576414
  C      -3.073618     -1.284733     -9.122289
  H      -3.490263     -0.302026     -8.789381
  H      -3.877648     -2.035842     -8.928458
  C      -2.790449     -1.229929    -10.649480
  H      -2.326705     -2.195738    -10.972730
  H      -3.761374     -1.163163    -11.198824
  C      -1.885148     -0.052319    -11.101419
  H      -2.358226      0.911149    -10.788822
  H      -0.907087     -0.096215    -10.565875
  C      -1.629054     -0.031104    -12.628342
  H      -0.986083      0.829228    -12.925818
  H      -1.119019     -0.963822    -12.967066
  H      -2.583324      0.049096    -13.201093
138
Coordinates from ORCA-job /wrk/rja7/qm_final_3_replicates/qm_final_1.1/qm/10/freq E -2722.575744666869
  N       1.100298      0.662780     12.162165
  C       0.581668      0.031777     10.822588
  H       1.380488      0.226956     10.078810
  H      -0.338890      0.607237     10.574720
  C       2.285804     -0.103038     12.787944
  H       1.938494     -1.105714     13.097745
  H       3.064825     -0.219531     12.001371
  H       2.629791      0.491950     13.660431
  C      -0.032873      0.737392     13.171537
  H      -0.394118     -0.287832     13.385507
  H       0.343666      1.200339     14.107141
  H      -0.860263      1.349305     12.754848
  C       1.584408      2.070648     11.824498
  H       2.444383      1.981813     11.130343
  H       1.896121      2.580749     12.759960
  H       0.759252      2.634518     11.342505
  C       0.270278     -1.486651     10.833896
  H      -0.493069     -1.734263     11.615194
  H      -0.216469     -1.669313      9.839553
  P       2.768292     -2.259586      9.981450
  O       3.620349     -3.472020     10.263886
  O       3.299904     -0.801353     10.042524
  O       1.384665     -2.338835     11.037845
  O       1.867691     -2.409869      8.537203
  C       2.632114     -2.521106      7.316644
  H       1.986877     -3.039755      6.572153
  H       3.539768     -3.152056      7.470356
  C       3.061762     -1.125923      6.796998
  H       3.452442     -0.539381      7.659497
  O       1.824666     -0.477034      6.300699
  C       1.784649      0.885863      6.228773
  O       2.712048      1.629714      6.529620
  C       0.398804      1.366278      5.746213
  H      -0.225695      1.491132      6.665937
  H      -0.088965      0.556494      5.159541
  C       4.164267     -1.104702      5.706067
  H       4.976190     -1.814135      5.985010
  H       4.578853     -0.078500      5.625809
  O       3.666677     -1.394175      4.360335
  C       3.596044     -2.706639      3.948812
  O       3.948466     -3.660038      4.628623
  C       3.023615     -2.787021      2.526075
  H       3.760747     -2.316824      1.829680
  H       2.960774     -3.865167      2.266984
  C       0.469161      2.704830      4.964776
  H       1.119460      3.402948      5.539099
  H      -0.547513      3.165268      4.934990
  C       1.009518      2.570574      3.510995
  H       1.942756      1.955817      3.512008
  H       1.318389      3.581961      3.151505
  C      -0.012957      1.978082      2.505074
  H      -0.941698      2.601465      2.525428
  H      -0.327282      0.956499      2.831737
  C       0.510358      1.898554      1.047576
  H       1.401440      1.224466      1.010230
  H       0.883647      2.904346      0.735006
  C      -0.556187      1.397148      0.039758
  H      -1.443917      2.076744      0.068603
  H      -0.929839      0.399276      0.371987
  C      -0.055371      1.284015     -1.426945
  H      -0.799718      0.696169     -2.018210
  H       0.878547      0.666992     -1.446866
  C       0.187743      2.636341     -2.101721
  H      -0.001724      3.533418     -1.477529
  C       0.602271      2.840351     -3.376827
  H       0.723538      3.887667     -3.719234
  C       0.908034      1.763260     -4.405542
  H       0.908878      0.758228     -3.925933
  H       1.943640      1.918024     -4.802350
  C      -0.078103      1.740099     -5.616853
  H      -1.116594      1.612517     -5.229259
  H       0.136579      0.831241     -6.228294
  C      -0.000260      2.982466     -6.545268
  H       1.073729      3.186385     -6.779125
  H      -0.366030      3.889154     -6.007882
  C      -0.768909      2.817408     -7.888728
  H      -0.328766      1.958474     -8.452410
  H      -0.581168      3.715546     -8.524129
  C      -2.302794      2.583241     -7.766813
  H      -2.489806      1.597243     -7.280328
  H      -2.723761      2.486351     -8.797468
  C      -3.096659      3.679247     -7.002381
  H      -2.741808      3.743508     -5.944549
  H      -4.165887      3.359834     -6.937602
  C      -3.037965      5.090857     -7.645931
  H      -3.361290      5.020113     -8.714695
  H      -1.982260      5.453159     -7.670748
  C      -3.914167      6.132500     -6.907122
  H      -3.856621      7.135801     -7.388863
  H      -3.592916      6.251638     -5.845245
  H      -4.987039      5.826572     -6.895531
  C       1.648597     -2.073923      2.360083
  H       1.758811     -1.012961      2.677524
  H       0.906673     -2.532230      3.058729
  C       1.099645     -2.117285      0.909348
  H       1.860939     -1.677259      0.217313
  H       0.212131     -1.445032      0.844359
  C       0.688417     -3.521059      0.393643
  H      -0.093815     -3.946266      1.070756
  H       1.554399     -4.223570      0.451516
  C       0.156478     -3.491117     -1.061082
  H      -0.698873     -2.777191     -1.131267
  H       0.952875     -3.078214     -1.729227
  C      -0.284784     -4.876521     -1.596351
  H       0.571010     -5.590807     -1.522521
  H      -1.089073     -5.290248     -0.938999
  C      -0.790329     -4.845550     -3.074354
  H      -0.941982     -5.898358     -3.415595
  H       0.009701     -4.422832     -3.724822
  C      -2.098006     -4.086598     -3.250717
  H      -3.000037     -4.614086     -2.876287
  C      -2.264792     -2.847213     -3.776823
  H      -3.298263     -2.449940     -3.833067
  C      -1.171392     -1.943729     -4.334498
  H      -0.202919     -2.141730     -3.823141
  H      -1.428219     -0.881560     -4.104310
  C      -0.958243     -2.074722     -5.875255
  H      -0.654295     -3.123138     -6.112490
  H      -0.093559     -1.431374     -6.167551
  C      -2.191618     -1.690847     -6.730915
  H      -3.020266     -2.415410     -6.541650
  H      -2.577657     -0.694073     -6.401271
  C      -1.884280     -1.632477     -8.248913
  H      -1.086389     -0.870151     -8.420469
  H      -1.447069     -2.608636     -8.576840
  C      -3.124694     -1.311330     -9.124060
  H      -3.573152     -0.342844     -8.790783
  H      -3.905064     -2.087656     -8.932645
  C      -2.840555     -1.245963    -10.650569
  H      -2.347541     -2.197001    -10.974376
  H      -3.812018     -1.207546    -11.201669
  C      -1.970098     -0.041079    -11.099037
  H      -2.472331      0.907353    -10.785690
  H      -0.992283     -0.056596    -10.561548
  C      -1.711968     -0.009844    -12.625372
  H      -1.095682      0.870551    -12.920632
  H      -1.172666     -0.925773    -12.964583
  H      -2.667244      0.041555    -13.199775
138
Coordinates from ORCA-job /wrk/rja7/qm_final_3_replicates/qm_final_1.1/qm/10/freq E -2722.575843028225
  N       1.043774      0.641473     12.132223
  C       0.552601      0.014732     10.780429
  H       1.368281      0.209214     10.055446
  H      -0.360746      0.592769     10.512769
  C       2.203972     -0.137476     12.787515
  H       1.837170     -1.135794     13.088640
  H       3.000618     -0.263447     12.020401
  H       2.532573      0.453528     13.668626
  C      -0.113810      0.728943     13.112333
  H      -0.492443     -0.292254     13.315041
  H       0.243219      1.186229     14.058373
  H      -0.922895      1.351192     12.675551
  C       1.552607      2.043094     11.805376
  H       2.427654      1.942613     11.131993
  H       1.848145      2.550644     12.747380
  H       0.746403      2.616333     11.302859
  C       0.238375     -1.502848     10.784505
  H      -0.537904     -1.750329     11.552984
  H      -0.232098     -1.683868      9.782166
  P       2.750348     -2.271381      9.973955
  O       3.595311     -3.487050     10.262369
  O       3.282881     -0.814498     10.053898
  O       1.349041     -2.355928     11.005337
  O       1.875139     -2.410766      8.512531
  C       2.659060     -2.512815      7.302911
  H       2.025404     -3.028993      6.546441
  H       3.565231     -3.143376      7.466712
  C       3.093166     -1.114876      6.792955
  H       3.479190     -0.531433      7.659339
  O       1.861072     -0.462226      6.288059
  C       1.820816      0.901300      6.235570
  O       2.743884      1.640997      6.559443
  C       0.438674      1.391110      5.751745
  H      -0.182359      1.530737      6.671790
  H      -0.058611      0.582792      5.171383
  C       4.199509     -1.089330      5.707546
  H       5.010983     -1.798815      5.987714
  H       4.613847     -0.062519      5.631503
  O       3.705237     -1.377796      4.360485
  C       3.629864     -2.690873      3.952205
  O       3.978229     -3.643555      4.635131
  C       3.055592     -2.773284      2.530234
  H       3.791625     -2.304329      1.831857
  H       2.991401     -3.851675      2.272542
  C       0.522349      2.723920      4.961059
  H       1.183888      3.417325      5.528346
  H      -0.488792      3.196524      4.933476
  C       1.052046      2.575449      3.504647
  H       1.977210      1.948630      3.501904
  H       1.371371      3.581208      3.138459
  C       0.015088      1.992991      2.507517
  H      -0.904833      2.629094      2.532308
  H      -0.310602      0.976925      2.840292
  C       0.525731      1.901957      1.045929
  H       1.404463      1.212118      1.002456
  H       0.913984      2.900537      0.728567
  C      -0.558263      1.418973      0.047842
  H      -1.432739      2.115165      0.083413
  H      -0.947524      0.428896      0.385311
  C      -0.073291      1.294196     -1.423405
  H      -0.833984      0.719812     -2.006367
  H       0.848538      0.659910     -1.451091
  C       0.188314      2.640001     -2.104135
  H       0.005572      3.542433     -1.485654
  C       0.613588      2.832115     -3.377629
  H       0.749992      3.875987     -3.724747
  C       0.911160      1.745856     -4.399127
  H       0.903259      0.743987     -3.912983
  H       1.948109      1.890240     -4.796068
  C      -0.073463      1.722228     -5.611940
  H      -1.113192      1.601431     -5.225439
  H       0.138074      0.809161     -6.218295
  C       0.011866      2.960527     -6.544716
  H       1.086741      3.156313     -6.781589
  H      -0.346058      3.871061     -6.008506
  C      -0.760916      2.798096     -7.885353
  H      -0.324366      1.938945     -8.451597
  H      -0.573591      3.696956     -8.519993
  C      -2.294592      2.565880     -7.759019
  H      -2.481899      1.577678     -7.277339
  H      -2.719261      2.475469     -8.788912
  C      -3.083601      3.658917     -6.986092
  H      -2.727330      3.713658     -5.928310
  H      -4.153953      3.342883     -6.922933
  C      -3.019483      5.074726     -7.619072
  H      -3.343826      5.012954     -8.688067
  H      -1.962132      5.432383     -7.641872
  C      -3.890882      6.114400     -6.872102
  H      -3.830314      7.120650     -7.347266
  H      -3.568035      6.225414     -5.809839
  H      -4.964689      5.811811     -6.861278
  C       1.680204     -2.059984      2.366116
  H       1.790242     -0.999201      2.684645
  H       0.939060     -2.518981      3.065133
  C       1.129255     -2.102647      0.916165
  H       1.890100     -1.663635      0.222936
  H       0.242598     -1.428875      0.852801
  C       0.715122     -3.505789      0.400603
  H      -0.067393     -3.929007      1.078603
  H       1.579470     -4.210422      0.457615
  C       0.180817     -3.474413     -1.053216
  H      -0.670102     -2.755477     -1.121855
  H       0.978250     -3.066696     -1.723232
  C      -0.271097     -4.856622     -1.587626
  H       0.580080     -5.576721     -1.517435
  H      -1.075842     -5.265747     -0.927915
  C      -0.782235     -4.820154     -3.063789
  H      -0.945178     -5.871382     -3.404745
  H       0.019078     -4.404659     -3.717490
  C      -2.083950     -4.049601     -3.233720
  H      -2.987854     -4.567695     -2.850814
  C      -2.243737     -2.810669     -3.762772
  H      -3.274115     -2.404518     -3.811927
  C      -1.148140     -1.919638     -4.335894
  H      -0.176802     -2.122333     -3.831810
  H      -1.394555     -0.854020     -4.111019
  C      -0.950519     -2.062071     -5.877610
  H      -0.649914     -3.112472     -6.110285
  H      -0.088875     -1.421726     -6.184435
  C      -2.193186     -1.684074     -6.722176
  H      -3.018034     -2.409590     -6.520420
  H      -2.578146     -0.686722     -6.392985
  C      -1.902042     -1.631611     -8.243412
  H      -1.114141     -0.862022     -8.427927
  H      -1.457294     -2.604995     -8.569463
  C      -3.154627     -1.330046     -9.107797
  H      -3.612347     -0.365809     -8.774566
  H      -3.923215     -2.115331     -8.905310
  C      -2.885760     -1.266826    -10.636885
  H      -2.383030     -2.212250    -10.962157
  H      -3.862870     -1.243371    -11.178734
  C      -2.036671     -0.051385    -11.097524
  H      -2.549331      0.891236    -10.782599
  H      -1.053966     -0.051414    -10.569005
  C      -1.792982     -0.022213    -12.626157
  H      -1.191602      0.865433    -12.930286
  H      -1.244326     -0.932008    -12.966858
  H      -2.754160      0.014199    -13.191823
138
Coordinates from ORCA-job /wrk/rja7/qm_final_3_replicates/qm_final_1.1/qm/10/freq E -2722.575947216396
  N       1.040431      0.649718     12.091422
  C       0.543282      0.020215     10.742935
  H       1.356684      0.211546     10.014968
  H      -0.369790      0.599267     10.476299
  C       2.193867     -0.136174     12.750092
  H       1.820089     -1.131422     13.052951
  H       2.990072     -0.268202     11.983813
  H       2.525550      0.453707     13.630925
  C      -0.116597      0.752787     13.070585
  H      -0.505330     -0.263945     13.277120
  H       0.243797      1.210668     14.015128
  H      -0.918910      1.381307     12.630420
  C       1.562399      2.044662     11.756244
  H       2.435083      1.931212     11.081619
  H       1.865121      2.554296     12.694804
  H       0.761358      2.622769     11.251006
  C       0.225456     -1.496427     10.754433
  H      -0.550053     -1.736900     11.525926
  H      -0.248136     -1.681798      9.754394
  P       2.736770     -2.281710      9.951931
  O       3.567846     -3.507453     10.238238
  O       3.285208     -0.830734     10.036391
  O       1.332913     -2.353513     10.979810
  O       1.863947     -2.407663      8.487070
  C       2.650460     -2.505154      7.278670
  H       2.017718     -3.017699      6.518970
  H       3.555742     -3.137013      7.441694
  C       3.085880     -1.105541      6.774095
  H       3.470761     -0.524704      7.642569
  O       1.854426     -0.451184      6.268360
  C       1.802764      0.912706      6.247299
  O       2.716177      1.652818      6.596857
  C       0.422342      1.403553      5.759364
  H      -0.198708      1.549950      6.678362
  H      -0.076768      0.595745      5.180197
  C       4.193084     -1.073502      5.689983
  H       5.010055     -1.775944      5.972391
  H       4.600567     -0.043706      5.614498
  O       3.704574     -1.365307      4.341599
  C       3.634683     -2.678983      3.933923
  O       3.988036     -3.629774      4.616919
  C       3.059607     -2.764128      2.512466
  H       3.792379     -2.291946      1.812889
  H       2.999095     -3.842742      2.254798
  C       0.511345      2.734718      4.965627
  H       1.171286      3.428363      5.534559
  H      -0.498921      3.208915      4.932932
  C       1.046133      2.582244      3.511536
  H       1.972192      1.956608      3.513160
  H       1.365130      3.587282      3.143002
  C       0.013352      1.994827      2.512620
  H      -0.909150      2.627284      2.535078
  H      -0.309263      0.978002      2.845902
  C       0.527059      1.904207      1.051881
  H       1.408019      1.217097      1.010380
  H       0.912471      2.903946      0.734658
  C      -0.553926      1.417747      0.051962
  H      -1.431312      2.110213      0.088920
  H      -0.939193      0.425132      0.386837
  C      -0.067543      1.300147     -1.419572
  H      -0.825881      0.725406     -2.005632
  H       0.856761      0.669760     -1.449326
  C       0.189555      2.650069     -2.093831
  H      -0.020196      3.548990     -1.478752
  C       0.636727      2.850015     -3.358626
  H       0.765685      3.896275     -3.701331
  C       0.968397      1.769943     -4.376338
  H       0.977827      0.768128     -3.889949
  H       2.005563      1.937643     -4.763375
  C      -0.003143      1.724885     -5.599478
  H      -1.042972      1.573877     -5.224101
  H       0.239790      0.820536     -6.207367
  C       0.057289      2.971010     -6.523752
  H       1.128102      3.193276     -6.755832
  H      -0.322473      3.868768     -5.981041
  C      -0.708849      2.803565     -7.866980
  H      -0.248809      1.963639     -8.443519
  H      -0.544725      3.715268     -8.489745
  C      -2.236200      2.529501     -7.746521
  H      -2.398551      1.528127     -7.283564
  H      -2.657764      2.447545     -8.778261
  C      -3.053940      3.587110     -6.954329
  H      -2.703237      3.627110     -5.894139
  H      -4.116728      3.244444     -6.903186
  C      -3.020156      5.017275     -7.556716
  H      -3.336625      4.970570     -8.628909
  H      -1.971407      5.400018     -7.565036
  C      -3.920881      6.019676     -6.793633
  H      -3.882681      7.036563     -7.247972
  H      -3.606643      6.116844     -5.727432
  H      -4.986812      5.690252     -6.795187
  C       1.681048     -2.056137      2.350508
  H       1.787771     -0.994611      2.667328
  H       0.943244     -2.517061      3.051793
  C       1.126236     -2.103765      0.902134
  H       1.885146     -1.667320      0.205145
  H       0.239263     -1.430218      0.838771
  C       0.709647     -3.508830      0.393668
  H      -0.073527     -3.926245      1.074486
  H       1.572331     -4.215230      0.454155
  C       0.174070     -3.483390     -1.059749
  H      -0.667763     -2.754342     -1.133375
  H       0.975092     -3.089931     -1.734018
  C      -0.296452     -4.863510     -1.583363
  H       0.545620     -5.593994     -1.510421
  H      -1.104773     -5.258142     -0.919175
  C      -0.811000     -4.829437     -3.058422
  H      -0.987593     -5.880312     -3.393753
  H      -0.006393     -4.427115     -3.716299
  C      -2.103832     -4.043780     -3.227939
  H      -3.012586     -4.548793     -2.839043
  C      -2.249360     -2.803645     -3.758180
  H      -3.274360     -2.383608     -3.803399
  C      -1.144130     -1.927501     -4.335426
  H      -0.173580     -2.144100     -3.835432
  H      -1.374950     -0.858729     -4.109861
  C      -0.956056     -2.072913     -5.878095
  H      -0.669704     -3.126847     -6.112711
  H      -0.088020     -1.443536     -6.189658
  C      -2.198260     -1.678759     -6.716251
  H      -3.028752     -2.398047     -6.515420
  H      -2.573528     -0.680175     -6.379759
  C      -1.912648     -1.620579     -8.238386
  H      -1.121768     -0.853826     -8.422084
  H      -1.474150     -2.594725     -8.570534
  C      -3.167402     -1.308621     -9.096125
  H      -3.618235     -0.343156     -8.756939
  H      -3.938912     -2.090850     -8.892988
  C      -2.905883     -1.241667    -10.626380
  H      -2.412069     -2.189561    -10.958050
  H      -3.885847     -1.208960    -11.162601
  C      -2.050958     -0.030618    -11.087961
  H      -2.554031      0.914404    -10.765227
  H      -1.064486     -0.040639    -10.566663
  C      -1.817960      0.003032    -12.618206
  H      -1.211983      0.887365    -12.922934
  H      -1.278367     -0.909343    -12.966336
  H      -2.782786      0.049292    -13.176871
138
Coordinates from ORCA-job /wrk/rja7/qm_final_3_replicates/qm_final_1.1/qm/10/freq E -2722.576131788800
  N       1.110534      0.690094     12.036584
  C       0.585760      0.045441     10.704230
  H       1.384556      0.228898      9.958729
  H      -0.330397      0.624932     10.450195
  C       2.262908     -0.097925     12.694116
  H       1.884774     -1.086587     13.012623
  H       3.050620     -0.242504     11.921562
  H       2.607442      0.498610     13.565694
  C      -0.033776      0.824636     13.026412
  H      -0.434677     -0.183525     13.251323
  H       0.342513      1.291654     13.960222
  H      -0.830755      1.458497     12.584505
  C       1.645712      2.072134     11.670004
  H       2.502402      1.934404     10.979395
  H       1.973611      2.592247     12.594217
  H       0.842961      2.653575     11.171131
  C       0.261827     -1.469940     10.738294
  H      -0.500416     -1.697826     11.526716
  H      -0.231066     -1.664707      9.749587
  P       2.757007     -2.270054      9.905091
  O       3.589617     -3.495692     10.185073
  O       3.308501     -0.819588      9.969904
  O       1.368405     -2.331649     10.953297
  O       1.861798     -2.401813      8.452963
  C       2.632873     -2.493283      7.235279
  H       1.993877     -3.006237      6.481414
  H       3.543781     -3.120169      7.384670
  C       3.051828     -1.088138      6.734276
  H       3.434541     -0.506840      7.603221
  O       1.811019     -0.443403      6.236494
  C       1.726001      0.918036      6.268433
  O       2.619456      1.667140      6.649753
  C       0.342816      1.396662      5.776300
  H      -0.276719      1.553992      6.694295
  H      -0.153822      0.582200      5.204768
  C       4.153127     -1.034066      5.645006
  H       4.987250     -1.717443      5.924496
  H       4.537973      0.004646      5.568248
  O       3.667327     -1.336291      4.298253
  C       3.620055     -2.651457      3.892671
  O       3.996616     -3.594519      4.573921
  C       3.037340     -2.748330      2.475477
  H       3.758901     -2.267509      1.770122
  H       2.990746     -3.828236      2.220003
  C       0.427143      2.721520      4.970237
  H       1.084526      3.421903      5.533958
  H      -0.584764      3.192060      4.933989
  C       0.960996      2.559098      3.517265
  H       1.891587      1.939829      3.522225
  H       1.272401      3.563259      3.139865
  C      -0.069253      1.957464      2.524046
  H      -0.995319      2.584795      2.543629
  H      -0.385113      0.940915      2.864275
  C       0.443039      1.861447      1.063128
  H       1.324876      1.175457      1.022940
  H       0.826667      2.860661      0.741942
  C      -0.637996      1.371770      0.064890
  H      -1.517489      2.061494      0.104203
  H      -1.020399      0.377412      0.398224
  C      -0.151807      1.261137     -1.407050
  H      -0.912303      0.692448     -1.998093
  H       0.770516      0.629408     -1.440447
  C       0.110923      2.615511     -2.069888
  H      -0.135601      3.509951     -1.461786
  C       0.600883      2.825526     -3.316900
  H       0.727532      3.874769     -3.650946
  C       0.976851      1.754678     -4.328841
  H       0.990821      0.751286     -3.845797
  H       2.019234      1.943300     -4.691185
  C       0.035083      1.698743     -5.575071
  H      -1.007781      1.513240     -5.224926
  H       0.318320      0.809792     -6.188411
  C       0.080602      2.962216     -6.475652
  H       1.148822      3.207721     -6.696225
  H      -0.317316      3.841170     -5.915512
  C      -0.678467      2.815077     -7.824535
  H      -0.213026      1.989097     -8.417157
  H      -0.516209      3.740601     -8.427063
  C      -2.205650      2.535034     -7.713844
  H      -2.367240      1.520774     -7.280594
  H      -2.626779      2.482715     -8.747357
  C      -3.024460      3.566283     -6.888525
  H      -2.678039      3.566773     -5.826190
  H      -4.088323      3.224871     -6.854152
  C      -2.982889      5.017122     -7.437755
  H      -3.293217      5.010409     -8.512432
  H      -1.932735      5.395627     -7.425975
  C      -3.885173      5.993671     -6.643905
  H      -3.843318      7.025788     -7.062175
  H      -3.575873      6.053347     -5.573490
  H      -4.951541      5.666095     -6.661713
  C       1.648603     -2.058914      2.321661
  H       1.743058     -0.995925      2.637027
  H       0.920796     -2.528973      3.027337
  C       1.087102     -2.116900      0.877037
  H       1.841897     -1.684460      0.173182
  H       0.198463     -1.445519      0.813274
  C       0.669680     -3.526369      0.382499
  H      -0.118421     -3.933516      1.063827
  H       1.529614     -4.235022      0.455391
  C       0.143231     -3.514034     -1.073793
  H      -0.683053     -2.769358     -1.164806
  H       0.956455     -3.147823     -1.748765
  C      -0.354132     -4.890901     -1.580442
  H       0.470480     -5.639570     -1.494113
  H      -1.174811     -5.258936     -0.916082
  C      -0.859809     -4.859938     -3.058283
  H      -1.058707     -5.909453     -3.385544
  H      -0.042454     -4.482343     -3.715011
  C      -2.132689     -4.045355     -3.239510
  H      -3.055283     -4.526405     -2.852822
  C      -2.243976     -2.802899     -3.772173
  H      -3.257625     -2.356862     -3.824298
  C      -1.113261     -1.954734     -4.341356
  H      -0.150964     -2.198140     -3.837485
  H      -1.316977     -0.880939     -4.113509
  C      -0.924326     -2.102621     -5.883709
  H      -0.658459     -3.162078     -6.117498
  H      -0.043075     -1.490663     -6.193572
  C      -2.157437     -1.685198     -6.724359
  H      -2.998287     -2.394669     -6.532016
  H      -2.521373     -0.684850     -6.381219
  C      -1.866045     -1.620104     -8.245136
  H      -1.068227     -0.858727     -8.420701
  H      -1.434120     -2.595299     -8.582784
  C      -3.114729     -1.290289     -9.104561
  H      -3.557820     -0.323518     -8.758718
  H      -3.894244     -2.066762     -8.909893
  C      -2.848427     -1.213829    -10.633434
  H      -2.365517     -2.165035    -10.971632
  H      -3.826962     -1.164579    -11.171077
  C      -1.978106     -0.009742    -11.083704
  H      -2.468871      0.938814    -10.752676
  H      -0.992129     -0.036980    -10.561916
  C      -1.743117      0.034269    -12.613284
  H      -1.123336      0.911903    -12.909528
  H      -1.217758     -0.883253    -12.969465
  H      -2.706443      0.101163    -13.172549
138
Coordinates from ORCA-job /wrk/rja7/qm_final_3_replicates/qm_final_1.1/qm/10/freq E -2722.576334595534
  N       1.238548      0.727145     11.927908
  C       0.677854      0.038237     10.631043
  H       1.456814      0.197361      9.860033
  H      -0.243031      0.612401     10.382163
  C       2.388029     -0.052376     12.600343
  H       2.003777     -1.025972     12.955699
  H       3.166446     -0.227376     11.825156
  H       2.747380      0.568137     13.449057
  C       0.111927      0.923956     12.927149
  H      -0.304130     -0.066745     13.198249
  H       0.509989      1.422331     13.835503
  H      -0.678280      1.554497     12.468944
  C       1.792435      2.082133     11.491968
  H       2.625555      1.896309     10.783781
  H       2.155595      2.631766     12.385392
  H       0.988042      2.659523     10.990861
  C       0.348888     -1.472995     10.722592
  H      -0.389475     -1.674042     11.540743
  H      -0.174948     -1.695676      9.755929
  P       2.823940     -2.286188      9.850967
  O       3.653136     -3.517598     10.115281
  O       3.386504     -0.839182      9.897053
  O       1.457937     -2.333309     10.928645
  O       1.893858     -2.416138      8.418346
  C       2.641707     -2.483441      7.186007
  H       1.999508     -3.003509      6.439646
  H       3.568575     -3.091479      7.312834
  C       3.018816     -1.065421      6.689770
  H       3.395281     -0.478936      7.557669
  O       1.756812     -0.447792      6.205194
  C       1.611599      0.905512      6.300992
  O       2.466080      1.673839      6.731207
  C       0.216460      1.351191      5.809724
  H      -0.400018      1.510426      6.729119
  H      -0.267821      0.524151      5.246278
  C       4.106737     -0.972612      5.591760
  H       4.968671     -1.623438      5.864732
  H       4.452333      0.080070      5.511928
  O       3.620582     -1.293740      4.250903
  C       3.613129     -2.611201      3.850071
  O       4.032523     -3.538395      4.527863
  C       3.003821     -2.731514      2.446945
  H       3.697203     -2.234580      1.724617
  H       2.982075     -3.813508      2.196657
  C       0.274031      2.672776      4.992809
  H       0.924217      3.385978      5.548918
  H      -0.745230      3.127677      4.962522
  C       0.796693      2.512429      3.535398
  H       1.737612      1.908573      3.532748
  H       1.087221      3.520680      3.152304
  C      -0.234049      1.895460      2.550871
  H      -1.171441      2.505023      2.586620
  H      -0.526412      0.870508      2.886680
  C       0.263572      1.820038      1.083171
  H       1.151652      1.143513      1.027866
  H       0.633587      2.826525      0.768843
  C      -0.820187      1.330954      0.086211
  H      -1.707798      2.009215      0.141229
  H      -1.189533      0.327379      0.406553
  C      -0.337440      1.246636     -1.388950
  H      -1.099018      0.687253     -1.989838
  H       0.584720      0.618382     -1.434247
  C      -0.074721      2.611181     -2.030213
  H      -0.387634      3.495261     -1.437499
  C       0.489188      2.840522     -3.242509
  H       0.608560      3.894381     -3.563840
  C       0.958901      1.784280     -4.231501
  H       0.977610      0.781603     -3.747903
  H       2.012605      2.010403     -4.534463
  C       0.095919      1.696906     -5.533358
  H      -0.954647      1.453437     -5.248395
  H       0.462393      0.830981     -6.136378
  C       0.134516      2.975012     -6.412587
  H       1.201842      3.257340     -6.589090
  H      -0.310172      3.830099     -5.851047
  C      -0.572874      2.834236     -7.789139
  H      -0.073580      2.026380     -8.379296
  H      -0.404529      3.773257     -8.368766
  C      -2.099175      2.532858     -7.736724
  H      -2.262196      1.502630     -7.343959
  H      -2.488780      2.512962     -8.782876
  C      -2.953640      3.523961     -6.898695
  H      -2.654528      3.469444     -5.823328
  H      -4.018234      3.184601     -6.927759
  C      -2.882068      5.000139     -7.371433
  H      -3.140599      5.049378     -8.458712
  H      -1.832414      5.370831     -7.290596
  C      -3.818453      5.940035     -6.572787
  H      -3.755692      6.991344     -6.937277
  H      -3.559212      5.945915     -5.487549
  H      -4.883451      5.617980     -6.655748
  C       1.594790     -2.079114      2.321164
  H       1.666840     -1.015621      2.640054
  H       0.891417     -2.570600      3.036984
  C       1.013544     -2.146739      0.885751
  H       1.753481     -1.707071      0.170762
  H       0.116149     -1.486441      0.832020
  C       0.603880     -3.561359      0.400611
  H      -0.183975     -3.967996      1.082486
  H       1.466192     -4.266608      0.478637
  C       0.085988     -3.553353     -1.057597
  H      -0.723136     -2.791750     -1.161810
  H       0.912256     -3.209687     -1.728672
  C      -0.438619     -4.920398     -1.561468
  H       0.366799     -5.689041     -1.469325
  H      -1.271732     -5.268138     -0.901501
  C      -0.930883     -4.875588     -3.043157
  H      -1.149065     -5.919596     -3.375744
  H      -0.098571     -4.514094     -3.689969
  C      -2.182431     -4.030775     -3.234421
  H      -3.121123     -4.490240     -2.860492
  C      -2.253966     -2.782045     -3.759329
  H      -3.254203     -2.307847     -3.821805
  C      -1.092431     -1.961222     -4.306573
  H      -0.142499     -2.240941     -3.798675
  H      -1.266171     -0.885018     -4.063423
  C      -0.895187     -2.096492     -5.849087
  H      -0.645580     -3.158702     -6.088277
  H      -0.001276     -1.496699     -6.147338
  C      -2.115011     -1.657546     -6.698295
  H      -2.965193     -2.359863     -6.521379
  H      -2.473584     -0.657229     -6.349742
  C      -1.806225     -1.588827     -8.215605
  H      -1.004118     -0.829199     -8.379726
  H      -1.372964     -2.564336     -8.550598
  C      -3.043911     -1.255415     -9.089750
  H      -3.488343     -0.287383     -8.748877
  H      -3.827695     -2.029762     -8.903985
  C      -2.761630     -1.184789    -10.616372
  H      -2.280785     -2.140073    -10.945708
  H      -3.735224     -1.131858    -11.162704
  C      -1.881116      0.012039    -11.065349
  H      -2.367927      0.964584    -10.741823
  H      -0.898374     -0.018578    -10.537381
  C      -1.635270      0.047665    -12.593551
  H      -1.006165      0.918889    -12.889197
  H      -1.115107     -0.875555    -12.942538
  H      -2.593844      0.120235    -13.160231
138
Coordinates from ORCA-job /wrk/rja7/qm_final_3_replicates/qm_final_1.1/qm/10/freq E -2722.576702397716
  N       1.359284      0.742191     11.831976
  C       0.769048      0.008727     10.571796
  H       1.523100      0.157015      9.775195
  H      -0.165306      0.565421     10.333641
  C       2.514027     -0.019926     12.514578
  H       2.132348     -0.981109     12.904966
  H       3.282853     -0.218198     11.735840
  H       2.884859      0.625197     13.339757
  C       0.251431      0.987126     12.841240
  H      -0.169438      0.011065     13.155331
  H       0.668968      1.515277     13.723837
  H      -0.539434      1.608267     12.371620
  C       1.916611      2.073786     11.330666
  H       2.726765      1.849529     10.607011
  H       2.308988      2.652533     12.192821
  H       1.104890      2.640691     10.829325
  C       0.461408     -1.502245     10.714127
  H      -0.244175     -1.691790     11.563606
  H      -0.095115     -1.754733      9.773364
  P       2.922616     -2.292114      9.783184
  O       3.762248     -3.521891     10.021020
  O       3.482541     -0.843580      9.814509
  O       1.587392     -2.345373     10.898460
  O       1.951590     -2.423067      8.376033
  C       2.667365     -2.447545      7.123308
  H       2.021402     -2.974518      6.384683
  H       3.615442     -3.028573      7.214552
  C       2.987878     -1.011113      6.640453
  H       3.361546     -0.424848      7.509238
  O       1.699596     -0.424622      6.183301
  C       1.491743      0.912935      6.352683
  O       2.305100      1.693967      6.837296
  C       0.086186      1.325881      5.862744
  H      -0.530405      1.480523      6.782562
  H      -0.382402      0.488711      5.301491
  C       4.049154     -0.864806      5.523979
  H       4.943902     -1.478014      5.777547
  H       4.347129      0.202835      5.444938
  O       3.550726     -1.200565      4.191860
  C       3.591473     -2.515806      3.785271
  O       4.074930     -3.424120      4.445552
  C       2.948485     -2.658771      2.399386
  H       3.597513     -2.126651      1.660966
  H       2.972121     -3.739533      2.143709
  C       0.119474      2.646668      5.040832
  H       0.762080      3.370346      5.592388
  H      -0.906312      3.086938      5.015657
  C       0.636260      2.489569      3.580760
  H       1.582648      1.894176      3.573261
  H       0.914680      3.500535      3.195830
  C      -0.394342      1.865055      2.600483
  H      -1.335686      2.468083      2.642515
  H      -0.677619      0.837258      2.935492
  C       0.097565      1.794885      1.130311
  H       0.981123      1.113177      1.069373
  H       0.472202      2.800696      0.819543
  C      -0.991407      1.318135      0.132139
  H      -1.875834      1.999948      0.194453
  H      -1.365640      0.313683      0.444192
  C      -0.509151      1.241488     -1.343843
  H      -1.281980      0.704894     -1.951306
  H       0.399841      0.596393     -1.395745
  C      -0.219092      2.605835     -1.972716
  H      -0.572218      3.489632     -1.402441
  C       0.409096      2.833754     -3.153813
  H       0.539856      3.886841     -3.472750
  C       0.935311      1.774566     -4.111688
  H       0.939210      0.777040     -3.617829
  H       1.999352      2.009286     -4.368388
  C       0.136059      1.663556     -5.453472
  H      -0.922239      1.402830     -5.217334
  H       0.547147      0.799756     -6.030733
  C       0.199081      2.935958     -6.338822
  H       1.271269      3.211436     -6.495296
  H      -0.251024      3.795273     -5.788481
  C      -0.484119      2.794909     -7.727506
  H       0.013647      1.975814     -8.303083
  H      -0.290626      3.727980     -8.308971
  C      -2.015901      2.517941     -7.701724
  H      -2.201315      1.487096     -7.320476
  H      -2.389995      2.514135     -8.753408
  C      -2.867586      3.513759     -6.866008
  H      -2.600780      3.427513     -5.783958
  H      -3.939140      3.202822     -6.931211
  C      -2.744341      4.997453     -7.303057
  H      -2.969078      5.078389     -8.396113
  H      -1.688517      5.338119     -7.183428
  C      -3.679448      5.943177     -6.509790
  H      -3.581008      7.000327     -6.848777
  H      -3.450646      5.918763     -5.418044
  H      -4.749351      5.649957     -6.628999
  C       1.506715     -2.073634      2.315298
  H       1.535704     -1.011465      2.645145
  H       0.844797     -2.605123      3.041982
  C       0.897718     -2.154774      0.892110
  H       1.606993     -1.684590      0.165551
  H      -0.023863     -1.527205      0.858744
  C       0.529376     -3.580439      0.405142
  H      -0.245421     -4.012050      1.086534
  H       1.412070     -4.260376      0.479993
  C       0.015219     -3.579711     -1.054093
  H      -0.803737     -2.829109     -1.161764
  H       0.840769     -3.222813     -1.719178
  C      -0.487278     -4.950820     -1.568318
  H       0.325939     -5.710775     -1.472144
  H      -1.322451     -5.312608     -0.918470
  C      -0.960584     -4.903626     -3.056615
  H      -1.162334     -5.948155     -3.397686
  H      -0.122293     -4.530029     -3.688588
  C      -2.217510     -4.070235     -3.263907
  H      -3.158767     -4.541643     -2.912096
  C      -2.289942     -2.817964     -3.780627
  H      -3.292600     -2.351351     -3.859293
  C      -1.124663     -1.983468     -4.299290
  H      -0.181164     -2.266096     -3.782130
  H      -1.307971     -0.912164     -4.040506
  C      -0.902226     -2.095671     -5.840125
  H      -0.642695     -3.153571     -6.088093
  H      -0.006627     -1.487333     -6.115093
  C      -2.108374     -1.653708     -6.706637
  H      -2.960033     -2.358949     -6.549408
  H      -2.475522     -0.656406     -6.358113
  C      -1.771882     -1.579503     -8.217702
  H      -0.963533     -0.822736     -8.364367
  H      -1.336453     -2.555433     -8.548527
  C      -2.991997     -1.238218     -9.113504
  H      -3.437278     -0.268300     -8.779030
  H      -3.783144     -2.008615     -8.943232
  C      -2.682539     -1.169863    -10.635133
  H      -2.204302     -2.129654    -10.954846
  H      -3.646222     -1.108700    -11.197954
  C      -1.783718      0.018121    -11.070692
  H      -2.267358      0.975734    -10.757823
  H      -0.810194     -0.019795    -10.526177
  C      -1.511152      0.047832    -12.594573
  H      -0.867064      0.911167    -12.880990
  H      -0.995605     -0.881937    -12.932921
  H      -2.458691      0.129751    -13.178301
138
Coordinates from ORCA-job /wrk/rja7/qm_final_3_replicates/qm_final_1.1/qm/10/freq E -2722.577000652454
  N       1.481804      0.729292     11.735198
  C       0.885345     -0.072749     10.519181
  H       1.615062      0.072623      9.701227
  H      -0.072611      0.442553     10.281536
  C       2.640586      0.005930     12.449903
  H       2.265115     -0.939037     12.884077
  H       3.411304     -0.220854     11.681491
  H       3.007927      0.690369     13.244201
  C       0.382166      1.027103     12.739125
  H      -0.033521      0.069284     13.111571
  H       0.807050      1.604672     13.586930
  H      -0.414376      1.619317     12.242542
  C       2.033996      2.031663     11.153427
  H       2.827411      1.764281     10.426128
  H       2.442554      2.654180     11.976782
  H       1.213783      2.573187     10.638270
  C       0.640083     -1.586598     10.721019
  H      -0.023327     -1.778991     11.603577
  H       0.054915     -1.886657      9.811943
  P       3.102564     -2.293225      9.716872
  O       3.970415     -3.510351      9.917583
  O       3.642009     -0.836777      9.740641
  O       1.805573     -2.380551     10.876545
  O       2.086402     -2.434640      8.340420
  C       2.757793     -2.365362      7.063023
  H       2.127974     -2.919155      6.328698
  H       3.750455     -2.873398      7.101696
  C       2.953822     -0.897194      6.605706
  H       3.307373     -0.305689      7.478356
  O       1.618581     -0.392436      6.185601
  C       1.300558      0.910528      6.430520
  O       2.031300      1.718180      6.997809
  C      -0.114032      1.245099      5.910704
  H      -0.760092      1.362087      6.815204
  H      -0.520546      0.388181      5.331344
  C       3.964639     -0.648591      5.462788
  H       4.912141     -1.191539      5.680511
  H       4.173669      0.440960      5.391894
  O       3.445317     -1.007139      4.144591
  C       3.593561     -2.304550      3.706266
  O       4.209034     -3.167139      4.315702
  C       2.889060     -2.490142      2.354144
  H       3.434420     -1.875372      1.596002
  H       3.019771     -3.556351      2.070679
  C      -0.125982      2.569461      5.091622
  H       0.486071      3.315448      5.648447
  H      -1.166709      2.972364      5.061778
  C       0.407098      2.429359      3.634589
  H       1.358307      1.842111      3.631555
  H       0.678024      3.446459      3.260747
  C      -0.610280      1.806672      2.639412
  H      -1.552848      2.407975      2.677072
  H      -0.894640      0.775947      2.964588
  C      -0.103114      1.743638      1.173691
  H       0.763901      1.041056      1.116052
  H       0.298338      2.743304      0.877858
  C      -1.191902      1.305287      0.156540
  H      -2.061401      2.005740      0.221018
  H      -1.592560      0.304778      0.447814
  C      -0.696983      1.234665     -1.316108
  H      -1.492134      0.754847     -1.938714
  H       0.176299      0.543158     -1.375500
  C      -0.334093      2.590617     -1.921731
  H      -0.699434      3.483515     -1.373711
  C       0.359382      2.797557     -3.070494
  H       0.531909      3.845114     -3.387343
  C       0.904522      1.717230     -3.994738
  H       0.850561      0.726294     -3.491452
  H       1.987066      1.916469     -4.199637
  C       0.169426      1.607850     -5.374954
  H      -0.907862      1.387533     -5.190438
  H       0.578880      0.718251     -5.912948
  C       0.331740      2.851814     -6.285976
  H       1.422409      3.045257     -6.435650
  H      -0.060163      3.752871     -5.759003
  C      -0.347701      2.722386     -7.679216
  H       0.093377      1.850813     -8.221519
  H      -0.080147      3.619547     -8.287294
  C      -1.895568      2.552545     -7.660023
  H      -2.151928      1.550634     -7.242296
  H      -2.260439      2.535806     -8.715015
  C      -2.688890      3.631584     -6.869397
  H      -2.445177      3.563907     -5.779865
  H      -3.776981      3.386913     -6.940062
  C      -2.470841      5.089573     -7.353181
  H      -2.674630      5.150590     -8.451862
  H      -1.399155      5.372350     -7.228487
  C      -3.357496      6.113275     -6.602098
  H      -3.191712      7.152410     -6.969738
  H      -3.143877      6.105936     -5.507209
  H      -4.441708      5.881776     -6.728013
  C       1.386883     -2.070709      2.357661
  H       1.313479     -1.022559      2.724161
  H       0.825742     -2.693736      3.096273
  C       0.722637     -2.176875      0.959147
  H       1.346752     -1.613048      0.220990
  H      -0.259441     -1.647892      0.980851
  C       0.483388     -3.617822      0.433873
  H      -0.234371     -4.142667      1.112005
  H       1.428480     -4.211277      0.473602
  C      -0.045384     -3.618312     -1.021142
  H      -0.929598     -2.941463     -1.101268
  H       0.741538     -3.164891     -1.674145
  C      -0.419925     -5.009665     -1.586511
  H       0.457643     -5.696527     -1.505864
  H      -1.223345     -5.467604     -0.957591
  C      -0.873778     -4.962206     -3.083016
  H      -0.974922     -6.010894     -3.453885
  H      -0.059832     -4.499023     -3.686776
  C      -2.195469     -4.238292     -3.304388
  H      -3.100677     -4.804258     -3.001287
  C      -2.366076     -2.984010     -3.794119
  H      -3.404241     -2.608453     -3.895359
  C      -1.267246     -2.033102     -4.257234
  H      -0.314023     -2.253391     -3.730634
  H      -1.548398     -0.993356     -3.957157
  C      -0.996470     -2.063690     -5.793861
  H      -0.653598     -3.089814     -6.073327
  H      -0.139736     -1.382497     -6.014468
  C      -2.199350     -1.671638     -6.686713
  H      -3.018968     -2.420581     -6.564275
  H      -2.624636     -0.697265     -6.338173
  C      -1.819426     -1.569411     -8.185581
  H      -1.020747     -0.796864     -8.300851
  H      -1.356317     -2.533365     -8.513653
  C      -3.018376     -1.241411     -9.114859
  H      -3.487526     -0.279938     -8.789073
  H      -3.802583     -2.024369     -8.972544
  C      -2.664556     -1.164597    -10.626775
  H      -2.167911     -2.119568    -10.932120
  H      -3.611321     -1.111295    -11.218269
  C      -1.762074      0.030517    -11.034551
  H      -2.263444      0.985169    -10.739878
  H      -0.805294      0.002084    -10.460387
  C      -1.442413      0.059592    -12.549493
  H      -0.795186      0.926459    -12.817412
  H      -0.910135     -0.867331    -12.869553
  H      -2.371730      0.132163    -13.162910
138
Coordinates from ORCA-job /wrk/rja7/qm_final_3_replicates/qm_final_1.1/qm/10/freq E -2722.577630522580
  N       1.393575      0.753592     11.725366
  C       0.808414     -0.040101     10.498061
  H       1.551999      0.098393      9.692204
  H      -0.138874      0.487463     10.246078
  C       2.525615      0.013312     12.464505
  H       2.126454     -0.924740     12.892532
  H       3.308704     -0.226410     11.712317
  H       2.887409      0.693112     13.265230
  C       0.277787      1.068506     12.705573
  H      -0.162748      0.117021     13.065521
  H       0.693637      1.635965     13.564518
  H      -0.497460      1.675959     12.193892
  C       1.977504      2.047409     11.155337
  H       2.785454      1.768252     10.448916
  H       2.372988      2.666015     11.988011
  H       1.177981      2.598847     10.618605
  C       0.542089     -1.552182     10.691333
  H      -0.141088     -1.736699     11.560357
  H      -0.029080     -1.842876      9.770322
  P       3.017968     -2.295167      9.739304
  O       3.864892     -3.522558      9.962290
  O       3.575592     -0.846155      9.773789
  O       1.692751     -2.364401     10.867806
  O       2.033701     -2.424084      8.338465
  C       2.733505     -2.380711      7.074429
  H       2.102476     -2.920414      6.330770
  H       3.709910     -2.917770      7.134075
  C       2.980456     -0.920918      6.617344
  H       3.343563     -0.340972      7.493707
  O       1.666634     -0.376201      6.183743
  C       1.386833      0.933043      6.437809
  O       2.136786      1.712566      7.019859
  C      -0.015042      1.313671      5.918132
  H      -0.653796      1.466658      6.822496
  H      -0.455224      0.465439      5.350979
  C       4.006692     -0.702258      5.481221
  H       4.939068     -1.267296      5.708472
  H       4.242933      0.381701      5.408951
  O       3.491473     -1.051805      4.157890
  C       3.612779     -2.353534      3.722766
  O       4.203278     -3.228566      4.339118
  C       2.918963     -2.526067      2.362326
  H       3.477980     -1.913999      1.612178
  H       3.039412     -3.592590      2.075407
  C       0.019089      2.626474      5.081875
  H       0.656271      3.358876      5.628408
  H      -1.007303      3.064035      5.046761
  C       0.546415      2.448951      3.627191
  H       1.480861      1.835419      3.631560
  H       0.845147      3.451801      3.236383
  C      -0.489143      1.834139      2.647237
  H      -1.417115      2.457981      2.678575
  H      -0.795610      0.816293      2.992585
  C       0.006062      1.738047      1.179757
  H       0.866515      1.027107      1.126220
  H       0.413926      2.728148      0.861133
  C      -1.098631      1.290897      0.185342
  H      -1.963151      1.996990      0.255347
  H      -1.498535      0.295993      0.496205
  C      -0.635267      1.207392     -1.296273
  H      -1.445956      0.727022     -1.896829
  H       0.235964      0.512154     -1.374892
  C      -0.289463      2.564248     -1.910943
  H      -0.659602      3.453465     -1.360242
  C       0.393244      2.782653     -3.063571
  H       0.546206      3.834132     -3.378000
  C       0.950247      1.718205     -3.997760
  H       0.926469      0.722807     -3.499681
  H       2.025217      1.942029     -4.215515
  C       0.195742      1.603956     -5.366670
  H      -0.874204      1.362975     -5.166278
  H       0.612224      0.726147     -5.917834
  C       0.316726      2.858508     -6.270232
  H       1.401034      3.073178     -6.436203
  H      -0.083184      3.748544     -5.730232
  C      -0.380420      2.727720     -7.655578
  H       0.070560      1.869866     -8.211681
  H      -0.139207      3.634678     -8.259911
  C      -1.924425      2.525305     -7.619810
  H      -2.155013      1.514135     -7.209710
  H      -2.299262      2.510690     -8.671946
  C      -2.732137      3.578783     -6.808920
  H      -2.482341      3.495328     -5.722059
  H      -3.816570      3.317855     -6.880069
  C      -2.541461      5.050220     -7.263888
  H      -2.753564      5.132194     -8.359818
  H      -1.473545      5.348361     -7.139674
  C      -3.439227      6.043275     -6.485494
  H      -3.292220      7.092500     -6.831710
  H      -3.218095      6.015976     -5.392382
  H      -4.520484      5.797563     -6.609751
  C       1.421423     -2.090391      2.353492
  H       1.355731     -1.044441      2.727683
  H       0.847565     -2.713355      3.082225
  C       0.765058     -2.177434      0.949335
  H       1.398818     -1.613455      0.219729
  H      -0.211516     -1.637821      0.971520
  C       0.515438     -3.611225      0.408857
  H      -0.207731     -4.136166      1.081124
  H       1.455703     -4.212846      0.445431
  C      -0.016274     -3.599707     -1.046235
  H      -0.901517     -2.923259     -1.118442
  H       0.768407     -3.142347     -1.699177
  C      -0.389528     -4.990586     -1.615487
  H       0.489538     -5.675607     -1.535376
  H      -1.192383     -5.449849     -0.986974
  C      -0.848237     -4.947796     -3.111079
  H      -0.959002     -5.997886     -3.474979
  H      -0.034324     -4.494037     -3.722000
  C      -2.166890     -4.217222     -3.327689
  H      -3.072451     -4.777887     -3.015818
  C      -2.338094     -2.966455     -3.825774
  H      -3.376648     -2.590484     -3.921294
  C      -1.243906     -2.021546     -4.310680
  H      -0.286269     -2.233165     -3.787779
  H      -1.522843     -0.977741     -4.025627
  C      -0.986460     -2.070430     -5.848535
  H      -0.647022     -3.099313     -6.121992
  H      -0.132126     -1.392408     -6.084885
  C      -2.199902     -1.681248     -6.728072
  H      -3.020140     -2.426711     -6.589335
  H      -2.616082     -0.702952     -6.379442
  C      -1.842285     -1.580324     -8.232048
  H      -1.044141     -0.809317     -8.358943
  H      -1.386018     -2.544763     -8.568135
  C      -3.055322     -1.246646     -9.140195
  H      -3.516823     -0.285390     -8.803691
  H      -3.839327     -2.027873     -8.987286
  C      -2.725370     -1.160082    -10.656275
  H      -2.232590     -2.112214    -10.976712
  H      -3.680724     -1.104001    -11.233460
  C      -1.830410      0.040201    -11.065988
  H      -2.330471      0.992024    -10.757291
  H      -0.866851      0.009341    -10.503526
  C      -1.530565      0.082255    -12.584506
  H      -0.890071      0.953503    -12.854225
  H      -0.999696     -0.840467    -12.918808
  H      -2.468400      0.156058    -13.184660
138
Coordinates from ORCA-job /wrk/rja7/qm_final_3_replicates/qm_final_1.1/qm/10/freq E -2722.578279184675
  N       1.427720      0.765729     11.698754
  C       0.812140     -0.014964     10.479207
  H       1.550937      0.098495      9.665953
  H      -0.120056      0.539910     10.230755
  C       2.532105     -0.008719     12.443524
  H       2.100714     -0.929805     12.877559
  H       3.308278     -0.279464     11.694193
  H       2.917373      0.662106     13.240914
  C       0.322788      1.126424     12.675012
  H      -0.152083      0.193180     13.039566
  H       0.755829      1.683499     13.532192
  H      -0.430239      1.757992     12.159587
  C       2.056870      2.035166     11.120887
  H       2.861345      1.724564     10.423577
  H       2.466147      2.647765     11.951313
  H       1.280550      2.606285     10.570694
  C       0.500610     -1.517735     10.681090
  H      -0.184158     -1.674624     11.554207
  H      -0.083698     -1.795369      9.764123
  P       2.957135     -2.336453      9.740060
  O       3.766293     -3.588473      9.963748
  O       3.557818     -0.905306      9.779571
  O       1.625236     -2.365231     10.860437
  O       1.977052     -2.428660      8.333509
  C       2.678235     -2.386375      7.071269
  H       2.041505     -2.913274      6.323319
  H       3.648057     -2.936219      7.126256
  C       2.941784     -0.925598      6.629739
  H       3.306370     -0.359046      7.514335
  O       1.634257     -0.367343      6.195097
  C       1.351789      0.936133      6.474960
  O       2.095108      1.703464      7.082231
  C      -0.037512      1.334059      5.935866
  H      -0.685482      1.499961      6.831196
  H      -0.482161      0.489883      5.366368
  C       3.975767     -0.708413      5.500500
  H       4.906240     -1.275017      5.733089
  H       4.215798      0.374749      5.429796
  O       3.471148     -1.059856      4.173875
  C       3.595850     -2.363567      3.744268
  O       4.171304     -3.240113      4.372691
  C       2.918988     -2.536991      2.376128
  H       3.477577     -1.913404      1.635712
  H       3.050616     -3.600596      2.083077
  C       0.020584      2.643268      5.093965
  H       0.658065      3.372795      5.644114
  H      -1.000966      3.090817      5.046655
  C       0.558765      2.456743      3.644454
  H       1.490005      1.838304      3.657122
  H       0.865739      3.455772      3.250401
  C      -0.472441      1.836424      2.663118
  H      -1.403607      2.455836      2.689173
  H      -0.775835      0.819596      3.014291
  C       0.023018      1.737670      1.196059
  H       0.896374      1.042433      1.144881
  H       0.412476      2.732451      0.868874
  C      -1.078089      1.261213      0.212517
  H      -1.954613      1.952489      0.283653
  H      -1.456447      0.262004      0.535669
  C      -0.631510      1.177474     -1.274072
  H      -1.444369      0.683195     -1.861992
  H       0.248115      0.494408     -1.365958
  C      -0.318363      2.538965     -1.895325
  H      -0.718741      3.418477     -1.350175
  C       0.373904      2.776605     -3.037479
  H       0.501341      3.833174     -3.347286
  C       0.976474      1.734569     -3.967257
  H       0.982891      0.734629     -3.476214
  H       2.046013      1.994400     -4.169792
  C       0.239416      1.609482     -5.342926
  H      -0.825976      1.340320     -5.154281
  H       0.682758      0.747586     -5.898939
  C       0.330139      2.874949     -6.234009
  H       1.409350      3.121344     -6.389783
  H      -0.099606      3.750555     -5.692893
  C      -0.348059      2.732287     -7.626192
  H       0.132130      1.889980     -8.182498
  H      -0.125826      3.647782     -8.224711
  C      -1.885313      2.486604     -7.606163
  H      -2.093676      1.471670     -7.193709
  H      -2.246752      2.457878     -8.662621
  C      -2.726966      3.521692     -6.809124
  H      -2.485939      3.447246     -5.720047
  H      -3.804250      3.234502     -6.892219
  C      -2.564700      4.995019     -7.265838
  H      -2.766243      5.069041     -8.364102
  H      -1.504597      5.318070     -7.130859
  C      -3.491632      5.970940     -6.499719
  H      -3.360970      7.022112     -6.846101
  H      -3.282801      5.949327     -5.403983
  H      -4.566089      5.703374     -6.636836
  C       1.418402     -2.116569      2.359100
  H       1.336834     -1.077615      2.749374
  H       0.844608     -2.758491      3.071230
  C       0.773270     -2.183501      0.949667
  H       1.404983     -1.599907      0.234009
  H      -0.208029     -1.653075      0.979626
  C       0.539840     -3.608738      0.382994
  H      -0.179565     -4.150983      1.045665
  H       1.484863     -4.203601      0.411425
  C       0.003231     -3.581334     -1.070337
  H      -0.887052     -2.910486     -1.127018
  H       0.779149     -3.110578     -1.724377
  C      -0.364055     -4.971155     -1.645945
  H       0.519461     -5.651245     -1.572732
  H      -1.162357     -5.437496     -1.017157
  C      -0.832264     -4.923153     -3.137014
  H      -0.951353     -5.971581     -3.502890
  H      -0.021915     -4.471102     -3.754180
  C      -2.147608     -4.184182     -3.338896
  H      -3.053394     -4.740581     -3.019441
  C      -2.316925     -2.932021     -3.833091
  H      -3.354852     -2.551559     -3.918606
  C      -1.223037     -1.991666     -4.325554
  H      -0.263552     -2.201466     -3.802627
  H      -1.498354     -0.944707     -4.050566
  C      -0.970071     -2.050170     -5.863510
  H      -0.631597     -3.079799     -6.134909
  H      -0.117931     -1.372288     -6.106145
  C      -2.188021     -1.660975     -6.737282
  H      -3.009401     -2.403521     -6.590414
  H      -2.598954     -0.680051     -6.390031
  C      -1.840791     -1.559203     -8.243465
  H      -1.044910     -0.786236     -8.374936
  H      -1.385540     -2.523384     -8.581793
  C      -3.062028     -1.228839     -9.141733
  H      -3.518998     -0.264668     -8.807236
  H      -3.845072     -2.008136     -8.974764
  C      -2.748168     -1.150789    -10.661403
  H      -2.258953     -2.104132    -10.984084
  H      -3.709411     -1.098028    -11.229040
  C      -1.858846      0.048941    -11.084867
  H      -2.356636      1.000562    -10.772294
  H      -0.889291      0.019733    -10.533173
  C      -1.578149      0.088020    -12.607120
  H      -0.944858      0.961147    -12.887436
  H      -1.047389     -0.833544    -12.944731
  H      -2.524440      0.155934    -13.194339
138
Coordinates from ORCA-job /wrk/rja7/qm_final_3_replicates/qm_final_1.1/qm/10/freq E -2722.579224065788
  N       1.424103      0.803827     11.634837
  C       0.782282     -0.002465     10.446392
  H       1.516161      0.058391      9.623869
  H      -0.131452      0.572772     10.178058
  C       2.478167      0.014823     12.433017
  H       1.996807     -0.862264     12.904493
  H       3.253539     -0.327809     11.712521
  H       2.884771      0.703710     13.203920
  C       0.326512      1.264074     12.576937
  H      -0.199092      0.374115     12.978527
  H       0.775419      1.839332     13.413557
  H      -0.389364      1.906232     12.023490
  C       2.120633      2.013739     11.007054
  H       2.929964      1.634503     10.351116
  H       2.532504      2.652095     11.816605
  H       1.385204      2.583513     10.402107
  C       0.425164     -1.487247     10.700727
  H      -0.255126     -1.592982     11.584896
  H      -0.177040     -1.774261      9.798120
  P       2.866840     -2.395614      9.791811
  O       3.626997     -3.674104     10.033559
  O       3.519963     -0.988335      9.827487
  O       1.523209     -2.363993     10.897521
  O       1.901458     -2.457302      8.372068
  C       2.613805     -2.416026      7.116886
  H       1.980107     -2.935343      6.360936
  H       3.578448     -2.974905      7.175642
  C       2.891505     -0.953948      6.689197
  H       3.250621     -0.401257      7.584531
  O       1.591764     -0.385611      6.244677
  C       1.290491      0.906532      6.556722
  O       2.000996      1.655534      7.225070
  C      -0.067908      1.323143      5.958268
  H      -0.749683      1.507039      6.823924
  H      -0.502542      0.482292      5.376161
  C       3.939189     -0.733276      5.573343
  H       4.866156     -1.303380      5.812017
  H       4.183315      0.349632      5.512835
  O       3.452716     -1.074360      4.237369
  C       3.603258     -2.370948      3.791368
  O       4.177385     -3.250270      4.416757
  C       2.950486     -2.530095      2.410784
  H       3.490284     -1.860415      1.697698
  H       3.124019     -3.578362      2.085513
  C       0.041812      2.623659      5.105444
  H       0.676710      3.347715      5.666065
  H      -0.969308      3.090220      5.028351
  C       0.608104      2.417404      3.668468
  H       1.524650      1.777824      3.700648
  H       0.945804      3.407228      3.276808
  C      -0.419034      1.812609      2.671834
  H      -1.342713      2.443644      2.686330
  H      -0.740766      0.801338      3.021984
  C       0.085559      1.708880      1.207791
  H       0.960594      1.015183      1.159993
  H       0.474970      2.703208      0.879103
  C      -1.016602      1.226888      0.228813
  H      -1.893530      1.917696      0.302584
  H      -1.390479      0.228786      0.559507
  C      -0.592322      1.141432     -1.264618
  H      -1.421708      0.654078     -1.837767
  H       0.279040      0.452192     -1.382236
  C      -0.288647      2.504342     -1.885758
  H      -0.705369      3.376801     -1.341174
  C       0.410487      2.757436     -3.019570
  H       0.524962      3.818430     -3.320153
  C       1.034112      1.735259     -3.955853
  H       1.057369      0.728330     -3.477324
  H       2.100614      2.012825     -4.149818
  C       0.297971      1.620916     -5.330956
  H      -0.767157      1.351252     -5.142094
  H       0.737515      0.765619     -5.900055
  C       0.381103      2.893243     -6.213537
  H       1.459652      3.142142     -6.371470
  H      -0.049967      3.767514     -5.671216
  C      -0.292866      2.746947     -7.607160
  H       0.202334      1.912966     -8.163755
  H      -0.083636      3.665585     -8.205123
  C      -1.824840      2.473179     -7.592109
  H      -2.016295      1.459586     -7.168819
  H      -2.179528      2.426012     -8.650131
  C      -2.687701      3.502609     -6.813121
  H      -2.445364      3.450552     -5.723352
  H      -3.759025      3.191769     -6.892694
  C      -2.556808      4.970498     -7.294709
  H      -2.759234      5.021840     -8.394559
  H      -1.503920      5.320515     -7.165350
  C      -3.504185      5.940056     -6.545149
  H      -3.391465      6.988141     -6.906552
  H      -3.297302      5.937661     -5.448779
  H      -4.573240      5.651325     -6.681139
  C       1.436055     -2.168752      2.395086
  H       1.306224     -1.152037      2.828903
  H       0.884118     -2.865866      3.071778
  C       0.800771     -2.196153      0.980829
  H       1.404671     -1.549651      0.296260
  H      -0.203568     -1.713155      1.037490
  C       0.635371     -3.600949      0.347833
  H      -0.053279     -4.207131      0.987491
  H       1.607567     -4.151488      0.346865
  C       0.081719     -3.541569     -1.099019
  H      -0.842852     -2.917092     -1.116459
  H       0.820699     -3.008258     -1.747717
  C      -0.218426     -4.933628     -1.708066
  H       0.700616     -5.566821     -1.656034
  H      -0.986609     -5.453825     -1.084455
  C      -0.704962     -4.881783     -3.191637
  H      -0.779429     -5.928865     -3.572594
  H       0.073444     -4.381463     -3.812951
  C      -2.056072     -4.204350     -3.364610
  H      -2.929407     -4.808051     -3.040116
  C      -2.294700     -2.958042     -3.843881
  H      -3.352026     -2.631011     -3.911869
  C      -1.256681     -1.959208     -4.339719
  H      -0.284349     -2.115173     -3.819006
  H      -1.586041     -0.927060     -4.068806
  C      -1.006043     -2.004145     -5.878800
  H      -0.618915     -3.014741     -6.156108
  H      -0.190528     -1.283385     -6.121168
  C      -2.245263     -1.666407     -6.744662
  H      -3.033734     -2.443133     -6.595867
  H      -2.694953     -0.704257     -6.392772
  C      -1.911975     -1.535567     -8.251846
  H      -1.143593     -0.733959     -8.377496
  H      -1.427319     -2.480133     -8.604570
  C      -3.151072     -1.236141     -9.136587
  H      -3.630313     -0.284854     -8.795696
  H      -3.910864     -2.036371     -8.961477
  C      -2.857039     -1.145539    -10.659335
  H      -2.349527     -2.085401    -10.993470
  H      -3.825297     -1.113845    -11.216514
  C      -2.000851      0.077154    -11.085268
  H      -2.516693      1.013785    -10.758183
  H      -1.024377      0.065421    -10.545723
  C      -1.742502      0.135653    -12.610941
  H      -1.136705      1.027451    -12.893000
  H      -1.192397     -0.768905    -12.963227
  H      -2.699280      0.182639    -13.182893
138
Coordinates from ORCA-job /wrk/rja7/qm_final_3_replicates/qm_final_1.1/qm/10/freq E -2722.579975121589
  N       1.541100      0.848731     11.525195
  C       0.840143      0.008773     10.394623
  H       1.540843      0.013983      9.542107
  H      -0.064264      0.598673     10.127938
  C       2.551342      0.053421     12.369330
  H       2.023048     -0.761312     12.899336
  H       3.305131     -0.377412     11.673752
  H       3.001065      0.765043     13.094302
  C       0.480964      1.429201     12.443616
  H      -0.093346      0.597802     12.900129
  H       0.970157      2.024636     13.242445
  H      -0.201883      2.079362     11.858927
  C       2.300273      1.974496     10.816717
  H       3.092107      1.507689     10.198303
  H       2.738799      2.647253     11.583431
  H       1.599815      2.531345     10.161136
  C       0.451298     -1.453296     10.724253
  H      -0.194308     -1.502274     11.638737
  H      -0.196032     -1.756750      9.858899
  P       2.855385     -2.447709      9.791999
  O       3.574496     -3.748256     10.037947
  O       3.559105     -1.065131      9.802029
  O       1.529836     -2.354680     10.914131
  O       1.871543     -2.487319      8.382020
  C       2.567389     -2.424021      7.119781
  H       1.934645     -2.947436      6.365596
  H       3.542190     -2.966767      7.159789
  C       2.811635     -0.951598      6.706890
  H       3.160529     -0.405357      7.609229
  O       1.499266     -0.408642      6.266014
  C       1.118940      0.838528      6.662134
  O       1.744785      1.554707      7.443863
  C      -0.214502      1.249909      6.008668
  H      -0.933788      1.431155      6.843276
  H      -0.618841      0.410184      5.403667
  C       3.850754     -0.691069      5.593064
  H       4.795018     -1.234338      5.826288
  H       4.063765      0.399402      5.541186
  O       3.375102     -1.035547      4.254774
  C       3.576307     -2.321591      3.795481
  O       4.176445     -3.187568      4.414416
  C       2.933410     -2.484186      2.412023
  H       3.426793     -1.761225      1.717895
  H       3.166886     -3.510579      2.055732
  C      -0.077180      2.552009      5.158518
  H       0.540560      3.276967      5.737249
  H      -1.086094      3.018646      5.056529
  C       0.520883      2.350757      3.732653
  H       1.435085      1.708160      3.777281
  H       0.868735      3.342365      3.354863
  C      -0.488736      1.753333      2.711997
  H      -1.416528      2.378481      2.721490
  H      -0.810151      0.737305      3.048310
  C       0.029296      1.669661      1.250211
  H       0.915676      0.990468      1.199939
  H       0.404708      2.673124      0.933018
  C      -1.063775      1.178359      0.265267
  H      -1.951488      1.854734      0.345513
  H      -1.420667      0.172283      0.590092
  C      -0.651156      1.110195     -1.233116
  H      -1.488426      0.625748     -1.800516
  H       0.218474      0.425818     -1.375621
  C      -0.362400      2.478969     -1.845785
  H      -0.823184      3.338387     -1.315577
  C       0.369881      2.752998     -2.953119
  H       0.466728      3.817838     -3.246522
  C       1.047890      1.752034     -3.874192
  H       1.084927      0.742689     -3.400871
  H       2.112392      2.057349     -4.034776
  C       0.350117      1.629914     -5.266854
  H      -0.715286      1.345245     -5.102896
  H       0.812822      0.783497     -5.831447
  C       0.432327      2.904520     -6.146385
  H       1.510662      3.165435     -6.286775
  H      -0.017459      3.775454     -5.614185
  C      -0.213175      2.745818     -7.552216
  H       0.298333      1.911051     -8.093246
  H       0.004170      3.660371     -8.153263
  C      -1.743776      2.465085     -7.568268
  H      -1.941486      1.458744     -7.132684
  H      -2.073622      2.398236     -8.632969
  C      -2.627626      3.504958     -6.828521
  H      -2.405344      3.479237     -5.733736
  H      -3.695297      3.184759     -6.921176
  C      -2.497146      4.960469     -7.343248
  H      -2.680008      4.982278     -8.447465
  H      -1.449247      5.322023     -7.204147
  C      -3.464116      5.942793     -6.636112
  H      -3.348867      6.982251     -7.020798
  H      -3.278543      5.967860     -5.536213
  H      -4.528881      5.645300     -6.785956
  C       1.400138     -2.215966      2.415915
  H       1.207152     -1.227920      2.890949
  H       0.896791     -2.975016      3.063429
  C       0.756889     -2.222599      1.006011
  H       1.312652     -1.511711      0.345108
  H      -0.274190     -1.804284      1.093810
  C       0.671523     -3.606569      0.318057
  H       0.025559     -4.277861      0.937041
  H       1.674334     -4.098581      0.289668
  C       0.099814     -3.527906     -1.121025
  H      -0.856367     -2.953431     -1.105207
  H       0.798223     -2.936203     -1.763689
  C      -0.133921     -4.918611     -1.761627
  H       0.816768     -5.504516     -1.729739
  H      -0.870035     -5.490183     -1.144446
  C      -0.636216     -4.859391     -3.238087
  H      -0.670066     -5.901859     -3.637273
  H       0.112271     -4.314741     -3.858812
  C      -2.015836     -4.237227     -3.386030
  H      -2.860390     -4.881819     -3.063670
  C      -2.309919     -2.994782     -3.843667
  H      -3.380345     -2.711066     -3.899933
  C      -1.314502     -1.947898     -4.326171
  H      -0.340269     -2.062547     -3.797127
  H      -1.689332     -0.930341     -4.057869
  C      -1.047525     -1.976999     -5.863521
  H      -0.630141     -2.973964     -6.145507
  H      -0.250975     -1.230830     -6.090708
  C      -2.285137     -1.661038     -6.740130
  H      -3.060632     -2.452633     -6.603530
  H      -2.756637     -0.709027     -6.388812
  C      -1.937487     -1.513125     -8.243130
  H      -1.169602     -0.708535     -8.350289
  H      -1.448475     -2.453025     -8.602309
  C      -3.168110     -1.204337     -9.136466
  H      -3.641897     -0.248977     -8.798594
  H      -3.934742     -1.998931     -8.965567
  C      -2.863774     -1.117032    -10.657418
  H      -2.365631     -2.062703    -10.989461
  H      -3.828036     -1.074130    -11.220842
  C      -1.989842      0.094927    -11.077904
  H      -2.495947      1.037047    -10.753229
  H      -1.017374      0.070048    -10.531719
  C      -1.721522      0.151723    -12.601980
  H      -1.103998      1.036774    -12.879653
  H      -1.179728     -0.758805    -12.951642
  H      -2.674866      0.210403    -13.178544
138
Coordinates from ORCA-job /wrk/rja7/qm_final_3_replicates/qm_final_1.1/qm/10/freq E -2722.580684680373
  N       1.464210      0.818123     11.509896
  C       0.782310     -0.032697     10.375150
  H       1.474459      0.010460      9.518358
  H      -0.144589      0.528113     10.123869
  C       2.489097      0.040037     12.352346
  H       1.979136     -0.792028     12.873599
  H       3.256762     -0.363409     11.655918
  H       2.916909      0.756100     13.086323
  C       0.390267      1.372700     12.427863
  H      -0.171344      0.527452     12.875308
  H       0.865435      1.970678     13.233306
  H      -0.300664      2.015651     11.844435
  C       2.201811      1.961872     10.807163
  H       3.003438      1.510862     10.189638
  H       2.624851      2.641718     11.576593
  H       1.491825      2.504833     10.150563
  C       0.446135     -1.509512     10.691126
  H      -0.183428     -1.589751     11.614723
  H      -0.205363     -1.823037      9.832635
  P       2.870871     -2.421133      9.719588
  O       3.612872     -3.715304      9.928204
  O       3.552258     -1.027556      9.756807
  O       1.553404     -2.381294     10.853247
  O       1.878664     -2.445455      8.313645
  C       2.570313     -2.376487      7.048725
  H       1.924078     -2.878646      6.291459
  H       3.534776     -2.937924      7.077303
  C       2.843085     -0.904848      6.648402
  H       3.214580     -0.374874      7.551137
  O       1.541806     -0.322711      6.223804
  C       1.179637      0.911750      6.669960
  O       1.828219      1.598901      7.459175
  C      -0.149637      1.365877      6.040067
  H      -0.838338      1.601096      6.886524
  H      -0.605471      0.533962      5.461804
  C       3.872172     -0.653132      5.524764
  H       4.816535     -1.198215      5.753222
  H       4.089161      0.436656      5.466595
  O       3.382930     -1.001983      4.192536
  C       3.574231     -2.291524      3.739030
  O       4.184093     -3.152465      4.355409
  C       2.905888     -2.466703      2.368583
  H       3.378785     -1.743219      1.660817
  H       3.142736     -3.492768      2.013739
  C       0.029240      2.644884      5.162888
  H       0.682138      3.355215      5.721091
  H      -0.961497      3.149572      5.063420
  C       0.606789      2.393139      3.737602
  H       1.502347      1.725319      3.787993
  H       0.978658      3.365955      3.334319
  C      -0.427001      1.801133      2.740268
  H      -1.342736      2.443697      2.754205
  H      -0.761237      0.794327      3.092167
  C       0.071966      1.693081      1.274563
  H       0.950591      1.004283      1.222919
  H       0.453128      2.688563      0.939628
  C      -1.036572      1.201090      0.308409
  H      -1.919429      1.883010      0.394535
  H      -1.395034      0.198818      0.643023
  C      -0.637402      1.124365     -1.192218
  H      -1.482343      0.643515     -1.749661
  H       0.228662      0.434566     -1.335598
  C      -0.348828      2.492088     -1.808462
  H      -0.838920      3.348336     -1.299736
  C       0.405609      2.769889     -2.900687
  H       0.491538      3.834067     -3.199261
  C       1.116318      1.774101     -3.803275
  H       1.173797      0.773113     -3.315958
  H       2.173546      2.105044     -3.961091
  C       0.433585      1.613936     -5.201199
  H      -0.623590      1.296610     -5.042639
  H       0.928582      0.775292     -5.749400
  C       0.484743      2.881680     -6.093715
  H       1.556181      3.166756     -6.239324
  H       0.016991      3.744880     -5.564512
  C      -0.164460      2.702850     -7.495613
  H       0.366311      1.881849     -8.038709
  H       0.024616      3.623161     -8.097750
  C      -1.687627      2.381344     -7.504576
  H      -1.855506      1.367638     -7.073284
  H      -2.021054      2.309869     -8.568122
  C      -2.598130      3.391473     -6.753501
  H      -2.367742      3.366537     -5.660173
  H      -3.655609      3.038018     -6.840339
  C      -2.519776      4.854418     -7.260083
  H      -2.714168      4.878415     -8.362392
  H      -1.483105      5.248448     -7.127956
  C      -3.512389      5.799148     -6.537568
  H      -3.436313      6.844230     -6.916850
  H      -3.317581      5.824346     -5.439299
  H      -4.567820      5.466281     -6.679161
  C       1.369025     -2.213522      2.398342
  H       1.174571     -1.226130      2.874880
  H       0.883079     -2.976025      3.055034
  C       0.706520     -2.232275      0.996835
  H       1.249570     -1.520306      0.326204
  H      -0.326501     -1.820718      1.093029
  C       0.623754     -3.619885      0.314079
  H      -0.021554     -4.291150      0.933747
  H       1.628296     -4.108211      0.287178
  C       0.057077     -3.541284     -1.126873
  H      -0.895580     -2.960446     -1.115865
  H       0.762106     -2.952806     -1.765174
  C      -0.185026     -4.926735     -1.775790
  H       0.759173     -5.523053     -1.741310
  H      -0.931190     -5.494466     -1.166879
  C      -0.676327     -4.852911     -3.256486
  H      -0.736155     -5.893458     -3.657792
  H       0.091930     -4.328549     -3.870451
  C      -2.037101     -4.190910     -3.411491
  H      -2.900928     -4.809505     -3.089545
  C      -2.293145     -2.939952     -3.869309
  H      -3.354411     -2.623487     -3.924298
  C      -1.267982     -1.924938     -4.359628
  H      -0.294114     -2.069608     -3.838681
  H      -1.609439     -0.896683     -4.088247
  C      -1.017477     -1.962048     -5.899672
  H      -0.625282     -2.968853     -6.182673
  H      -0.208609     -1.232825     -6.140844
  C      -2.262167     -1.628909     -6.759725
  H      -3.050233     -2.404074     -6.601373
  H      -2.709195     -0.665082     -6.408778
  C      -1.940445     -1.506061     -8.270759
  H      -1.162564     -0.715829     -8.404152
  H      -1.472764     -2.457718     -8.627307
  C      -3.183253     -1.188811     -9.143849
  H      -3.639378     -0.225779     -8.803583
  H      -3.956264     -1.972977     -8.954397
  C      -2.904579     -1.111612    -10.669926
  H      -2.417284     -2.061749    -11.005144
  H      -3.878346     -1.065715    -11.216587
  C      -2.032710      0.094548    -11.111141
  H      -2.529944      1.041178    -10.783497
  H      -1.051592      0.069058    -10.580516
  C      -1.788315      0.141106    -12.639523
  H      -1.171589      1.021887    -12.932275
  H      -1.255915     -0.773774    -12.992232
  H      -2.750116      0.200539    -13.201831
138
Coordinates from ORCA-job /wrk/rja7/qm_final_3_replicates/qm_final_1.1/qm/10/freq E -2722.580411735404
  N       1.313610      0.730974     11.565744
  C       0.674853     -0.066766     10.370113
  H       1.373359      0.057091      9.526834
  H      -0.270420      0.472608     10.139854
  C       2.333329     -0.082498     12.379650
  H       1.824087     -0.946074     12.847958
  H       3.117962     -0.437371     11.677260
  H       2.738921      0.595924     13.160892
  C       0.217584      1.208763     12.501343
  H      -0.337754      0.327994     12.883287
  H       0.675055      1.756133     13.351470
  H      -0.474624      1.881963     11.953680
  C       2.046205      1.927102     10.951034
  H       2.877630      1.520214     10.344414
  H       2.428235      2.574045     11.769335
  H       1.352006      2.482794     10.291177
  C       0.385110     -1.567941     10.597709
  H      -0.250360     -1.717590     11.508367
  H      -0.249760     -1.857399      9.718806
  P       2.850618     -2.369245      9.619803
  O       3.619562     -3.654448      9.789167
  O       3.506028     -0.964900      9.727115
  O       1.517445     -2.412737     10.730397
  O       1.888832     -2.366570      8.193147
  C       2.610527     -2.270149      6.947085
  H       1.987062     -2.765884      6.166648
  H       3.580427     -2.819583      6.993734
  C       2.879506     -0.791599      6.556173
  H       3.244669     -0.261591      7.461073
  O       1.576570     -0.210076      6.126840
  C       1.178634      0.995985      6.615631
  O       1.803646      1.666112      7.437272
  C      -0.155954      1.445829      5.997913
  H      -0.835503      1.693220      6.847221
  H      -0.618548      0.612658      5.425927
  C       3.916000     -0.534358      5.441071
  H       4.858355     -1.077324      5.679331
  H       4.131824      0.556005      5.383356
  O       3.439248     -0.890954      4.106854
  C       3.659347     -2.177861      3.657403
  O       4.286264     -3.021993      4.279601
  C       2.983230     -2.377374      2.295031
  H       3.424143     -1.647175      1.573292
  H       3.241485     -3.398988      1.944224
  C       0.029840      2.717970      5.112350
  H       0.683221      3.430465      5.667727
  H      -0.959687      3.224162      5.005921
  C       0.612504      2.451339      3.694746
  H       1.513856      1.793747      3.756699
  H       0.972341      3.424168      3.279617
  C      -0.412223      1.846015      2.698511
  H      -1.340672      2.470040      2.718197
  H      -0.725950      0.829305      3.038320
  C       0.095961      1.752216      1.236560
  H       0.986151      1.078382      1.191543
  H       0.458790      2.757056      0.909700
  C      -0.991621      1.248695      0.252670
  H      -1.885703      1.917372      0.321089
  H      -1.344162      0.240186      0.574971
  C      -0.538564      1.174902     -1.231698
  H      -1.355183      0.682976     -1.818689
  H       0.340307      0.494626     -1.325670
  C      -0.223479      2.539105     -1.837692
  H      -0.697584      3.405470     -1.330460
  C       0.525593      2.789403     -2.941231
  H       0.643629      3.846689     -3.251148
  C       1.170883      1.754276     -3.851104
  H       1.184462      0.759050     -3.353702
  H       2.239796      2.031856     -4.037386
  C       0.450664      1.610370     -5.232483
  H      -0.619272      1.352561     -5.046333
  H       0.885845      0.736455     -5.773708
  C       0.560722      2.859140     -6.147543
  H       1.641842      3.094869     -6.306906
  H       0.139451      3.746477     -5.619873
  C      -0.127936      2.709591     -7.533980
  H       0.340482      1.858223     -8.085856
  H       0.103752      3.617490     -8.141215
  C      -1.669953      2.491945     -7.505367
  H      -1.895737      1.491250     -7.072552
  H      -2.038434      2.444087     -8.559571
  C      -2.493952      3.557493     -6.723688
  H      -2.216080      3.536398     -5.640745
  H      -3.569667      3.256663     -6.757037
  C      -2.367473      5.007462     -7.258294
  H      -2.612402      5.019331     -8.348487
  H      -1.309371      5.351219     -7.181209
  C      -3.284174      6.009531     -6.512940
  H      -3.179883      7.042675     -6.917799
  H      -3.041199      6.048225     -5.424866
  H      -4.357827      5.718682     -6.600658
  C       1.438085     -2.166802      2.350844
  H       1.226857     -1.167463      2.791958
  H       0.986965     -2.918398      3.044326
  C       0.753002     -2.267056      0.961176
  H       1.257359     -1.555432      0.259420
  H      -0.296312     -1.897357      1.052496
  C       0.721082     -3.678079      0.321382
  H       0.112300     -4.361894      0.963904
  H       1.746964     -4.117683      0.292521
  C       0.143605     -3.645208     -1.115517
  H      -0.832676     -3.103091     -1.105544
  H       0.815822     -3.025783     -1.759274
  C      -0.049484     -5.033938     -1.772155
  H       0.917638     -5.593415     -1.755765
  H      -0.763603     -5.639686     -1.160254
  C      -0.562815     -4.954547     -3.246399
  H      -0.588379     -5.989407     -3.667123
  H       0.177554     -4.391036     -3.859353
  C      -1.953189     -4.345764     -3.371001
  H      -2.784174     -4.998128     -3.030791
  C      -2.263889     -3.095864     -3.798779
  H      -3.335052     -2.811238     -3.816626
  C      -1.281436     -2.041286     -4.296837
  H      -0.291839     -2.165688     -3.806711
  H      -1.646643     -1.028375     -3.994554
  C      -1.075401     -2.050691     -5.846081
  H      -0.675944     -3.046919     -6.154584
  H      -0.285951     -1.302445     -6.102239
  C      -2.350957     -1.737594     -6.667486
  H      -3.121480     -2.525301     -6.485219
  H      -2.801916     -0.782803     -6.297433
  C      -2.080808     -1.627982     -8.191298
  H      -1.291330     -0.859679     -8.359773
  H      -1.650364     -2.591138     -8.563313
  C      -3.341195     -1.273267     -9.022745
  H      -3.764297     -0.305681     -8.651878
  H      -4.125574     -2.044865     -8.828825
  C      -3.094948     -1.167728    -10.552772
  H      -2.627237     -2.116769    -10.916655
  H      -4.080067     -1.094193    -11.075757
  C      -2.215723      0.035783    -10.988492
  H      -2.692525      0.983058    -10.632611
  H      -1.224504     -0.013478    -10.477956
  C      -1.995843      0.107044    -12.519726
  H      -1.367879      0.982407    -12.805191
  H      -1.484034     -0.809549    -12.897200
  H      -2.964111      0.195842    -13.067074
138
Coordinates from ORCA-job /wrk/rja7/qm_final_3_replicates/qm_final_1.1/qm/10/freq E -2722.581352306791
  N       1.376263      0.778842     11.504435
  C       0.709990     -0.020124     10.323966
  H       1.416568      0.057079      9.481963
  H      -0.210596      0.553880     10.078328
  C       2.356191     -0.052085     12.349689
  H       1.811152     -0.885068     12.832344
  H       3.136387     -0.449396     11.664578
  H       2.777837      0.629821     13.119004
  C       0.290220      1.326439     12.412257
  H      -0.308913      0.479715     12.805265
  H       0.758915      1.873857     13.256370
  H      -0.363295      2.015303     11.837537
  C       2.163489      1.927137     10.864482
  H       2.982840      1.471406     10.274928
  H       2.561972      2.580085     11.669640
  H       1.495561      2.494059     10.186137
  C       0.354537     -1.503605     10.578020
  H      -0.294362     -1.609537     11.485701
  H      -0.284786     -1.780527      9.697728
  P       2.795091     -2.400770      9.636609
  O       3.520145     -3.709125      9.819057
  O       3.491373     -1.017190      9.744150
  O       1.447938     -2.393882     10.730807
  O       1.843896     -2.370891      8.202113
  C       2.573121     -2.282018      6.960416
  H       1.947636     -2.768401      6.175440
  H       3.536772     -2.843027      7.008358
  C       2.856682     -0.805296      6.582882
  H       3.222214     -0.285929      7.494680
  O       1.561190     -0.211693      6.151266
  C       1.150285      0.975994      6.671544
  O       1.757018      1.624919      7.523926
  C      -0.172739      1.438162      6.040190
  H      -0.854367      1.703442      6.882104
  H      -0.642202      0.607007      5.471377
  C       3.893705     -0.547180      5.469366
  H       4.835166     -1.094158      5.703458
  H       4.110787      0.542934      5.417196
  O       3.411963     -0.892882      4.133469
  C       3.632305     -2.174678      3.668889
  O       4.274384     -3.020209      4.273446
  C       2.946361     -2.363769      2.309286
  H       3.360074     -1.605741      1.600813
  H       3.229507     -3.370352      1.934409
  C       0.035849      2.700578      5.144167
  H       0.696564      3.408816      5.696297
  H      -0.945986      3.219624      5.030592
  C       0.620821      2.415142      3.730930
  H       1.511610      1.744341      3.800253
  H       0.997953      3.379291      3.311092
  C      -0.409307      1.814228      2.737830
  H      -1.327207      2.453810      2.746752
  H      -0.739987      0.806215      3.089374
  C       0.099818      1.698764      1.277893
  H       0.981440      1.013098      1.238884
  H       0.477158      2.694770      0.940687
  C      -0.994992      1.200207      0.300406
  H      -1.884210      1.874896      0.373830
  H      -1.350988      0.194279      0.626415
  C      -0.558621      1.126618     -1.189053
  H      -1.386012      0.643183     -1.767398
  H       0.314735      0.439712     -1.298349
  C      -0.250036      2.493627     -1.794607
  H      -0.736889      3.354063     -1.289876
  C       0.513086      2.759868     -2.884493
  H       0.614987      3.821024     -3.187886
  C       1.200243      1.744981     -3.785719
  H       1.242557      0.749841     -3.287501
  H       2.260739      2.056752     -3.960981
  C       0.497474      1.578497     -5.173900
  H      -0.565584      1.289554     -4.997933
  H       0.964394      0.718078     -5.710990
  C       0.576207      2.829727     -6.088240
  H       1.652275      3.089644     -6.243089
  H       0.131636      3.708657     -5.564647
  C      -0.093627      2.656565     -7.481321
  H       0.407679      1.818677     -8.025678
  H       0.114327      3.569616     -8.089002
  C      -1.626455      2.383611     -7.470642
  H      -1.822206      1.373042     -7.043412
  H      -1.978308      2.327612     -8.529864
  C      -2.495502      3.417254     -6.699268
  H      -2.245398      3.385761     -5.610193
  H      -3.563372      3.093482     -6.765781
  C      -2.384767      4.878603     -7.206706
  H      -2.601606      4.906367     -8.303675
  H      -1.335027      5.241269     -7.095967
  C      -3.338312      5.849937     -6.467225
  H      -3.244677      6.891778     -6.851679
  H      -3.121938      5.874497     -5.372985
  H      -4.403902      5.541362     -6.586119
  C       1.396456     -2.198244      2.380040
  H       1.160331     -1.221412      2.858702
  H       0.970847     -2.985284      3.049575
  C       0.707584     -2.265314      0.990723
  H       1.192311     -1.519374      0.311887
  H      -0.349185     -1.922504      1.099551
  C       0.705865     -3.654557      0.303160
  H       0.116557     -4.373066      0.925227
  H       1.741536     -4.070196      0.256259
  C       0.119657     -3.592876     -1.130195
  H      -0.873087     -3.082562     -1.100122
  H       0.772728     -2.936036     -1.756887
  C      -0.029417     -4.969133     -1.824239
  H       0.954348     -5.499009     -1.818506
  H      -0.726638     -5.611413     -1.230885
  C      -0.536302     -4.874390     -3.299968
  H      -0.535498     -5.902435     -3.737083
  H       0.195267     -4.283966     -3.898117
  C      -1.938149     -4.294869     -3.425577
  H      -2.757335     -4.970428     -3.102192
  C      -2.274580     -3.050774     -3.849628
  H      -3.352409     -2.793465     -3.878653
  C      -1.315331     -1.970854     -4.337885
  H      -0.327960     -2.067477     -3.834377
  H      -1.711688     -0.968951     -4.041981
  C      -1.087918     -1.971340     -5.882783
  H      -0.654037     -2.954757     -6.186818
  H      -0.317919     -1.200767     -6.125704
  C      -2.360355     -1.689984     -6.719430
  H      -3.113592     -2.496452     -6.547106
  H      -2.838469     -0.745636     -6.356586
  C      -2.072502     -1.564716     -8.237104
  H      -1.303087     -0.771331     -8.390601
  H      -1.606798     -2.512623     -8.605662
  C      -3.332571     -1.247803     -9.084250
  H      -3.792042     -0.295429     -8.718326
  H      -4.095358     -2.043285     -8.900812
  C      -3.071839     -1.132415    -10.611010
  H      -2.566694     -2.064047    -10.970207
  H      -4.051900     -1.093793    -11.146746
  C      -2.229996      0.102060    -11.032765
  H      -2.747366      1.031131    -10.684897
  H      -1.246019      0.089666    -10.506684
  C      -1.990596      0.182621    -12.560370
  H      -1.391865      1.081011    -12.836815
  H      -1.440353     -0.714242    -12.931341
  H      -2.953539      0.234851    -13.121660
138
Coordinates from ORCA-job /wrk/rja7/qm_final_3_replicates/qm_final_1.1/qm/10/freq E -2722.581493455280
  N       1.416103      0.753297     11.468323
  C       0.738625     -0.054477     10.299774
  H       1.435302      0.019282      9.448664
  H      -0.186062      0.516005     10.061048
  C       2.406970     -0.069269     12.310057
  H       1.870079     -0.904946     12.796699
  H       3.186515     -0.461290     11.621470
  H       2.827913      0.617286     13.075519
  C       0.335304      1.302486     12.381745
  H      -0.256110      0.455626     12.785757
  H       0.807996      1.859328     13.217587
  H      -0.326097      1.982895     11.806282
  C       2.192599      1.901802     10.814741
  H       3.007918      1.448125     10.217216
  H       2.594007      2.559591     11.614158
  H       1.512967      2.463443     10.143154
  C       0.386688     -1.536672     10.565300
  H      -0.246911     -1.640220     11.484216
  H      -0.267594     -1.814630      9.696251
  P       2.815213     -2.422713      9.588311
  O       3.529113     -3.742298      9.730460
  O       3.524208     -1.048439      9.717423
  O       1.481580     -2.427334     10.698146
  O       1.843524     -2.351644      8.167036
  C       2.558894     -2.258100      6.918766
  H       1.921807     -2.733057      6.135943
  H       3.518755     -2.826818      6.951335
  C       2.849860     -0.780808      6.551780
  H       3.215716     -0.267171      7.467082
  O       1.556659     -0.179657      6.120424
  C       1.129456      0.988141      6.672718
  O       1.723416      1.617036      7.548945
  C      -0.195922      1.457028      6.049462
  H      -0.870092      1.725949      6.895809
  H      -0.672023      0.629860      5.480600
  C       3.892257     -0.526209      5.442630
  H       4.832506     -1.072598      5.683545
  H       4.108714      0.563777      5.386984
  O       3.417503     -0.879116      4.106696
  C       3.634737     -2.165688      3.651434
  O       4.270178     -3.011084      4.263006
  C       2.944590     -2.360259      2.295951
  H       3.355633     -1.605564      1.582732
  H       3.223946     -3.369102      1.923708
  C       0.012940      2.720835      5.152212
  H       0.674042      3.428201      5.705140
  H      -0.968846      3.240365      5.040681
  C       0.593758      2.437270      3.736999
  H       1.487709      1.770949      3.804150
  H       0.965302      3.402636      3.315058
  C      -0.438204      1.831739      2.746884
  H      -1.358515      2.467844      2.757577
  H      -0.764509      0.822880      3.099304
  C       0.070620      1.715768      1.286202
  H       0.952794      1.030607      1.247737
  H       0.448191      2.711819      0.949350
  C      -1.021107      1.216617      0.304749
  H      -1.912555      1.888468      0.377817
  H      -1.375078      0.208609      0.626428
  C      -0.579561      1.149220     -1.184400
  H      -1.403398      0.665957     -1.769999
  H       0.295286      0.465006     -1.291939
  C      -0.271448      2.519795     -1.782933
  H      -0.768122      3.375967     -1.280706
  C       0.506776      2.796216     -2.859186
  H       0.604771      3.859611     -3.156339
  C       1.217228      1.791146     -3.753100
  H       1.276064      0.798414     -3.250658
  H       2.271540      2.122754     -3.926702
  C       0.520538      1.607615     -5.142244
  H      -0.534736      1.293196     -4.966149
  H       1.009423      0.760127     -5.681744
  C       0.565720      2.864185     -6.051245
  H       1.635260      3.142167     -6.219723
  H       0.114162      3.732861     -5.516407
  C      -0.121411      2.686347     -7.434214
  H       0.384620      1.858374     -7.989512
  H       0.061634      3.605465     -8.040546
  C      -1.649031      2.388715     -7.399762
  H      -1.821729      1.371525     -6.977653
  H      -2.019184      2.336858     -8.452283
  C      -2.518539      3.402903     -6.605905
  H      -2.257703      3.356690     -5.519990
  H      -3.584991      3.073018     -6.667231
  C      -2.420085      4.872662     -7.092361
  H      -2.641739      4.915408     -8.188630
  H      -1.371810      5.239929     -6.980754
  C      -3.376003      5.826599     -6.333816
  H      -3.291423      6.874692     -6.703073
  H      -3.154179      5.836635     -5.240369
  H      -4.440227      5.513134     -6.451857
  C       1.396746     -2.188440      2.377189
  H       1.171950     -1.209669      2.856328
  H       0.972277     -2.971975      3.051355
  C       0.696650     -2.249664      0.994304
  H       1.188406     -1.515311      0.308889
  H      -0.353814     -1.889969      1.110480
  C       0.662635     -3.641632      0.313687
  H       0.061227     -4.344299      0.942043
  H       1.688503     -4.080826      0.263568
  C       0.068843     -3.571000     -1.115869
  H      -0.904347     -3.024789     -1.084437
  H       0.742799     -2.944385     -1.751650
  C      -0.135848     -4.946384     -1.796064
  H       0.825747     -5.515459     -1.787045
  H      -0.857259     -5.555201     -1.196612
  C      -0.638226     -4.844709     -3.272611
  H      -0.668460     -5.875160     -3.702886
  H       0.113094     -4.281596     -3.872445
  C      -2.020503     -4.222006     -3.404776
  H      -2.860979     -4.866678     -3.072887
  C      -2.317259     -2.975080     -3.849486
  H      -3.386699     -2.685599     -3.886779
  C      -1.324676     -1.930818     -4.348017
  H      -0.344338     -2.043635     -3.832768
  H      -1.697888     -0.913705     -4.074015
  C      -1.082865     -1.968176     -5.889994
  H      -0.670855     -2.968551     -6.168366
  H      -0.289552     -1.223803     -6.138545
  C      -2.338044     -1.672134     -6.748612
  H      -3.112993     -2.456470     -6.571100
  H      -2.797325     -0.709461     -6.411048
  C      -2.027610     -1.585257     -8.264195
  H      -1.240584     -0.809642     -8.424607
  H      -1.574792     -2.549977     -8.604024
  C      -3.270075     -1.267473     -9.137230
  H      -3.716142     -0.296909     -8.804215
  H      -4.050872     -2.042316     -8.941859
  C      -2.990042     -1.205116    -10.664386
  H      -2.507896     -2.161249    -10.989240
  H      -3.962920     -1.155597    -11.212035
  C      -2.107920     -0.009834    -11.114972
  H      -2.595417      0.943425    -10.792703
  H      -1.125970     -0.040385    -10.586148
  C      -1.862878      0.024433    -12.643414
  H      -1.235984      0.896596    -12.940725
  H      -1.340270     -0.898087    -12.990705
  H      -2.822257      0.092376    -13.209121
138
Coordinates from ORCA-job /wrk/rja7/qm_final_3_replicates/qm_final_1.1/qm/10/freq E -2722.581704004805
  N       1.416626      0.746082     11.502365
  C       0.733520     -0.019612     10.309168
  H       1.428407      0.079001      9.458893
  H      -0.190142      0.560459     10.090651
  C       2.396413     -0.114175     12.319054
  H       1.847399     -0.958499     12.776160
  H       3.173724     -0.492193     11.620137
  H       2.822148      0.542276     13.107746
  C       0.338927      1.274193     12.432136
  H      -0.262272      0.419329     12.802833
  H       0.814159      1.795718     13.289077
  H      -0.313571      1.981591     11.879650
  C       2.204859      1.909175     10.890026
  H       3.020422      1.469174     10.282889
  H       2.603489      2.538370     11.713277
  H       1.531970      2.496489     10.234024
  C       0.377003     -1.507930     10.529432
  H      -0.253747     -1.636793     11.447083
  H      -0.282071     -1.755917      9.655029
  P       2.795312     -2.375401      9.513217
  O       3.510129     -3.697620      9.619572
  O       3.504900     -1.005422      9.668207
  O       1.468667     -2.407345     10.628522
  O       1.817172     -2.273195      8.097044
  C       2.529671     -2.177206      6.847988
  H       1.885871     -2.638199      6.061758
  H       3.484147     -2.755554      6.872426
  C       2.834928     -0.699669      6.493209
  H       3.207941     -0.195611      7.410829
  O       1.547604     -0.082711      6.067485
  C       1.098822      1.050238      6.670756
  O       1.676885      1.649233      7.578167
  C      -0.225162      1.529202      6.055303
  H      -0.889452      1.815262      6.903234
  H      -0.713763      0.704417      5.493731
  C       3.874806     -0.451273      5.381387
  H       4.814272     -0.998027      5.623899
  H       4.091755      0.638122      5.317090
  O       3.394742     -0.815841      4.050373
  C       3.618421     -2.104450      3.603217
  O       4.265547     -2.939709      4.216380
  C       2.916775     -2.316533      2.256317
  H       3.292282     -1.545801      1.540950
  H       3.223649     -3.314672      1.876781
  C      -0.004422      2.782745      5.145093
  H       0.658848      3.492002      5.693212
  H      -0.983287      3.306193      5.025887
  C       0.580750      2.481411      3.736122
  H       1.476963      1.819906      3.814305
  H       0.949139      3.442658      3.302020
  C      -0.445380      1.856288      2.752713
  H      -1.367188      2.490191      2.748292
  H      -0.769258      0.851648      3.120106
  C       0.071051      1.718124      1.297154
  H       0.952346      1.031068      1.272880
  H       0.452950      2.708446      0.948439
  C      -1.015619      1.209864      0.315796
  H      -1.906034      1.884382      0.375476
  H      -1.373150      0.205944      0.645941
  C      -0.562680      1.125704     -1.168987
  H      -1.381492      0.640007     -1.758141
  H       0.310450      0.436722     -1.258209
  C      -0.240525      2.488439     -1.778077
  H      -0.734779      3.352779     -1.287768
  C       0.559521      2.751333     -2.841440
  H       0.670613      3.811785     -3.144430
  C       1.276405      1.734138     -3.715875
  H       1.331950      0.748467     -3.198627
  H       2.330872      2.064265     -3.889014
  C       0.585213      1.531429     -5.105174
  H      -0.470009      1.218431     -4.927916
  H       1.077367      0.678392     -5.632682
  C       0.628842      2.777917     -6.027423
  H       1.698063      3.052375     -6.203503
  H       0.181090      3.651763     -5.498101
  C      -0.066153      2.587938     -7.404777
  H       0.438540      1.757650     -7.957590
  H       0.108332      3.503916     -8.018203
  C      -1.592389      2.284461     -7.356446
  H      -1.757450      1.263108     -6.941282
  H      -1.973837      2.239726     -8.405704
  C      -2.455705      3.288531     -6.543262
  H      -2.184287      3.230586     -5.460512
  H      -3.522474      2.958490     -6.598300
  C      -2.363452      4.764216     -7.012805
  H      -2.594630      4.819052     -8.106333
  H      -1.314536      5.130702     -6.906177
  C      -3.313068      5.707464     -6.234072
  H      -3.234587      6.759922     -6.592146
  H      -3.080276      5.705983     -5.142857
  H      -4.377646      5.392623     -6.344989
  C       1.364177     -2.196325      2.356501
  H       1.113051     -1.228563      2.846343
  H       0.971880     -2.998456      3.028159
  C       0.656472     -2.267990      0.978077
  H       1.120999     -1.512103      0.297552
  H      -0.404781     -1.944090      1.102871
  C       0.664485     -3.653779      0.282722
  H       0.089203     -4.382213      0.906159
  H       1.703832     -4.058889      0.223364
  C       0.063501     -3.587075     -1.144334
  H      -0.927100     -3.073400     -1.105058
  H       0.716385     -2.931860     -1.773372
  C      -0.098356     -4.959458     -1.841743
  H       0.879730     -5.499795     -1.840380
  H      -0.801421     -5.598399     -1.251923
  C      -0.600722     -4.851216     -3.318074
  H      -0.603784     -5.876154     -3.762603
  H       0.137684     -4.260582     -3.907386
  C      -1.997286     -4.261628     -3.444629
  H      -2.821494     -4.928037     -3.114797
  C      -2.322761     -3.019359     -3.880997
  H      -3.398208     -2.752556     -3.914514
  C      -1.353294     -1.951153     -4.373910
  H      -0.370587     -2.047081     -3.859040
  H      -1.748556     -0.944984     -4.091871
  C      -1.111136     -1.968558     -5.915587
  H      -0.681945     -2.958493     -6.205304
  H      -0.329790     -1.209000     -6.155182
  C      -2.371537     -1.679890     -6.768960
  H      -3.134220     -2.478561     -6.602794
  H      -2.844079     -0.729523     -6.415790
  C      -2.064285     -1.559891     -8.282203
  H      -1.290146     -0.768617     -8.429599
  H      -1.595147     -2.510375     -8.639797
  C      -3.311743     -1.244935     -9.148276
  H      -3.775634     -0.290631     -8.793266
  H      -4.079502     -2.037233     -8.971705
  C      -3.031784     -1.139597    -10.672996
  H      -2.529585     -2.077154    -11.020810
  H      -4.004614     -1.096358    -11.221043
  C      -2.173346      0.084490    -11.090734
  H      -2.680248      1.019520    -10.744236
  H      -1.191794      0.059404    -10.561161
  C      -1.926577      0.164110    -12.616961
  H      -1.315620      1.055440    -12.889555
  H      -1.386714     -0.739126    -12.987829
  H      -2.885775      0.229966    -13.183422
138
Coordinates from ORCA-job /wrk/rja7/qm_final_3_replicates/qm_final_1.1/qm/10/freq E -2722.581831003157
  N       1.270919      0.736469     11.476291
  C       0.623081     -0.010890     10.252759
  H       1.339860      0.104102      9.423755
  H      -0.295949      0.569202     10.015815
  C       2.214873     -0.142360     12.315119
  H       1.642662     -0.987232     12.741607
  H       3.013636     -0.517617     11.639639
  H       2.617458      0.499755     13.127554
  C       0.167223      1.262361     12.376833
  H      -0.452574      0.407659     12.715973
  H       0.617543      1.768898     13.255920
  H      -0.461218      1.982343     11.812693
  C       2.088881      1.899657     10.904967
  H       2.923340      1.457017     10.326561
  H       2.459214      2.518972     11.748773
  H       1.446080      2.494892     10.226787
  C       0.264306     -1.502284     10.441467
  H      -0.385648     -1.645296     11.343466
  H      -0.377205     -1.737980      9.550768
  P       2.710695     -2.351282      9.474574
  O       3.415406     -3.680066      9.569194
  O       3.423801     -0.990429      9.678529
  O       1.354387     -2.403171     10.550298
  O       1.776487     -2.214642      8.029577
  C       2.530696     -2.124006      6.805593
  H       1.907152     -2.572498      5.996085
  H       3.475816     -2.715307      6.859407
  C       2.868292     -0.649026      6.461164
  H       3.239821     -0.154633      7.384369
  O       1.598760     -0.005042      6.021259
  C       1.116458      1.085868      6.672489
  O       1.663954      1.648095      7.621674
  C      -0.184276      1.592939      6.032542
  H      -0.848052      1.916077      6.866328
  H      -0.690890      0.775372      5.476171
  C       3.923574     -0.417720      5.360221
  H       4.852871     -0.975655      5.615420
  H       4.156088      0.668488      5.292935
  O       3.452354     -0.783667      4.026437
  C       3.685249     -2.071038      3.578635
  O       4.339762     -2.901661      4.190031
  C       2.985161     -2.285405      2.231720
  H       3.334568     -1.496612      1.523059
  H       3.313931     -3.271363      1.839003
  C       0.085827      2.823670      5.102447
  H       0.765444      3.522179      5.644818
  H      -0.876185      3.374177      4.967669
  C       0.669613      2.483440      3.702222
  H       1.551938      1.805645      3.794130
  H       1.056302      3.429889      3.251636
  C      -0.366402      1.861862      2.726983
  H      -1.282238      2.504318      2.723086
  H      -0.697463      0.861787      3.100413
  C       0.142017      1.713657      1.269656
  H       1.012976      1.013785      1.242453
  H       0.536626      2.698183      0.918508
  C      -0.956500      1.222362      0.292963
  H      -1.837868      1.907972      0.360661
  H      -1.324597      0.221089      0.619915
  C      -0.510638      1.139902     -1.194349
  H      -1.337565      0.670163     -1.784222
  H       0.352019      0.438589     -1.288534
  C      -0.166734      2.499653     -1.796729
  H      -0.659038      3.369108     -1.313371
  C       0.650874      2.752446     -2.849198
  H       0.779504      3.810987     -3.151472
  C       1.364846      1.723550     -3.712849
  H       1.418529      0.744225     -3.184368
  H       2.419719      2.049293     -3.891357
  C       0.670117      1.506151     -5.098724
  H      -0.384114      1.193274     -4.915078
  H       1.161943      0.648546     -5.618913
  C       0.708862      2.745353     -6.031095
  H       1.776836      3.014327     -6.222696
  H       0.272467      3.623558     -5.500317
  C      -0.008193      2.553956     -7.396750
  H       0.478456      1.715352     -7.953163
  H       0.166797      3.465143     -8.017242
  C      -1.537510      2.269965     -7.322180
  H      -1.708303      1.248846     -6.910131
  H      -1.939263      2.235903     -8.364488
  C      -2.372876      3.278792     -6.484389
  H      -2.074923      3.215732     -5.408833
  H      -3.442913      2.956494     -6.514068
  C      -2.283882      4.755379     -6.951559
  H      -2.540250      4.814243     -8.038476
  H      -1.231002      5.115709     -6.868754
  C      -3.209561      5.700741     -6.147200
  H      -3.134532      6.754005     -6.503609
  H      -2.950617      5.694279     -5.061945
  H      -4.277905      5.390792     -6.233411
  C       1.429752     -2.206680      2.343340
  H       1.155845     -1.246736      2.837312
  H       1.064074     -3.021749      3.014309
  C       0.716119     -2.295622      0.968785
  H       1.151227     -1.519891      0.291216
  H      -0.355574     -2.010762      1.100460
  C       0.771133     -3.675480      0.263121
  H       0.229070     -4.429907      0.885673
  H       1.824484     -4.040232      0.192153
  C       0.154906     -3.619719     -1.157957
  H      -0.853557     -3.143188     -1.104846
  H       0.776233     -2.933442     -1.785762
  C       0.037377     -4.988149     -1.871174
  H       1.033886     -5.493764     -1.885214
  H      -0.637698     -5.660666     -1.285883
  C      -0.481201     -4.873670     -3.341311
  H      -0.449108     -5.889455     -3.805733
  H       0.228431     -4.243562     -3.924961
  C      -1.900918     -4.337327     -3.442248
  H      -2.692796     -5.037458     -3.103075
  C      -2.280695     -3.104194     -3.860136
  H      -3.365758     -2.877271     -3.871599
  C      -1.360551     -1.995371     -4.358260
  H      -0.364984     -2.062195     -3.864319
  H      -1.786677     -1.008080     -4.054973
  C      -1.150535     -1.982864     -5.904503
  H      -0.696567     -2.953811     -6.219276
  H      -0.399557     -1.194380     -6.149429
  C      -2.439581     -1.722670     -6.723557
  H      -3.172439     -2.547465     -6.550760
  H      -2.932511     -0.793005     -6.344127
  C      -2.174424     -1.571370     -8.241769
  H      -1.421659     -0.761778     -8.396141
  H      -1.695370     -2.505703     -8.627967
  C      -3.450493     -1.265751     -9.068152
  H      -3.922880     -0.327518     -8.681929
  H      -4.197684     -2.076561     -8.887221
  C      -3.213618     -1.123569    -10.597013
  H      -2.703298     -2.043516    -10.978395
  H      -4.201860     -1.087712    -11.117366
  C      -2.391555      0.126538    -11.011307
  H      -2.904217      1.043498    -10.626024
  H      -1.393147      0.107003    -10.513860
  C      -2.194471      0.246771    -12.542085
  H      -1.608105      1.155365    -12.811785
  H      -1.650376     -0.637355    -12.950861
  H      -3.171860      0.308669    -13.076942
138
Coordinates from ORCA-job /wrk/rja7/qm_final_3_replicates/qm_final_1.1/qm/10/freq E -2722.581888665158
  N       1.297468      0.686229     11.578441
  C       0.641774     -0.032635     10.342724
  H       1.354102      0.097592      9.511732
  H      -0.276367      0.554465     10.120298
  C       2.234248     -0.216249     12.400257
  H       1.651011     -1.059153     12.815063
  H       3.026236     -0.593562     11.718175
  H       2.647566      0.409001     13.220125
  C       0.200669      1.204704     12.492587
  H      -0.423916      0.348987     12.819279
  H       0.657916      1.692999     13.378399
  H      -0.425771      1.937908     11.943454
  C       2.123978      1.851777     11.025843
  H       2.957572      1.412162     10.444172
  H       2.493407      2.456965     11.880248
  H       1.485989      2.459802     10.354328
  C       0.283198     -1.527682     10.497491
  H      -0.355110     -1.696373     11.403357
  H      -0.369497     -1.738966      9.608666
  P       2.718077     -2.343197      9.474102
  O       3.422249     -3.675237      9.517175
  O       3.434257     -0.990561      9.708893
  O       1.375505     -2.428918     10.564731
  O       1.763514     -2.165339      8.044350
  C       2.504397     -2.077566      6.812585
  H       1.871876     -2.522143      6.007860
  H       3.446279     -2.674865      6.856175
  C       2.848516     -0.603437      6.462916
  H       3.217188     -0.104787      7.384785
  O       1.588400      0.045062      6.005745
  C       1.069320      1.101723      6.684846
  O       1.572512      1.625326      7.679866
  C      -0.214307      1.619143      6.019059
  H      -0.891767      1.948740      6.838392
  H      -0.716106      0.804568      5.453409
  C       3.910450     -0.386405      5.365586
  H       4.833451     -0.950198      5.629351
  H       4.150741      0.697726      5.289561
  O       3.440822     -0.757548      4.032297
  C       3.677825     -2.044301      3.581955
  O       4.332303     -2.876099      4.191244
  C       2.980824     -2.250691      2.232318
  H       3.311210     -1.442213      1.536848
  H       3.327186     -3.223097      1.821112
  C       0.081330      2.840770      5.083307
  H       0.760005      3.537765      5.629194
  H      -0.874238      3.398779      4.933457
  C       0.676302      2.485391      3.690805
  H       1.553891      1.803798      3.796277
  H       1.071321      3.426626      3.236751
  C      -0.354506      1.862508      2.709054
  H      -1.267521      2.508774      2.694235
  H      -0.693186      0.865860      3.084763
  C       0.167056      1.707665      1.255680
  H       1.034060      1.002482      1.237528
  H       0.572482      2.689114      0.908047
  C      -0.923595      1.221831      0.266435
  H      -1.804293      1.908862      0.328619
  H      -1.296474      0.219645      0.585982
  C      -0.466789      1.145118     -1.218926
  H      -1.288557      0.676638     -1.817232
  H       0.397226      0.445063     -1.315147
  C      -0.120924      2.508008     -1.813094
  H      -0.616020      3.374785     -1.327636
  C       0.703116      2.768354     -2.858471
  H       0.830270      3.828855     -3.153923
  C       1.429100      1.746403     -3.720697
  H       1.495553      0.768086     -3.192084
  H       2.480386      2.083787     -3.898102
  C       0.735329      1.522193     -5.105581
  H      -0.314246      1.195779     -4.919268
  H       1.235990      0.671961     -5.630399
  C       0.753733      2.764980     -6.034931
  H       1.817772      3.046481     -6.230651
  H       0.309674      3.636821     -5.501250
  C       0.034018      2.565959     -7.399498
  H       0.530773      1.733911     -7.956504
  H       0.193981      3.478417     -8.022014
  C      -1.491508      2.258227     -7.321183
  H      -1.644571      1.238694     -6.898854
  H      -1.892669      2.206452     -8.362812
  C      -2.346286      3.262224     -6.496225
  H      -2.028293      3.240478     -5.424842
  H      -3.404756      2.902360     -6.497213
  C      -2.321993      4.727120     -7.007083
  H      -2.602359      4.746196     -8.089715
  H      -1.282189      5.128863     -6.957060
  C      -3.264520      5.660189     -6.208285
  H      -3.235211      6.705627     -6.593434
  H      -2.982470      5.691790     -5.129266
  H      -4.322672      5.310604     -6.262906
  C       1.424334     -2.203401      2.351900
  H       1.136325     -1.257937      2.864894
  H       1.077616     -3.037554      3.009230
  C       0.702012     -2.275563      0.980952
  H       1.120124     -1.480229      0.315792
  H      -0.372901     -2.010812      1.128209
  C       0.771215     -3.640537      0.248712
  H       0.250980     -4.415685      0.864640
  H       1.829488     -3.985858      0.157922
  C       0.133343     -3.574222     -1.163078
  H      -0.884110     -3.121002     -1.088408
  H       0.730762     -2.866576     -1.790122
  C       0.036403     -4.936911     -1.890340
  H       1.041994     -5.423797     -1.913704
  H      -0.623599     -5.626654     -1.308134
  C      -0.492253     -4.820651     -3.356708
  H      -0.440325     -5.831686     -3.829792
  H       0.200916     -4.170584     -3.938044
  C      -1.923205     -4.313358     -3.448269
  H      -2.698127     -5.030534     -3.105626
  C      -2.332473     -3.090807     -3.870208
  H      -3.422626     -2.889553     -3.881836
  C      -1.438113     -1.961643     -4.370039
  H      -0.445186     -2.000004     -3.868486
  H      -1.891296     -0.982878     -4.076166
  C      -1.214794     -1.953493     -5.914608
  H      -0.746023     -2.920087     -6.220629
  H      -0.470894     -1.156961     -6.154989
  C      -2.498025     -1.710806     -6.748358
  H      -3.227717     -2.537979     -6.574004
  H      -3.000154     -0.779132     -6.385350
  C      -2.216851     -1.575897     -8.265538
  H      -1.459938     -0.770509     -8.418998
  H      -1.737695     -2.515909     -8.637756
  C      -3.482901     -1.273747     -9.108311
  H      -3.951348     -0.326200     -8.740977
  H      -4.238196     -2.075672     -8.921196
  C      -3.232598     -1.160920    -10.637628
  H      -2.733394     -2.094902    -10.999240
  H      -4.216634     -1.120297    -11.165634
  C      -2.388068      0.068384    -11.068779
  H      -2.883948      0.999839    -10.697469
  H      -1.390204      0.037613    -10.570683
  C      -2.188262      0.163243    -12.601008
  H      -1.584648      1.056585    -12.883265
  H      -1.661402     -0.736773    -12.997594
  H      -3.164318      0.236105    -13.136928
138
Coordinates from ORCA-job /wrk/rja7/qm_final_3_replicates/qm_final_1.1/qm/10/freq E -2722.581990147354
  N       1.307456      0.666196     11.548832
  C       0.643234     -0.034162     10.307457
  H       1.359724      0.093729      9.479719
  H      -0.267592      0.566207     10.089984
  C       2.245121     -0.248855     12.357035
  H       1.662349     -1.095620     12.764731
  H       3.031837     -0.619620     11.665629
  H       2.664475      0.365932     13.181699
  C       0.217137      1.184497     12.469847
  H      -0.414394      0.331126     12.790751
  H       0.680401      1.661510     13.358818
  H      -0.403203      1.927616     11.927046
  C       2.140400      1.830836     11.004588
  H       2.963898      1.392001     10.406388
  H       2.526639      2.420346     11.862604
  H       1.501078      2.456643     10.350072
  C       0.265792     -1.526037     10.448835
  H      -0.379259     -1.695512     11.349920
  H      -0.384686     -1.723544      9.555024
  P       2.692507     -2.355907      9.427376
  O       3.386714     -3.694282      9.457371
  O       3.417009     -1.009105      9.674217
  O       1.347193     -2.441054     10.515315
  O       1.735784     -2.159490      8.001877
  C       2.475128     -2.062402      6.770213
  H       1.837031     -2.488887      5.960481
  H       3.411090     -2.669596      6.804613
  C       2.834092     -0.588115      6.441371
  H       3.196558     -0.101811      7.373406
  O       1.586692      0.081510      5.978778
  C       1.083179      1.142080      6.665979
  O       1.596505      1.649571      7.663328
  C      -0.211950      1.666134      6.025894
  H      -0.872358      1.992189      6.860828
  H      -0.727670      0.855156      5.467364
  C       3.912831     -0.372762      5.358343
  H       4.827455     -0.947210      5.629440
  H       4.164610      0.709229      5.295039
  O       3.460462     -0.732032      4.015534
  C       3.693216     -2.019198      3.562750
  O       4.331953     -2.858289      4.178744
  C       3.005649     -2.220593      2.206870
  H       3.356043     -1.422016      1.509867
  H       3.340052     -3.200527      1.803843
  C       0.068957      2.891696      5.091380
  H       0.754314      3.586918      5.631072
  H      -0.888524      3.449470      4.954226
  C       0.648713      2.541720      3.691861
  H       1.530898      1.865691      3.789459
  H       1.032428      3.484506      3.231381
  C      -0.388379      1.910691      2.723004
  H      -1.305001      2.552166      2.710842
  H      -0.720572      0.915744      3.107277
  C       0.128625      1.747553      1.269733
  H       1.000052      1.048200      1.257445
  H       0.526810      2.728238      0.911845
  C      -0.958127      1.241639      0.286737
  H      -1.842924      1.924278      0.338287
  H      -1.326737      0.241279      0.617067
  C      -0.492372      1.150682     -1.194180
  H      -1.311388      0.680953     -1.795872
  H       0.371291      0.447647     -1.279987
  C      -0.138699      2.510292     -1.790190
  H      -0.643121      3.378901     -1.317788
  C       0.694988      2.766403     -2.828930
  H       0.823246      3.825768     -3.128040
  C       1.428940      1.741832     -3.681162
  H       1.501415      0.768236     -3.144392
  H       2.478216      2.084803     -3.860342
  C       0.737864      1.500937     -5.064477
  H      -0.309183      1.167199     -4.876475
  H       1.246282      0.651149     -5.581624
  C       0.746935      2.737946     -6.001683
  H       1.808925      3.016504     -6.211725
  H       0.310693      3.613955     -5.467841
  C       0.009722      2.533609     -7.355237
  H       0.496063      1.697171     -7.915057
  H       0.164273      3.442579     -7.984388
  C      -1.515106      2.229910     -7.254550
  H      -1.664382      1.209344     -6.833361
  H      -1.931794      2.184517     -8.290765
  C      -2.352724      3.232154     -6.411505
  H      -2.035697      3.182695     -5.341029
  H      -3.417937      2.892825     -6.420342
  C      -2.295915      4.706858     -6.890549
  H      -2.576942      4.756319     -7.971847
  H      -1.246498      5.083278     -6.833664
  C      -3.215832      5.643559     -6.069317
  H      -3.163593      6.696139     -6.431703
  H      -2.930842      5.644710     -4.990603
  H      -4.281960      5.319910     -6.128913
  C       1.449975     -2.147658      2.312721
  H       1.175302     -1.190501      2.808752
  H       1.086394     -2.965088      2.981813
  C       0.731316     -2.230862      0.939796
  H       1.174944     -1.464990      0.256711
  H      -0.335323     -1.931266      1.076397
  C       0.760171     -3.615254      0.241588
  H       0.212699     -4.357326      0.874383
  H       1.807235     -3.996287      0.165315
  C       0.128254     -3.564053     -1.173531
  H      -0.873815     -3.075212     -1.114434
  H       0.750775     -2.893034     -1.816374
  C      -0.012350     -4.941296     -1.866011
  H       0.976353     -5.462071     -1.870194
  H      -0.698419     -5.592348     -1.269798
  C      -0.530503     -4.847536     -3.338287
  H      -0.507021     -5.871334     -3.785101
  H       0.184516     -4.233946     -3.932942
  C      -1.946363     -4.301077     -3.449599
  H      -2.743205     -4.989764     -3.099133
  C      -2.319740     -3.075323     -3.895397
  H      -3.404008     -2.844975     -3.915047
  C      -1.394493     -1.977956     -4.409178
  H      -0.399968     -2.044546     -3.914581
  H      -1.815551     -0.984102     -4.117648
  C      -1.182154     -1.987391     -5.955479
  H      -0.728773     -2.963237     -6.255363
  H      -0.429395     -1.203546     -6.209104
  C      -2.467739     -1.738347     -6.783624
  H      -3.203970     -2.557950     -6.600589
  H      -2.959630     -0.799899     -6.424148
  C      -2.193962     -1.613733     -8.303298
  H      -1.436345     -0.810857     -8.464412
  H      -1.719363     -2.556826     -8.673214
  C      -3.463883     -1.312036     -9.140393
  H      -3.933734     -0.367785     -8.767203
  H      -4.216345     -2.117160     -8.955559
  C      -3.216859     -1.187253    -10.668747
  H      -2.718385     -2.118100    -11.039260
  H      -4.201882     -1.141736    -11.194608
  C      -2.371862      0.045743    -11.088831
  H      -2.864769      0.973685    -10.704652
  H      -1.371929      0.008177    -10.595275
  C      -2.178816      0.157693    -12.621004
  H      -1.573993      1.052514    -12.895917
  H      -1.655780     -0.738987    -13.030030
  H      -3.157190      0.238381    -13.151409
138
Coordinates from ORCA-job /wrk/rja7/qm_final_3_replicates/qm_final_1.1/qm/10/freq E -2722.582041646472
  N       1.298449      0.654688     11.540912
  C       0.640001     -0.068134     10.309417
  H       1.349156      0.063791      9.475699
  H      -0.281849      0.514719     10.091030
  C       2.252555     -0.237752     12.355073
  H       1.684513     -1.089139     12.774501
  H       3.042038     -0.603734     11.664647
  H       2.665713      0.392114     13.171415
  C       0.204208      1.165352     12.460924
  H      -0.411254      0.305330     12.795243
  H       0.664033      1.660568     13.341637
  H      -0.431167      1.891317     11.912331
  C       2.112008      1.825930     10.981269
  H       2.939079      1.392668     10.383758
  H       2.494694      2.429899     11.830822
  H       1.461370      2.436449     10.323298
  C       0.289844     -1.564785     10.468534
  H      -0.346629     -1.736538     11.375322
  H      -0.362374     -1.783507      9.581129
  P       2.725119     -2.361062      9.441008
  O       3.438561     -3.689344      9.472409
  O       3.430800     -1.001882      9.675563
  O       1.388246     -2.459521     10.539156
  O       1.755430     -2.186290      8.021081
  C       2.487818     -2.075879      6.786754
  H       1.849631     -2.502403      5.976820
  H       3.429033     -2.675310      6.814006
  C       2.834033     -0.597973      6.465591
  H       3.200729     -0.116622      7.398427
  O       1.580367      0.068537      6.017367
  C       1.073792      1.124827      6.709655
  O       1.590124      1.637860      7.702438
  C      -0.212555      1.654307      6.056397
  H      -0.880163      1.979315      6.886036
  H      -0.725085      0.844366      5.493337
  C       3.902246     -0.369647      5.375639
  H       4.823852     -0.937617      5.636922
  H       4.145446      0.714373      5.313508
  O       3.439191     -0.728520      4.036964
  C       3.677197     -2.013187      3.581823
  O       4.321075     -2.849732      4.195829
  C       2.988851     -2.217132      2.226831
  H       3.335513     -1.416537      1.530295
  H       3.328882     -3.195050      1.823395
  C       0.076386      2.881421      5.125970
  H       0.766700      3.570464      5.667282
  H      -0.877673      3.445870      4.992379
  C       0.653422      2.537136      3.722937
  H       1.530847      1.854336      3.814982
  H       1.043422      3.481125      3.270166
  C      -0.387319      1.920091      2.748543
  H      -1.302276      2.564140      2.745867
  H      -0.721108      0.921224      3.122659
  C       0.123979      1.772039      1.291303
  H       0.994354      1.071683      1.268648
  H       0.521936      2.755694      0.941798
  C      -0.968096      1.276391      0.308419
  H      -1.850446      1.961599      0.366720
  H      -1.338792      0.276077      0.635720
  C      -0.509746      1.187165     -1.175220
  H      -1.334080      0.720324     -1.772338
  H       0.350052      0.482159     -1.266499
  C      -0.154031      2.542371     -1.780025
  H      -0.655828      3.416199     -1.314591
  C       0.683235      2.785206     -2.819520
  H       0.816978      3.840787     -3.129688
  C       1.416501      1.746599     -3.656345
  H       1.482537      0.780311     -3.106463
  H       2.468103      2.083400     -3.833988
  C       0.733597      1.485541     -5.039854
  H      -0.316133      1.159217     -4.853347
  H       1.241801      0.624262     -5.538453
  C       0.755499      2.703334     -6.000661
  H       1.820138      2.978117     -6.201978
  H       0.311803      3.590973     -5.492003
  C       0.040025      2.466866     -7.359685
  H       0.532511      1.615404     -7.890857
  H       0.208520      3.359047     -8.008941
  C      -1.486592      2.169801     -7.276538
  H      -1.647766      1.166018     -6.820646
  H      -1.883052      2.087178     -8.318057
  C      -2.335561      3.205899     -6.489559
  H      -2.042414      3.194330     -5.411350
  H      -3.403083      2.874397     -6.509294
  C      -2.251867      4.660050     -7.022270
  H      -2.508889      4.669807     -8.110584
  H      -1.199498      5.027023     -6.956429
  C      -3.179046      5.637732     -6.258649
  H      -3.106404      6.674852     -6.659917
  H      -2.918258      5.677600     -5.174544
  H      -4.247311      5.323635     -6.329861
  C       1.432512     -2.153368      2.330390
  H       1.148886     -1.200521      2.831646
  H       1.070970     -2.977376      2.992666
  C       0.722202     -2.233246      0.953462
  H       1.160407     -1.457182      0.278522
  H      -0.348440     -1.946432      1.086533
  C       0.772481     -3.612138      0.246207
  H       0.232945     -4.366062      0.871679
  H       1.825320     -3.977721      0.171324
  C       0.148082     -3.559637     -1.171614
  H      -0.859970     -3.082771     -1.114445
  H       0.765737     -2.877688     -1.807699
  C       0.025425     -4.934161     -1.873141
  H       1.019778     -5.443986     -1.879166
  H      -0.654492     -5.596156     -1.281829
  C      -0.490993     -4.835055     -3.345290
  H      -0.456025     -5.855202     -3.799557
  H       0.218582     -4.209426     -3.934017
  C      -1.911276     -4.300517     -3.456646
  H      -2.703487     -4.996558     -3.110130
  C      -2.292267     -3.075108     -3.896682
  H      -3.377858     -2.851169     -3.915412
  C      -1.372834     -1.971102     -4.406618
  H      -0.373511     -2.041830     -3.921815
  H      -1.792885     -0.981259     -4.101283
  C      -1.174306     -1.963917     -5.954715
  H      -0.718222     -2.934307     -6.267949
  H      -0.428588     -1.172924     -6.207439
  C      -2.468210     -1.716337     -6.770182
  H      -3.196095     -2.544048     -6.590180
  H      -2.965796     -0.786462     -6.397201
  C      -2.206935     -1.574775     -8.290890
  H      -1.465677     -0.755525     -8.449987
  H      -1.716681     -2.505680     -8.670833
  C      -3.488687     -1.295517     -9.118420
  H      -3.976546     -0.363927     -8.736657
  H      -4.221858     -2.118115     -8.933025
  C      -3.256161     -1.159033    -10.648355
  H      -2.740077     -2.077169    -11.026421
  H      -4.246259     -1.133667    -11.165971
  C      -2.444014      0.094376    -11.072099
  H      -2.954580      1.009172    -10.680236
  H      -1.438871      0.078440    -10.588122
  C      -2.267879      0.215674    -12.605662
  H      -1.686720      1.125277    -12.883075
  H      -1.727845     -0.667165    -13.022579
  H      -3.252876      0.275292    -13.126545
138
Coordinates from ORCA-job /wrk/rja7/qm_final_3_replicates/qm_final_1.1/qm/10/freq E -2722.582113707617
  N       1.257868      0.620168     11.553833
  C       0.606629     -0.076280     10.303580
  H       1.321481      0.070773      9.477948
  H      -0.311847      0.513389     10.089471
  C       2.195028     -0.294902     12.362292
  H       1.615708     -1.149607     12.758834
  H       2.990732     -0.653434     11.675135
  H       2.602822      0.315995     13.195650
  C       0.158002      1.123187     12.471303
  H      -0.467884      0.262218     12.783111
  H       0.612008      1.598333     13.366002
  H      -0.465640      1.864418     11.929733
  C       2.087615      1.794290     11.024273
  H       2.917421      1.363441     10.429353
  H       2.465666      2.380028     11.888600
  H       1.450750      2.421093     10.368631
  C       0.250556     -1.574406     10.431293
  H      -0.393702     -1.760565     11.329722
  H      -0.395617     -1.774845      9.535366
  P       2.692474     -2.363327      9.411172
  O       3.396346     -3.697045      9.421194
  O       3.405979     -1.014855      9.680202
  O       1.345328     -2.474812     10.494841
  O       1.738744     -2.153257      7.984537
  C       2.483801     -2.035909      6.758156
  H       1.850322     -2.452215      5.939093
  H       3.420991     -2.641241      6.788835
  C       2.841733     -0.557582      6.447852
  H       3.208215     -0.084126      7.384444
  O       1.594713      0.119294      5.997068
  C       1.079666      1.164962      6.698372
  O       1.585009      1.667091      7.702367
  C      -0.194569      1.706030      6.032774
  H      -0.861143      2.051462      6.854758
  H      -0.715991      0.897941      5.475334
  C       3.913392     -0.328879      5.361709
  H       4.834278     -0.896898      5.624895
  H       4.157108      0.755237      5.301077
  O       3.451832     -0.685396      4.021785
  C       3.700596     -1.964571      3.557533
  O       4.358946     -2.797800      4.160686
  C       3.005852     -2.166223      2.205594
  H       3.335938     -1.355252      1.513022
  H       3.355420     -3.136289      1.791555
  C       0.118773      2.917235      5.090018
  H       0.819312      3.600994      5.625087
  H      -0.825164      3.496489      4.947588
  C       0.693180      2.546291      3.693085
  H       1.560905      1.852213      3.794436
  H       1.096219      3.479147      3.228805
  C      -0.355368      1.930943      2.726355
  H      -1.263794      2.584186      2.720102
  H      -0.698149      0.938357      3.109241
  C       0.150354      1.766912      1.269334
  H       1.012697      1.056470      1.248273
  H       0.558124      2.743868      0.912659
  C      -0.951150      1.280209      0.292997
  H      -1.825957      1.974803      0.354762
  H      -1.330684      0.284057      0.623132
  C      -0.500758      1.186960     -1.192459
  H      -1.334957      0.735400     -1.787595
  H       0.347603      0.468523     -1.288275
  C      -0.125693      2.539462     -1.791944
  H      -0.623483      3.417098     -1.329361
  C       0.722736      2.776826     -2.823854
  H       0.868911      3.831933     -3.130010
  C       1.450261      1.734018     -3.660088
  H       1.510209      0.767395     -3.109915
  H       2.503722      2.064398     -3.838436
  C       0.764642      1.478070     -5.043782
  H      -0.285541      1.153698     -4.856408
  H       1.270083      0.617089     -5.545662
  C       0.789099      2.699988     -5.999950
  H       1.854286      2.967535     -6.208216
  H       0.356831      3.587946     -5.482326
  C       0.059685      2.480242     -7.354654
  H       0.544087      1.632805     -7.899504
  H       0.225336      3.378860     -7.995676
  C      -1.467548      2.189289     -7.261081
  H      -1.627553      1.177708     -6.823084
  H      -1.876019      2.128376     -8.299543
  C      -2.304682      3.212466     -6.443641
  H      -1.997919      3.179926     -5.369480
  H      -3.372454      2.881589     -6.456392
  C      -2.229673      4.676911     -6.949936
  H      -2.500112      4.707115     -8.034901
  H      -1.177557      5.044936     -6.889830
  C      -3.149809      5.637819     -6.157040
  H      -3.084571      6.682364     -6.539900
  H      -2.875934      5.658236     -5.075636
  H      -4.217969      5.321843     -6.221038
  C       1.449395     -2.124608      2.322203
  H       1.155737     -1.177177      2.828463
  H       1.105135     -2.955674      2.984889
  C       0.729467     -2.212793      0.950595
  H       1.151921     -1.430116      0.273022
  H      -0.343980     -1.940735      1.091865
  C       0.794217     -3.590567      0.242306
  H       0.268978     -4.351887      0.871068
  H       1.851563     -3.941298      0.160913
  C       0.160799     -3.547305     -1.171768
  H      -0.852236     -3.081825     -1.109177
  H       0.766062     -2.858572     -1.812516
  C       0.050406     -4.924133     -1.870663
  H       1.050242     -5.423149     -1.879318
  H      -0.619966     -5.592906     -1.275966
  C      -0.472055     -4.833245     -3.341047
  H      -0.426003     -5.853440     -3.794312
  H       0.227545     -4.199542     -3.933141
  C      -1.899498     -4.317366     -3.447734
  H      -2.680922     -5.023479     -3.096939
  C      -2.298667     -3.098318     -3.889032
  H      -3.387355     -2.889663     -3.905484
  C      -1.396516     -1.982961     -4.404407
  H      -0.395110     -2.037666     -3.921698
  H      -1.830076     -0.998016     -4.101761
  C      -1.201396     -1.979788     -5.952937
  H      -0.734315     -2.945827     -6.263515
  H      -0.465325     -1.181093     -6.210005
  C      -2.499264     -1.749956     -6.767332
  H      -3.217403     -2.585379     -6.583923
  H      -3.006969     -0.824676     -6.396386
  C      -2.241823     -1.610788     -8.288941
  H      -1.503624     -0.789764     -8.451482
  H      -1.749573     -2.540940     -8.668242
  C      -3.526324     -1.335843     -9.113573
  H      -4.016561     -0.405923     -8.729905
  H      -4.256000     -2.161334     -8.927275
  C      -3.297564     -1.196572    -10.643848
  H      -2.780314     -2.112889    -11.024687
  H      -4.289020     -1.172263    -11.158885
  C      -2.489826      0.059656    -11.067675
  H      -3.000221      0.972377    -10.670562
  H      -1.482413      0.043935    -10.588582
  C      -2.320811      0.185651    -12.601686
  H      -1.741383      1.096398    -12.878969
  H      -1.781910     -0.695636    -13.023293
  H      -3.308178      0.246459    -13.117896
138
Coordinates from ORCA-job /wrk/rja7/qm_final_3_replicates/qm_final_1.1/qm/10/freq E -2722.582124637124
  N       1.259123      0.629506     11.560562
  C       0.608027     -0.060934     10.306824
  H       1.326648      0.082318      9.483595
  H      -0.305373      0.535501     10.089711
  C       2.181852     -0.294486     12.375697
  H       1.590736     -1.141746     12.770524
  H       2.977586     -0.663514     11.694157
  H       2.591703      0.313646     13.210012
  C       0.159256      1.144128     12.471876
  H      -0.477113      0.289891     12.780576
  H       0.613187      1.615036     13.368822
  H      -0.454017      1.891284     11.926677
  C       2.104109      1.794451     11.035653
  H       2.934196      1.354180     10.448366
  H       2.480792      2.378044     11.902033
  H       1.478578      2.426479     10.374266
  C       0.241918     -1.557107     10.429694
  H      -0.407004     -1.742150     11.324955
  H      -0.401225     -1.751288      9.530354
  P       2.680040     -2.357855      9.411010
  O       3.378861     -3.694218      9.420564
  O       3.397369     -1.011817      9.680495
  O       1.331341     -2.463870     10.493781
  O       1.727948     -2.144474      7.983196
  C       2.474426     -2.039364      6.756657
  H       1.837814     -2.452946      5.938655
  H       3.406195     -2.652818      6.790147
  C       2.845526     -0.564967      6.442685
  H       3.210497     -0.091360      7.379904
  O       1.606036      0.120902      5.984287
  C       1.095687      1.166093      6.691115
  O       1.598812      1.650500      7.704767
  C      -0.180885      1.716117      6.036321
  H      -0.837268      2.067961      6.863691
  H      -0.713405      0.910759      5.485216
  C       3.927439     -0.349554      5.363214
  H       4.839013     -0.929570      5.631997
  H       4.184924      0.731572      5.305519
  O       3.473622     -0.701169      4.018997
  C       3.712338     -1.983835      3.557017
  O       4.353057     -2.825529      4.167331
  C       3.030722     -2.176347      2.197150
  H       3.381796     -1.372044      1.507032
  H       3.368193     -3.152696      1.787973
  C       0.133093      2.921927      5.087037
  H       0.843855      3.601522      5.614029
  H      -0.807415      3.508467      4.951358
  C       0.690742      2.543837      3.685652
  H       1.555612      1.845420      3.780332
  H       1.094463      3.473290      3.215248
  C      -0.371572      1.934589      2.729756
  H      -1.275818      2.593693      2.730695
  H      -0.717574      0.944900      3.115951
  C       0.122121      1.766282      1.269097
  H       0.980922      1.051670      1.242039
  H       0.532668      2.741082      0.909698
  C      -0.987195      1.285448      0.298824
  H      -1.857224      1.985889      0.362720
  H      -1.372176      0.292140      0.631790
  C      -0.541880      1.188346     -1.187876
  H      -1.381663      0.746845     -1.782959
  H       0.298184      0.460358     -1.287062
  C      -0.151743      2.537930     -1.783792
  H      -0.647732      3.418756     -1.325275
  C       0.711616      2.771405     -2.803881
  H       0.867020      3.826033     -3.106992
  C       1.444862      1.726364     -3.631837
  H       1.498320      0.760064     -3.079875
  H       2.500261      2.055188     -3.800907
  C       0.770865      1.470657     -5.020904
  H      -0.280739      1.146750     -4.841342
  H       1.280290      0.609869     -5.519000
  C       0.801529      2.693985     -5.975775
  H       1.868177      2.963815     -6.173682
  H       0.362785      3.580123     -5.460832
  C       0.085313      2.476143     -7.338384
  H       0.579896      1.633854     -7.881960
  H       0.251328      3.378192     -7.974436
  C      -1.441197      2.175298     -7.261033
  H      -1.598281      1.162021     -6.826171
  H      -1.838415      2.112236     -8.304032
  C      -2.295135      3.191369     -6.451003
  H      -1.991344      3.169288     -5.375594
  H      -3.357688      2.844248     -6.465194
  C      -2.243441      4.654270     -6.965459
  H      -2.511403      4.673707     -8.051305
  H      -1.198330      5.040900     -6.904511
  C      -3.182785      5.603407     -6.181095
  H      -3.135103      6.646645     -6.570177
  H      -2.912359      5.635461     -5.099098
  H      -4.244960      5.268065     -6.245994
  C       1.474660     -2.108392      2.299186
  H       1.193477     -1.151274      2.792413
  H       1.112002     -2.926463      2.968193
  C       0.761959     -2.199032      0.923717
  H       1.201254     -1.430534      0.240803
  H      -0.307646     -1.907928      1.056452
  C       0.807550     -3.584326      0.228973
  H       0.270325     -4.332298      0.863636
  H       1.859826     -3.950979      0.153344
  C       0.176026     -3.545979     -1.186279
  H      -0.831511     -3.068113     -1.128886
  H       0.789906     -2.871123     -1.833508
  C       0.050103     -4.928609     -1.871554
  H       1.044280     -5.438795     -1.875058
  H      -0.627615     -5.583758     -1.270027
  C      -0.474289     -4.846642     -3.341638
  H      -0.433876     -5.870524     -3.787202
  H       0.226531     -4.220884     -3.940632
  C      -1.900173     -4.326086     -3.447174
  H      -2.683030     -5.027292     -3.089831
  C      -2.296678     -3.108259     -3.894116
  H      -3.384723     -2.896164     -3.909037
  C      -1.391993     -1.998269     -4.415593
  H      -0.389505     -2.056004     -3.935622
  H      -1.820439     -1.010526     -4.114348
  C      -1.201942     -1.999461     -5.964918
  H      -0.742996     -2.969240     -6.275876
  H      -0.459993     -1.207041     -6.224979
  C      -2.500670     -1.758558     -6.775223
  H      -3.223709     -2.590132     -6.593873
  H      -3.001464     -0.831614     -6.398849
  C      -2.246618     -1.611659     -8.296837
  H      -1.507765     -0.791041     -8.455648
  H      -1.756878     -2.540148     -8.683465
  C      -3.531626     -1.327308     -9.116875
  H      -4.020856     -0.401349     -8.722731
  H      -4.262106     -2.153965     -8.938916
  C      -3.303165     -1.170158    -10.645283
  H      -2.786849     -2.082210    -11.037475
  H      -4.294653     -1.138683    -11.159858
  C      -2.493292      0.090214    -11.052918
  H      -3.002009      0.998924    -10.644296
  H      -1.486057      0.066535    -10.573679
  C      -2.323271      0.235626    -12.585078
  H      -1.740849      1.148078    -12.850207
  H      -1.787285     -0.641837    -13.018200
  H      -3.310195      0.306823    -13.100893
138
Coordinates from ORCA-job /wrk/rja7/qm_final_3_replicates/qm_final_1.1/qm/10/freq E -2722.582175574008
  N       1.238663      0.607106     11.554291
  C       0.589000     -0.074322     10.294931
  H       1.310745      0.070556      9.474735
  H      -0.321684      0.526275     10.077692
  C       2.151956     -0.325449     12.370258
  H       1.554753     -1.171017     12.759617
  H       2.948761     -0.695929     11.691004
  H       2.561607      0.277217     13.208614
  C       0.138043      1.126054     12.462011
  H      -0.505510      0.275153     12.765232
  H       0.590714      1.591211     13.362620
  H      -0.467620      1.878924     11.916192
  C       2.094321      1.767840     11.037465
  H       2.922797      1.323794     10.450381
  H       2.473532      2.344314     11.907508
  H       1.476046      2.408241     10.377118
  C       0.217426     -1.569718     10.408865
  H      -0.436845     -1.757079     11.299736
  H      -0.421484     -1.757999      9.505256
  P       2.658245     -2.372795      9.399646
  O       3.351596     -3.712142      9.402760
  O       3.379468     -1.031262      9.682369
  O       1.303789     -2.480249     10.475656
  O       1.712943     -2.145997      7.969385
  C       2.464985     -2.032776      6.747093
  H       1.830152     -2.436834      5.922932
  H       3.394144     -2.650341      6.779610
  C       2.843636     -0.557714      6.446185
  H       3.208759     -0.093243      7.388001
  O       1.609698      0.138063      5.988996
  C       1.105697      1.186602      6.695519
  O       1.609240      1.666826      7.710870
  C      -0.163543      1.746077      6.034524
  H      -0.819860      2.104836      6.858997
  H      -0.701035      0.943229      5.484429
  C       3.928009     -0.339930      5.370174
  H       4.838941     -0.921206      5.638580
  H       4.186623      0.741101      5.315734
  O       3.474039     -0.687248      4.025074
  C       3.718202     -1.966115      3.556967
  O       4.363643     -2.807609      4.162584
  C       3.033932     -2.156686      2.198131
  H       3.379998     -1.348476      1.510065
  H       3.375465     -3.130018      1.785154
  C       0.162602      2.946336      5.082478
  H       0.879227      3.621032      5.607884
  H      -0.772096      3.541578      4.944588
  C       0.718896      2.560236      3.682234
  H       1.579341      1.857042      3.780105
  H       1.128586      3.485661      3.209077
  C      -0.345778      1.952286      2.727889
  H      -1.248685      2.613261      2.728636
  H      -0.693702      0.963921      3.116463
  C       0.144567      1.780516      1.266284
  H       1.004060      1.066864      1.238986
  H       0.553022      2.754696      0.902948
  C      -0.967733      1.295652      0.301219
  H      -1.839062      1.994182      0.368871
  H      -1.349073      0.301958      0.637497
  C      -0.531513      1.197445     -1.188316
  H      -1.377151      0.758457     -1.777310
  H       0.305776      0.467800     -1.294016
  C      -0.144104      2.545828     -1.787975
  H      -0.645494      3.426465     -1.334946
  C       0.719362      2.778029     -2.808307
  H       0.871080      3.831970     -3.115811
  C       1.456045      1.732178     -3.632375
  H       1.517686      0.769688     -3.075021
  H       2.508844      2.065938     -3.807611
  C       0.776961      1.464165     -5.016505
  H      -0.271714      1.134731     -4.829850
  H       1.289104      0.603790     -5.513015
  C       0.795836      2.683147     -5.976626
  H       1.859890      2.954982     -6.185459
  H       0.359561      3.570654     -5.461691
  C       0.067288      2.457813     -7.330589
  H       0.553010      1.609514     -7.872874
  H       0.231900      3.354362     -7.974803
  C      -1.459492      2.165430     -7.236115
  H      -1.618243      1.157139     -6.789896
  H      -1.866433      2.095263     -8.274446
  C      -2.299464      3.194093     -6.428332
  H      -1.990104      3.175852     -5.354500
  H      -3.365453      2.857328     -6.434875
  C      -2.234231      4.652582     -6.952713
  H      -2.507394      4.667529     -8.037304
  H      -1.184426      5.027825     -6.899627
  C      -3.158837      5.617744     -6.170209
  H      -3.101396      6.657551     -6.567011
  H      -2.882421      5.654256     -5.089863
  H      -4.225032      5.293957     -6.227334
  C       1.477637     -2.097357      2.302476
  H       1.190867     -1.144117      2.800475
  H       1.119928     -2.920300      2.968201
  C       0.764648     -2.187051      0.927245
  H       1.199464     -1.414756      0.245664
  H      -0.306204     -1.901105      1.061080
  C       0.817555     -3.571014      0.230702
  H       0.284498     -4.322264      0.864956
  H       1.871939     -3.931581      0.154702
  C       0.186358     -3.535840     -1.184536
  H      -0.823749     -3.063586     -1.127058
  H       0.796067     -2.857645     -1.832265
  C       0.068147     -4.919841     -1.868197
  H       1.065257     -5.424277     -1.871111
  H      -0.605791     -5.577512     -1.265230
  C      -0.456430     -4.843866     -3.338332
  H      -0.412862     -5.869046     -3.780486
  H       0.242853     -4.218037     -3.939062
  C      -1.883234     -4.326557     -3.447600
  H      -2.665497     -5.029514     -3.092445
  C      -2.281499     -3.109614     -3.895668
  H      -3.370122     -2.900566     -3.913199
  C      -1.379046     -1.996694     -4.415189
  H      -0.374570     -2.055565     -3.939579
  H      -1.807194     -1.010445     -4.108568
  C      -1.194565     -1.993037     -5.965277
  H      -0.734427     -2.961067     -6.279892
  H      -0.455398     -1.198067     -6.226068
  C      -2.496526     -1.755744     -6.771440
  H      -3.216174     -2.589670     -6.587269
  H      -2.999694     -0.830357     -6.394268
  C      -2.248490     -1.611629     -8.294548
  H      -1.516804     -0.785258     -8.458462
  H      -1.752642     -2.537663     -8.679177
  C      -3.539555     -1.344322     -9.111532
  H      -4.037550     -0.422242     -8.719559
  H      -4.259778     -2.178471     -8.927051
  C      -3.320143     -1.193845    -10.642243
  H      -2.797964     -2.103718    -11.031701
  H      -4.314724     -1.174256    -11.151433
  C      -2.524632      0.071027    -11.063576
  H      -3.037659      0.977225    -10.655506
  H      -1.512975      0.058512    -10.593288
  C      -2.369660      0.209564    -12.598036
  H      -1.796738      1.125025    -12.873302
  H      -1.830671     -0.666027    -13.031175
  H      -3.361840      0.270181    -13.104967
138
Coordinates from ORCA-job /wrk/rja7/qm_final_3_replicates/qm_final_1.1/qm/10/freq E -2722.582206906681
  N       1.225941      0.562672     11.545251
  C       0.573349     -0.094844     10.274817
  H       1.294636      0.061400      9.456512
  H      -0.335722      0.511641     10.067289
  C       2.121582     -0.392293     12.354620
  H       1.511830     -1.235363     12.730090
  H       2.918637     -0.762418     11.676049
  H       2.533212      0.194351     13.203229
  C       0.127569      1.085083     12.453389
  H      -0.530313      0.239461     12.740500
  H       0.581226      1.530735     13.363316
  H      -0.463434      1.854432     11.914507
  C       2.101718      1.717241     11.048396
  H       2.926396      1.268007     10.459484
  H       2.484936      2.276132     11.928133
  H       1.497221      2.376016     10.393236
  C       0.196597     -1.590282     10.364362
  H      -0.459605     -1.789809     11.251197
  H      -0.441530     -1.761971      9.456897
  P       2.635835     -2.384606      9.346117
  O       3.320867     -3.728048      9.319978
  O       3.364666     -1.053559      9.658235
  O       1.279594     -2.505932     10.418464
  O       1.691975     -2.122381      7.920539
  C       2.444596     -1.989418      6.700902
  H       1.807143     -2.372772      5.868759
  H       3.370104     -2.613088      6.721063
  C       2.832611     -0.511502      6.428541
  H       3.199423     -0.066954      7.379372
  O       1.605175      0.201279      5.981069
  C       1.095949      1.232900      6.708654
  O       1.591468      1.690930      7.738057
  C      -0.159123      1.814453      6.040541
  H      -0.807001      2.197369      6.860575
  H      -0.714467      1.018050      5.498759
  C       3.918779     -0.283147      5.357175
  H       4.831379     -0.862443      5.624227
  H       4.173871      0.799055      5.308796
  O       3.466600     -0.626753      4.010498
  C       3.724348     -1.899730      3.534315
  O       4.381664     -2.736835      4.133175
  C       3.037960     -2.091501      2.176615
  H       3.370649     -1.275216      1.491594
  H       3.391116     -3.058080      1.757654
  C       0.195409      2.996110      5.075225
  H       0.930671      3.658016      5.591318
  H      -0.723860      3.614275      4.934237
  C       0.739032      2.583302      3.677534
  H       1.585341      1.864271      3.780477
  H       1.165374      3.495544      3.193569
  C      -0.339676      1.985069      2.733131
  H      -1.233729      2.658002      2.735180
  H      -0.698596      1.003310      3.128985
  C       0.138849      1.799758      1.269340
  H       0.990984      1.077642      1.239921
  H       0.554348      2.767794      0.897703
  C      -0.985596      1.321449      0.315421
  H      -1.849857      2.028254      0.388192
  H      -1.373579      0.332504      0.658358
  C      -0.563792      1.214165     -1.177721
  H      -1.424519      0.794616     -1.758959
  H       0.256439      0.466717     -1.291101
  C      -0.154926      2.554237     -1.780658
  H      -0.657332      3.441903     -1.342598
  C       0.729325      2.772739     -2.786320
  H       0.895571      3.823575     -3.096959
  C       1.469577      1.715865     -3.593241
  H       1.525075      0.759684     -3.024496
  H       2.524050      2.045397     -3.765305
  C       0.798436      1.432957     -4.978605
  H      -0.251641      1.106784     -4.794041
  H       1.312526      0.566635     -5.462528
  C       0.824471      2.641535     -5.951497
  H       1.890051      2.904492     -6.163692
  H       0.394438      3.537023     -5.445131
  C       0.093487      2.407884     -7.302584
  H       0.574677      1.553133     -7.838737
  H       0.261500      3.298514     -7.954180
  C      -1.434452      2.123202     -7.204137
  H      -1.597662      1.117712     -6.753272
  H      -1.843487      2.050699     -8.241597
  C      -2.267702      3.159537     -6.399578
  H      -1.961361      3.139276     -5.325087
  H      -3.336690      2.832417     -6.408982
  C      -2.186357      4.616743     -6.925040
  H      -2.456988      4.633079     -8.010233
  H      -1.132689      4.981023     -6.869955
  C      -3.102884      5.592465     -6.146073
  H      -3.034614      6.630751     -6.545077
  H      -2.828139      5.628751     -5.065277
  H      -4.172032      5.278863     -6.204536
  C       1.481205     -2.054339      2.286411
  H       1.182189     -1.105192      2.785512
  H       1.137348     -2.882101      2.953495
  C       0.765434     -2.156116      0.913311
  H       1.190518     -1.382451      0.227081
  H      -0.307791     -1.879861      1.048443
  C       0.830696     -3.543015      0.223502
  H       0.306053     -4.296064      0.862539
  H       1.888656     -3.893088      0.147966
  C       0.197765     -3.522266     -1.191138
  H      -0.816346     -3.058384     -1.135381
  H       0.800448     -2.842774     -1.844108
  C       0.090930     -4.911960     -1.865246
  H       1.092492     -5.407506     -1.865827
  H      -0.576326     -5.571121     -1.256492
  C      -0.435501     -4.851937     -3.335499
  H      -0.383670     -5.880279     -3.769220
  H       0.258419     -4.225421     -3.941798
  C      -1.866431     -4.346896     -3.449023
  H      -2.643818     -5.055223     -3.093932
  C      -2.273416     -3.134316     -3.900976
  H      -3.363661     -2.934144     -3.921484
  C      -1.378990     -2.015354     -4.421109
  H      -0.372532     -2.069639     -3.949496
  H      -1.811968     -1.032409     -4.110909
  C      -1.199799     -2.007103     -5.971779
  H      -0.733850     -2.971189     -6.289948
  H      -0.466775     -1.206582     -6.233124
  C      -2.505929     -1.777565     -6.773040
  H      -3.218345     -2.618062     -6.590248
  H      -3.015612     -0.857930     -6.390671
  C      -2.264262     -1.624953     -8.296366
  H      -1.542778     -0.789358     -8.459063
  H      -1.759251     -2.543727     -8.686345
  C      -3.561262     -1.369727     -9.107711
  H      -4.071723     -0.458538     -8.706611
  H      -4.268582     -2.216026     -8.928582
  C      -3.348752     -1.203304    -10.637652
  H      -2.815772     -2.102695    -11.036663
  H      -4.345318     -1.192608    -11.143199
  C      -2.571729      0.075671    -11.050807
  H      -3.093598      0.971154    -10.630393
  H      -1.556963      0.071054    -10.587001
  C      -2.428294      0.231735    -12.584740
  H      -1.866552      1.155861    -12.854054
  H      -1.883134     -0.633698    -13.030366
  H      -3.424317      0.287513    -13.084602
138
Coordinates from ORCA-job /wrk/rja7/qm_final_3_replicates/qm_final_1.1/qm/10/freq E -2722.582257515972
  N       1.185502      0.516538     11.536725
  C       0.538057     -0.118994     10.252472
  H       1.264693      0.045358      9.440479
  H      -0.367395      0.493793     10.047220
  C       2.059303     -0.458462     12.345916
  H       1.435693     -1.297272     12.708603
  H       2.859035     -0.831357     11.672692
  H       2.469896      0.115026     13.203919
  C       0.084130      1.043419     12.438430
  H      -0.587843      0.203268     12.708735
  H       0.533524      1.472542     13.358328
  H      -0.490830      1.826524     11.901906
  C       2.084124      1.663450     11.063612
  H       2.907282      1.208258     10.476533
  H       2.468106      2.204280     11.954278
  H       1.497426      2.341590     10.411660
  C       0.153752     -1.613701     10.317682
  H      -0.513551     -1.822384     11.194048
  H      -0.473981     -1.770281      9.400325
  P       2.598842     -2.405603      9.312753
  O       3.275097     -3.753051      9.268388
  O       3.332441     -1.084243      9.655454
  O       1.232117     -2.534833     10.372533
  O       1.668180     -2.113774      7.884411
  C       2.430381     -1.970005      6.671980
  H       1.792381     -2.329051      5.829412
  H       3.346589     -2.607466      6.687717
  C       2.843005     -0.494153      6.426876
  H       3.217512     -0.073800      7.385967
  O       1.629089      0.248436      5.993062
  C       1.151291      1.293133      6.724025
  O       1.665316      1.738884      7.749349
  C      -0.088875      1.907926      6.057019
  H      -0.716625      2.323163      6.876923
  H      -0.675777      1.121603      5.533571
  C       3.933724     -0.268303      5.359894
  H       4.839947     -0.858924      5.623668
  H       4.200108      0.811443      5.319780
  O       3.478552     -0.599284      4.010803
  C       3.736552     -1.867190      3.522695
  O       4.394271     -2.709661      4.113653
  C       3.053898     -2.046992      2.161254
  H       3.395651     -1.230312      1.481114
  H       3.402936     -3.014051      1.740044
  C       0.295575      3.061679      5.070152
  H       1.063105      3.702431      5.565778
  H      -0.600972      3.713488      4.933694
  C       0.804508      2.612920      3.670095
  H       1.630455      1.870960      3.771433
  H       1.250621      3.505576      3.167731
  C      -0.304593      2.033763      2.749379
  H      -1.184258      2.725356      2.763384
  H      -0.677297      1.061541      3.156504
  C       0.141983      1.832428      1.277432
  H       0.983438      1.098712      1.235063
  H       0.563249      2.792611      0.892242
  C      -1.008492      1.366185      0.348854
  H      -1.861050      2.085427      0.437051
  H      -1.403732      0.384168      0.703861
  C      -0.620617      1.247213     -1.153039
  H      -1.506688      0.855608     -1.715732
  H       0.173363      0.475147     -1.284659
  C      -0.186769      2.574937     -1.763924
  H      -0.682652      3.473070     -1.339775
  C       0.714874      2.772761     -2.758492
  H       0.899856      3.818680     -3.075205
  C       1.451053      1.699310     -3.547377
  H       1.495966      0.750192     -2.965960
  H       2.508903      2.018162     -3.717842
  C       0.784507      1.403078     -4.932270
  H      -0.268517      1.086196     -4.748037
  H       1.295257      0.527224     -5.402519
  C       0.823357      2.599332     -5.919645
  H       1.891615      2.851197     -6.131659
  H       0.399233      3.504476     -5.425563
  C       0.093990      2.356019     -7.269739
  H       0.568553      1.490603     -7.794581
  H       0.272298      3.237058     -7.931616
  C      -1.436675      2.087058     -7.171460
  H      -1.610773      1.090485     -6.705170
  H      -1.843278      2.001795     -8.208840
  C      -2.262914      3.144018     -6.386907
  H      -1.958251      3.141398     -5.311881
  H      -3.334308      2.824713     -6.392042
  C      -2.169281      4.589979     -6.940265
  H      -2.438581      4.586736     -8.025875
  H      -1.112782      4.947062     -6.890910
  C      -3.079288      5.588508     -6.182716
  H      -3.002739      6.617589     -6.603430
  H      -2.805538      5.645644     -5.102543
  H      -4.150667      5.281740     -6.236053
  C       1.497099     -2.001057      2.263515
  H       1.199967     -1.047391      2.755138
  H       1.145958     -2.822540      2.934645
  C       0.787230     -2.111277      0.887788
  H       1.217488     -1.345264      0.195994
  H      -0.285495     -1.829477      1.015065
  C       0.852516     -3.505438      0.212889
  H       0.326077     -4.251127      0.858971
  H       1.910809     -3.855911      0.144364
  C       0.224296     -3.502788     -1.203794
  H      -0.792183     -3.043118     -1.156475
  H       0.825446     -2.828350     -1.863473
  C       0.127231     -4.902099     -1.859582
  H       1.132505     -5.390012     -1.852797
  H      -0.535182     -5.556998     -1.241001
  C      -0.399181     -4.869077     -3.330596
  H      -0.336068     -5.903347     -3.748170
  H       0.288632     -4.244879     -3.946330
  C      -1.835097     -4.380421     -3.454152
  H      -2.607136     -5.095887     -3.101811
  C      -2.252640     -3.173890     -3.912786
  H      -3.344949     -2.986173     -3.940651
  C      -1.368185     -2.046449     -4.431131
  H      -0.359293     -2.095447     -3.964619
  H      -1.807117     -1.068045     -4.114719
  C      -1.195605     -2.030927     -5.982748
  H      -0.724976     -2.990973     -6.306232
  H      -0.467705     -1.225416     -6.243741
  C      -2.505993     -1.807341     -6.778348
  H      -3.210165     -2.655901     -6.600464
  H      -3.023476     -0.895679     -6.387401
  C      -2.270949     -1.641206     -8.301538
  H      -1.562394     -0.793731     -8.460084
  H      -1.754176     -2.549924     -8.699492
  C      -3.574475     -1.400814     -9.107032
  H      -4.101510     -0.504735     -8.693857
  H      -4.264772     -2.262887     -8.936700
  C      -3.370204     -1.213967    -10.635806
  H      -2.824480     -2.100269    -11.046689
  H      -4.369100     -1.214020    -11.136866
  C      -2.616036      0.081615    -11.039429
  H      -3.146720      0.963725    -10.602351
  H      -1.596487      0.085802    -10.585987
  C      -2.490694      0.259810    -12.572607
  H      -1.942720      1.194090    -12.835208
  H      -1.940099     -0.593050    -13.035413
  H      -3.492560      0.310536    -13.061126
138
Coordinates from ORCA-job /wrk/rja7/qm_final_3_replicates/qm_final_1.1/qm/10/freq E -2722.582345715759
  N       1.149156      0.471292     11.538226
  C       0.501997     -0.127920     10.236702
  H       1.234268      0.044709      9.431432
  H      -0.395427      0.498801     10.037969
  C       1.989929     -0.537380     12.340615
  H       1.343856     -1.366790     12.685924
  H       2.789041     -0.916929     11.671186
  H       2.404803      0.013387     13.211266
  C       0.049430      1.007186     12.436891
  H      -0.644416      0.177601     12.683570
  H       0.497515      1.408292     13.369869
  H      -0.501600      1.813106     11.908978
  C       2.081739      1.604258     11.098243
  H       2.900229      1.138949     10.512332
  H       2.467847      2.117348     12.004333
  H       1.521417      2.310103     10.452393
  C       0.096885     -1.618614     10.266426
  H      -0.582929     -1.836028     11.130912
  H      -0.522367     -1.746446      9.338922
  P       2.539063     -2.425017      9.267007
  O       3.193033     -3.782068      9.192691
  O       3.290134     -1.124929      9.651288
  O       1.161303     -2.555691     10.313473
  O       1.624911     -2.082617      7.839199
  C       2.396242     -1.934406      6.633366
  H       1.753916     -2.261321      5.780951
  H       3.297019     -2.593626      6.642282
  C       2.846781     -0.464571      6.417512
  H       3.236972     -0.075781      7.383921
  O       1.652934      0.320260      6.006011
  C       1.210984      1.368749      6.754272
  O       1.736692      1.776926      7.788906
  C      -0.008378      2.032590      6.095275
  H      -0.604281      2.489526      6.916402
  H      -0.639941      1.266085      5.593936
  C       3.940133     -0.249125      5.351613
  H       4.835865     -0.857687      5.609748
  H       4.225753      0.825946      5.318978
  O       3.477057     -0.564132      4.000767
  C       3.736380     -1.824821      3.495529
  O       4.393798     -2.675031      4.075687
  C       3.058150     -1.987653      2.129587
  H       3.404080     -1.164489      1.459422
  H       3.408139     -2.950726      1.700251
  C       0.416572      3.148826      5.082178
  H       1.223654      3.758746      5.553735
  H      -0.447517      3.844093      4.949370
  C       0.881446      2.655860      3.681628
  H       1.682710      1.888190      3.783125
  H       1.349160      3.523270      3.155188
  C      -0.262983      2.098539      2.791647
  H      -1.125701      2.810956      2.818442
  H      -0.650407      1.138476      3.214081
  C       0.144523      1.876067      1.311189
  H       0.972845      1.128629      1.254325
  H       0.571793      2.826215      0.908212
  C      -1.036617      1.424118      0.414727
  H      -1.874196      2.158523      0.520221
  H      -1.440319      0.451205      0.785812
  C      -0.689653      1.287891     -1.096472
  H      -1.605174      0.931578     -1.635240
  H       0.069057      0.484841     -1.246176
  C      -0.223335      2.596514     -1.721285
  H      -0.714712      3.508726     -1.322291
  C       0.703498      2.764290     -2.698053
  H       0.910797      3.801935     -3.028002
  C       1.439780      1.666778     -3.453430
  H       1.476206      0.732688     -2.847494
  H       2.500247      1.975526     -3.624931
  C       0.778407      1.338148     -4.833329
  H      -0.277481      1.033189     -4.645186
  H       1.285595      0.446565     -5.277568
  C       0.829213      2.508146     -5.850831
  H       1.899839      2.745370     -6.067713
  H       0.412554      3.429362     -5.380847
  C       0.097007      2.237671     -7.194070
  H       0.556707      1.349216     -7.692936
  H       0.290894      3.095371     -7.881686
  C      -1.438179      1.999371     -7.087877
  H      -1.630642      1.024753     -6.584228
  H      -1.845301      1.881106     -8.121683
  C      -2.247551      3.100561     -6.347142
  H      -1.934896      3.146137     -5.275449
  H      -3.321855      2.791681     -6.329738
  C      -2.145499      4.516914     -6.970794
  H      -2.422570      4.462228     -8.052891
  H      -1.085826      4.867081     -6.946197
  C      -3.041740      5.559883     -6.258114
  H      -2.959942      6.565604     -6.731088
  H      -2.759756      5.669725     -5.184140
  H      -4.115853      5.259641     -6.288634
  C       1.500948     -1.942616      2.224389
  H       1.200164     -0.987531      2.710986
  H       1.147417     -2.761968      2.896916
  C       0.798119     -2.062154      0.845422
  H       1.225250     -1.295523      0.152128
  H      -0.277370     -1.787626      0.965589
  C       0.880630     -3.459297      0.178602
  H       0.360860     -4.207264      0.827423
  H       1.943599     -3.796350      0.116867
  C       0.259632     -3.476903     -1.241146
  H      -0.767083     -3.039669     -1.201582
  H       0.848692     -2.793487     -1.902548
  C       0.199024     -4.883583     -1.885520
  H       1.216246     -5.345915     -1.870203
  H      -0.449026     -5.548394     -1.262318
  C      -0.321578     -4.881023     -3.358939
  H      -0.230524     -5.918732     -3.762357
  H       0.353804     -4.248021     -3.979565
  C      -1.768030     -4.428558     -3.497296
  H      -2.526081     -5.162032     -3.151803
  C      -2.210415     -3.233226     -3.962220
  H      -3.306691     -3.072183     -4.000121
  C      -1.349374     -2.085653     -4.475527
  H      -0.336656     -2.120413     -4.016716
  H      -1.804001     -1.118147     -4.147393
  C      -1.188155     -2.052956     -6.028545
  H      -0.708486     -3.004109     -6.364704
  H      -0.470989     -1.236605     -6.286807
  C      -2.507071     -1.837839     -6.811949
  H      -3.197699     -2.698934     -6.641222
  H      -3.035039     -0.939450     -6.404530
  C      -2.286571     -1.648144     -8.334894
  H      -1.593036     -0.787314     -8.487333
  H      -1.759387     -2.543447     -8.749210
  C      -3.600584     -1.418450     -9.126229
  H      -4.142274     -0.541255     -8.692317
  H      -4.272142     -2.297388     -8.967214
  C      -3.413895     -1.201584    -10.653433
  H      -2.858293     -2.071681    -11.085176
  H      -4.418087     -1.209756    -11.143767
  C      -2.685559      0.112681    -11.044191
  H      -3.218696      0.977975    -10.577670
  H      -1.656612      0.120944    -10.612343
  C      -2.595231      0.325151    -12.575515
  H      -2.062744      1.270771    -12.829304
  H      -2.045967     -0.511575    -13.068325
  H      -3.607951      0.375712    -13.041016
138
Coordinates from ORCA-job /wrk/rja7/qm_final_3_replicates/qm_final_1.1/qm/10/freq E -2722.582419207366
  N       1.176025      0.483870     11.555746
  C       0.517762     -0.117630     10.261729
  H       1.245280      0.047865      9.450261
  H      -0.378582      0.511832     10.066767
  C       2.026432     -0.522900     12.349940
  H       1.384217     -1.350442     12.706892
  H       2.816852     -0.905032     11.671339
  H       2.453034      0.030367     13.213406
  C       0.083943      1.017977     12.465647
  H      -0.605503      0.186837     12.718855
  H       0.540855      1.419165     13.394132
  H      -0.474357      1.822946     11.943924
  C       2.100710      1.619652     11.105916
  H       2.915344      1.156996     10.513232
  H       2.492320      2.134620     12.008577
  H       1.531500      2.322103     10.464480
  C       0.102909     -1.606411     10.297972
  H      -0.572229     -1.816163     11.167909
  H      -0.523952     -1.729632      9.374885
  P       2.530719     -2.433448      9.281448
  O       3.172969     -3.795647      9.202888
  O       3.295081     -1.140423      9.662360
  O       1.159678     -2.550893     10.337756
  O       1.610351     -2.080383      7.861460
  C       2.371046     -1.944295      6.647841
  H       1.718147     -2.268153      5.802427
  H       3.266596     -2.610562      6.650990
  C       2.831985     -0.477864      6.426138
  H       3.233046     -0.091529      7.389242
  O       1.640860      0.315265      6.025228
  C       1.220188      1.370813      6.775778
  O       1.755086      1.764953      7.810987
  C       0.001659      2.049851      6.129707
  H      -0.583006      2.511285      6.956289
  H      -0.643076      1.291874      5.631686
  C       3.922446     -0.272361      5.355616
  H       4.812215     -0.890532      5.611074
  H       4.218833      0.799850      5.322789
  O       3.454840     -0.581416      4.004579
  C       3.709283     -1.841789      3.495035
  O       4.355831     -2.699530      4.076279
  C       3.040265     -1.993981      2.123527
  H       3.397068     -1.170382      1.459560
  H       3.386998     -2.957745      1.693228
  C       0.430409      3.164082      5.115642
  H       1.242869      3.768406      5.585158
  H      -0.429451      3.865302      4.986381
  C       0.886440      2.670102      3.713090
  H       1.688874      1.903274      3.810878
  H       1.351179      3.537246      3.183529
  C      -0.263922      2.113538      2.831176
  H      -1.126471      2.826004      2.863019
  H      -0.649235      1.153768      3.255774
  C       0.133472      1.890161      1.347977
  H       0.958433      1.139446      1.284252
  H       0.561768      2.839167      0.943276
  C      -1.055980      1.445308      0.458976
  H      -1.888571      2.184410      0.569674
  H      -1.463067      0.474839      0.832912
  C      -0.717917      1.303520     -1.054230
  H      -1.639251      0.953322     -1.586986
  H       0.032568      0.493324     -1.204899
  C      -0.243843      2.605674     -1.685103
  H      -0.728184      3.523097     -1.289266
  C       0.683000      2.761237     -2.663508
  H       0.897074      3.794893     -3.001514
  C       1.411194      1.651782     -3.409372
  H       1.445219      0.724000     -2.793378
  H       2.472744      1.952551     -3.588151
  C       0.740861      1.311625     -4.781640
  H      -0.319031      1.026576     -4.585068
  H       1.232429      0.404532     -5.212026
  C       0.805353      2.462818     -5.819514
  H       1.878607      2.682670     -6.041712
  H       0.400690      3.397712     -5.366424
  C       0.065244      2.176866     -7.155672
  H       0.503685      1.266010     -7.632901
  H       0.277177      3.012567     -7.864528
  C      -1.475278      1.977270     -7.041368
  H      -1.690474      1.023498     -6.508369
  H      -1.886325      1.836072     -8.070760
  C      -2.259894      3.120362     -6.337368
  H      -1.930466      3.211352     -5.273659
  H      -3.337099      2.825192     -6.290000
  C      -2.154137      4.505358     -7.027418
  H      -2.448315      4.402587     -8.101200
  H      -1.091113      4.846158     -7.035148
  C      -3.029304      5.589480     -6.351225
  H      -2.944668      6.571253     -6.871710
  H      -2.730447      5.746565     -5.287747
  H      -4.106662      5.299474     -6.352470
  C       1.482797     -1.938384      2.205783
  H       1.185653     -0.979897      2.687389
  H       1.118284     -2.753689      2.877289
  C       0.790365     -2.056132      0.821430
  H       1.222469     -1.288258      0.132589
  H      -0.286359     -1.782704      0.933624
  C       0.880388     -3.452528      0.153808
  H       0.360266     -4.203017      0.799494
  H       1.944863     -3.785402      0.097809
  C       0.267615     -3.474081     -1.269670
  H      -0.766605     -3.054735     -1.234996
  H       0.849608     -2.778790     -1.924898
  C       0.235975     -4.880101     -1.917132
  H       1.261826     -5.322790     -1.897835
  H      -0.401987     -5.558118     -1.297795
  C      -0.277099     -4.886369     -3.393258
  H      -0.167076     -5.923108     -3.794498
  H       0.391417     -4.243171     -4.010775
  C      -1.729612     -4.456685     -3.539942
  H      -2.478659     -5.201069     -3.198222
  C      -2.186952     -3.268365     -4.008641
  H      -3.285152     -3.122508     -4.051522
  C      -1.339050     -2.110687     -4.521163
  H      -0.325914     -2.134377     -4.062683
  H      -1.804050     -1.148301     -4.191991
  C      -1.179744     -2.073143     -6.074500
  H      -0.702185     -3.023700     -6.415135
  H      -0.461490     -1.257249     -6.330987
  C      -2.499644     -1.850470     -6.854028
  H      -3.192470     -2.710398     -6.686860
  H      -3.023662     -0.952867     -6.439866
  C      -2.281125     -1.652228     -8.376288
  H      -1.577761     -0.798962     -8.525103
  H      -1.765794     -2.550873     -8.798301
  C      -3.593884     -1.399679     -9.162164
  H      -4.122064     -0.517233     -8.722078
  H      -4.277627     -2.269751     -9.006006
  C      -3.409213     -1.177988    -10.688920
  H      -2.865414     -2.052587    -11.126576
  H      -4.415283     -1.172860    -11.175509
  C      -2.666998      0.129445    -11.077161
  H      -3.185058      0.998793    -10.601150
  H      -1.634491      0.121842    -10.653766
  C      -2.586429      0.350411    -12.607789
  H      -2.044958      1.291327    -12.860057
  H      -2.051263     -0.489616    -13.110433
  H      -3.602313      0.415627    -13.064421
138
Coordinates from ORCA-job /wrk/rja7/qm_final_3_replicates/qm_final_1.1/qm/10/freq E -2722.582488955172
  N       1.161197      0.480044     11.575118
  C       0.502706     -0.107208     10.274941
  H       1.235516      0.059508      9.468482
  H      -0.388201      0.530655     10.082876
  C       2.009618     -0.536472     12.358993
  H       1.364521     -1.364940     12.707552
  H       2.797641     -0.914476     11.674470
  H       2.438851      0.006248     13.228080
  C       0.070319      1.009944     12.489149
  H      -0.623278      0.179427     12.732578
  H       0.527849      1.399705     13.422189
  H      -0.482962      1.822677     11.974464
  C       2.087338      1.617871     11.133583
  H       2.899424      1.159202     10.534819
  H       2.481287      2.124518     12.039817
  H       1.516961      2.325832     10.499560
  C       0.077140     -1.593866     10.297613
  H      -0.600907     -1.805398     11.164958
  H      -0.549863     -1.704483      9.373037
  P       2.500214     -2.432029      9.279324
  O       3.137743     -3.796210      9.200042
  O       3.268913     -1.142914      9.662856
  O       1.126576     -2.546766     10.330934
  O       1.585354     -2.070814      7.857982
  C       2.349154     -1.937489      6.646422
  H       1.698833     -2.262356      5.799594
  H       3.244537     -2.603823      6.652717
  C       2.809931     -0.470851      6.425264
  H       3.200053     -0.079646      7.390929
  O       1.622170      0.318632      6.007487
  C       1.178299      1.360424      6.763292
  O       1.689343      1.744822      7.814247
  C      -0.031649      2.040976      6.102947
  H      -0.624251      2.505331      6.922216
  H      -0.672365      1.285915      5.595950
  C       3.910562     -0.262731      5.365830
  H       4.799829     -0.877406      5.631616
  H       4.203229      0.810757      5.335690
  O       3.459482     -0.572834      4.009490
  C       3.724930     -1.831324      3.499769
  O       4.371026     -2.687051      4.084397
  C       3.062177     -1.984966      2.125856
  H       3.413169     -1.156005      1.465500
  H       3.417574     -2.944469      1.693134
  C       0.411181      3.156601      5.095200
  H       1.215042      3.762304      5.577486
  H      -0.448719      3.855373      4.954222
  C       0.885514      2.664205      3.698327
  H       1.690432      1.900726      3.804232
  H       1.351566      3.533451      3.173362
  C      -0.254116      2.103371      2.805480
  H      -1.118563      2.813780      2.830001
  H      -0.640326      1.142952      3.226819
  C       0.155856      1.880984      1.325425
  H       0.974503      1.122977      1.266539
  H       0.596011      2.827136      0.926671
  C      -1.030102      1.448189      0.425879
  H      -1.857800      2.192920      0.534429
  H      -1.446870      0.479084      0.792704
  C      -0.682570      1.310155     -1.085437
  H      -1.600571      0.962061     -1.624799
  H       0.068587      0.499631     -1.231792
  C      -0.202651      2.613945     -1.709869
  H      -0.684645      3.531346     -1.311265
  C       0.722128      2.770178     -2.690481
  H       0.938108      3.804209     -3.026015
  C       1.444115      1.660201     -3.441957
  H       1.478360      0.731095     -2.827963
  H       2.505559      1.958911     -3.624740
  C       0.769002      1.323636     -4.813532
  H      -0.291669      1.043366     -4.615332
  H       1.255960      0.414160     -5.244014
  C       0.836688      2.474946     -5.851256
  H       1.910537      2.687544     -6.077533
  H       0.440868      3.412255     -5.394882
  C       0.090243      2.196592     -7.186031
  H       0.526232      1.287704     -7.669671
  H       0.300147      3.036267     -7.890726
  C      -1.450603      1.996591     -7.070451
  H      -1.665325      1.033589     -6.554040
  H      -1.864722      1.873915     -8.101056
  C      -2.233477      3.128187     -6.346479
  H      -1.899226      3.204515     -5.283095
  H      -3.310129      2.831060     -6.298369
  C      -2.133466      4.523885     -7.016249
  H      -2.434935      4.438037     -8.089776
  H      -1.070616      4.865635     -7.025707
  C      -3.004259      5.596156     -6.316230
  H      -2.922384      6.587057     -6.819662
  H      -2.699149      5.734193     -5.251932
  H      -4.081752      5.306628     -6.316393
  C       1.504233     -1.941804      2.205862
  H       1.199654     -0.985218      2.686571
  H       1.145796     -2.759761      2.877294
  C       0.814313     -2.064706      0.821152
  H       1.244378     -1.296053      0.132223
  H      -0.264002     -1.796919      0.932796
  C       0.911809     -3.461406      0.154803
  H       0.395146     -4.213692      0.801232
  H       1.977533     -3.790304      0.099539
  C       0.297795     -3.487096     -1.268056
  H      -0.739127     -3.075487     -1.232232
  H       0.875237     -2.787591     -1.922879
  C       0.274590     -4.892146     -1.917600
  H       1.303236     -5.328350     -1.901121
  H      -0.358215     -5.576443     -1.299954
  C      -0.240998     -4.895074     -3.392977
  H      -0.126502     -5.929500     -3.799184
  H       0.422791     -4.245595     -4.008812
  C      -1.696538     -4.473663     -3.531925
  H      -2.438855     -5.221828     -3.183860
  C      -2.164076     -3.288010     -3.997192
  H      -3.263376     -3.148212     -4.031379
  C      -1.327465     -2.125029     -4.515801
  H      -0.310194     -2.143657     -4.065751
  H      -1.795062     -1.165938     -4.181850
  C      -1.183575     -2.082167     -6.069798
  H      -0.704436     -3.028938     -6.418631
  H      -0.473272     -1.261385     -6.331284
  C      -2.513438     -1.862576     -6.833229
  H      -3.200506     -2.725714     -6.659494
  H      -3.035857     -0.968170     -6.410270
  C      -2.313786     -1.658276     -8.356839
  H      -1.613353     -0.803636     -8.511783
  H      -1.801319     -2.554294     -8.787904
  C      -3.636326     -1.404522     -9.125388
  H      -4.157525     -0.521105     -8.678297
  H      -4.319518     -2.273347     -8.960192
  C      -3.471326     -1.180196    -10.653723
  H      -2.934177     -2.054298    -11.100445
  H      -4.483436     -1.172484    -11.127588
  C      -2.732325      0.127532    -11.046312
  H      -3.243456      0.995804    -10.560682
  H      -1.694984      0.117289    -10.635100
  C      -2.669431      0.353600    -12.576961
  H      -2.130762      1.295195    -12.832569
  H      -2.140634     -0.484935    -13.088791
  H      -3.690647      0.420438    -13.021425
138
Coordinates from ORCA-job /wrk/rja7/qm_final_3_replicates/qm_final_1.1/qm/10/freq E -2722.582552500831
  N       1.150651      0.420804     11.589917
  C       0.486738     -0.128342     10.276042
  H       1.224563      0.045245      9.475800
  H      -0.394621      0.526169     10.096690
  C       1.984294     -0.624442     12.351535
  H       1.326959     -1.450304     12.682994
  H       2.765728     -0.999106     11.657195
  H       2.422516     -0.107346     13.231876
  C       0.066341      0.946870     12.513730
  H      -0.640704      0.121871     12.736898
  H       0.528564      1.308026     13.455966
  H      -0.472508      1.779471     12.015859
  C       2.093250      1.554619     11.172678
  H       2.897265      1.097849     10.561427
  H       2.496393      2.035076     12.089060
  H       1.531642      2.285007     10.556385
  C       0.041493     -1.609353     10.265294
  H      -0.638868     -1.831724     11.128316
  H      -0.587562     -1.690605      9.339052
  P       2.454993     -2.452103      9.228473
  O       3.072982     -3.822778      9.113524
  O       3.241167     -1.184054      9.644828
  O       1.079025     -2.575607     10.276053
  O       1.546632     -2.040936      7.816158
  C       2.314041     -1.890162      6.609028
  H       1.661049     -2.187200      5.754004
  H       3.200367     -2.568706      6.602094
  C       2.795145     -0.426000      6.418638
  H       3.190847     -0.059372      7.391867
  O       1.621822      0.390718      6.013440
  C       1.183402      1.419694      6.789930
  O       1.690963      1.777071      7.851919
  C      -0.004012      2.135128      6.125889
  H      -0.575230      2.631834      6.941185
  H      -0.674171      1.397587      5.631467
  C       3.897784     -0.213991      5.362653
  H       4.783028     -0.836537      5.623890
  H       4.197026      0.857942      5.341673
  O       3.444053     -0.512241      4.004474
  C       3.714341     -1.765025      3.482760
  O       4.367499     -2.621621      4.058209
  C       3.054267     -1.910323      2.106644
  H       3.397194     -1.071157      1.455039
  H       3.420688     -2.861530      1.665031
  C       0.472595      3.222506      5.101587
  H       1.297638      3.807609      5.573612
  H      -0.365082      3.946816      4.955918
  C       0.925644      2.701523      3.707705
  H       1.715205      1.922985      3.817614
  H       1.405054      3.554821      3.168675
  C      -0.231384      2.153149      2.830051
  H      -1.085029      2.876346      2.860011
  H      -0.626918      1.200532      3.260343
  C       0.159087      1.918387      1.346382
  H       0.962902      1.145443      1.281682
  H       0.611967      2.854685      0.938570
  C      -1.043803      1.501767      0.461504
  H      -1.857561      2.260674      0.576755
  H      -1.472985      0.541021      0.836399
  C      -0.714011      1.351008     -1.052705
  H      -1.644831      1.021736     -1.581556
  H       0.018103      0.524144     -1.202396
  C      -0.212342      2.640689     -1.688219
  H      -0.684529      3.569313     -1.304184
  C       0.723148      2.771087     -2.662704
  H       0.957569      3.797319     -3.009689
  C       1.433923      1.638937     -3.392447
  H       1.457504      0.721482     -2.760658
  H       2.498528      1.923163     -3.579236
  C       0.758579      1.279803     -4.758551
  H      -0.307455      1.022134     -4.558347
  H       1.232603      0.351748     -5.162396
  C       0.849618      2.402553     -5.824654
  H       1.927500      2.586850     -6.056033
  H       0.474523      3.359845     -5.392036
  C       0.098789      2.105178     -7.152632
  H       0.518188      1.176679     -7.613247
  H       0.324599      2.923278     -7.877543
  C      -1.445372      1.933257     -7.035575
  H      -1.677985      0.986482     -6.497271
  H      -1.858721      1.792994     -8.064673
  C      -2.211157      3.095730     -6.344680
  H      -1.878150      3.197137     -5.283190
  H      -3.292915      2.818586     -6.291155
  C      -2.083578      4.469636     -7.053399
  H      -2.385801      4.358422     -8.124121
  H      -1.013911      4.790364     -7.071070
  C      -2.933643      5.578275     -6.385164
  H      -2.829734      6.553541     -6.914399
  H      -2.628518      5.738218     -5.323940
  H      -4.017074      5.311901     -6.381204
  C       1.495611     -1.885222      2.183765
  H       1.178878     -0.931559      2.662681
  H       1.145710     -2.706485      2.855626
  C       0.811140     -2.020444      0.797247
  H       1.236650     -1.251870      0.105458
  H      -0.270013     -1.762633      0.904450
  C       0.925953     -3.420964      0.141016
  H       0.415635     -4.173958      0.791693
  H       1.995490     -3.738226      0.092913
  C       0.318936     -3.468120     -1.284262
  H      -0.726205     -3.077308     -1.257300
  H       0.886990     -2.762814     -1.941257
  C       0.327893     -4.879019     -1.922054
  H       1.364999     -5.294056     -1.894529
  H      -0.295568     -5.570714     -1.303228
  C      -0.175554     -4.905197     -3.401676
  H      -0.036178     -5.940455     -3.797916
  H       0.479772     -4.247357     -4.017554
  C      -1.638490     -4.515784     -3.555101
  H      -2.367460     -5.277214     -3.207682
  C      -2.127788     -3.342515     -4.029392
  H      -3.229584     -3.226199     -4.071216
  C      -1.313791     -2.163500     -4.546514
  H      -0.293724     -2.167313     -4.102628
  H      -1.795581     -1.214305     -4.204982
  C      -1.180916     -2.108232     -6.100594
  H      -0.687413     -3.043923     -6.459221
  H      -0.487080     -1.273466     -6.360734
  C      -2.519475     -1.905763     -6.853243
  H      -3.188701     -2.784251     -6.686437
  H      -3.056466     -1.027189     -6.415555
  C      -2.333596     -1.676391     -8.374798
  H      -1.649669     -0.807028     -8.521856
  H      -1.807244     -2.556300     -8.822090
  C      -3.665597     -1.435173     -9.130360
  H      -4.200104     -0.569446     -8.664525
  H      -4.332096     -2.318953     -8.976473
  C      -3.515294     -1.177673    -10.654626
  H      -2.970571     -2.035135    -11.123759
  H      -4.531107     -1.172707    -11.120518
  C      -2.795083      0.147346    -11.022999
  H      -3.306945      0.997105    -10.506222
  H      -1.751411      0.136833    -10.627701
  C      -2.758010      0.414775    -12.547881
  H      -2.232811      1.368339    -12.786530
  H      -2.229206     -0.404339    -13.090243
  H      -3.786736      0.482630    -12.974510
138
Coordinates from ORCA-job /wrk/rja7/qm_final_3_replicates/qm_final_1.1/qm/10/freq E -2722.582596311451
  N       1.153146      0.420140     11.584074
  C       0.483620     -0.116649     10.267542
  H       1.223945      0.049952      9.468278
  H      -0.388704      0.550365     10.091292
  C       1.980405     -0.635424     12.337962
  H       1.316696     -1.457056     12.667791
  H       2.755762     -1.014385     11.638869
  H       2.426738     -0.126903     13.219374
  C       0.074423      0.948077     12.513103
  H      -0.638683      0.127096     12.732186
  H       0.541643      1.298758     13.456795
  H      -0.458872      1.788245     12.021866
  C       2.102339      1.550767     11.171570
  H       2.902684      1.092878     10.556405
  H       2.510892      2.023552     12.089628
  H       1.544091      2.287877     10.560293
  C       0.019932     -1.591845     10.252381
  H      -0.664352     -1.808151     11.113886
  H      -0.608751     -1.663346      9.325083
  P       2.425884     -2.462133      9.219108
  O       3.029791     -3.839522      9.108423
  O       3.225320     -1.202444      9.636407
  O       1.045549     -2.570938     10.262541
  O       1.526653     -2.041850      7.804115
  C       2.300339     -1.890348      6.601172
  H       1.649099     -2.178831      5.741756
  H       3.182573     -2.574359      6.594764
  C       2.791180     -0.428768      6.418989
  H       3.189576     -0.070034      7.393878
  O       1.623083      0.398128      6.018918
  C       1.192034      1.426240      6.800893
  O       1.700956      1.772693      7.865922
  C       0.010549      2.153993      6.140272
  H      -0.554713      2.654184      6.957440
  H      -0.667246      1.423122      5.645927
  C       3.894890     -0.220105      5.363311
  H       4.775139     -0.851439      5.620089
  H       4.202713      0.849408      5.347127
  O       3.436545     -0.509544      4.005100
  C       3.704933     -1.759972      3.476516
  O       4.358854     -2.619488      4.046787
  C       3.042035     -1.899383      2.101357
  H       3.379933     -1.054791      1.454155
  H       3.411909     -2.846251      1.653387
  C       0.492283      3.239665      5.116332
  H       1.319430      3.821428      5.588838
  H      -0.343369      3.966471      4.971432
  C       0.942739      2.719414      3.721290
  H       1.734179      1.942663      3.829029
  H       1.418511      3.574060      3.181118
  C      -0.216171      2.169071      2.847324
  H      -1.071017      2.890815      2.880288
  H      -0.608290      1.215916      3.279573
  C       0.168822      1.933182      1.362433
  H       0.971204      1.159041      1.295651
  H       0.620997      2.868286      0.951247
  C      -1.037797      1.514824      0.482952
  H      -1.850418      2.274881      0.599104
  H      -1.466438      0.555676      0.862443
  C      -0.712951      1.357642     -1.031505
  H      -1.645965      1.027240     -1.556095
  H       0.018208      0.529755     -1.179110
  C      -0.210565      2.643562     -1.673655
  H      -0.676341      3.575078     -1.288795
  C       0.718435      2.767062     -2.655337
  H       0.954769      3.791211     -3.007177
  C       1.419797      1.629459     -3.385908
  H       1.441747      0.713306     -2.752354
  H       2.485165      1.907504     -3.578221
  C       0.737226      1.270632     -4.748597
  H      -0.331249      1.025215     -4.544968
  H       1.200444      0.336119     -5.149623
  C       0.838580      2.388091     -5.819148
  H       1.917919      2.559155     -6.053933
  H       0.476301      3.351446     -5.388811
  C       0.081946      2.095509     -7.144606
  H       0.491845      1.162582     -7.604798
  H       0.313527      2.910520     -7.871141
  C      -1.463150      1.937343     -7.024401
  H      -1.702785      0.990951     -6.487934
  H      -1.879910      1.803596     -8.052892
  C      -2.216625      3.105815     -6.330198
  H      -1.880104      3.204495     -5.269373
  H      -3.300729      2.838828     -6.273700
  C      -2.077908      4.478740     -7.039104
  H      -2.385772      4.370958     -8.108692
  H      -1.005324      4.789008     -7.061194
  C      -2.913919      5.595728     -6.366805
  H      -2.799457      6.571119     -6.893621
  H      -2.604888      5.748933     -5.305744
  H      -4.000502      5.342451     -6.361434
  C       1.483276     -1.882600      2.181172
  H       1.161988     -0.932882      2.664775
  H       1.138420     -2.708734      2.849719
  C       0.799299     -2.016502      0.794046
  H       1.221254     -1.243922      0.104420
  H      -0.283176     -1.764950      0.901468
  C       0.923932     -3.415085      0.135850
  H       0.417373     -4.172349      0.784585
  H       1.995815     -3.724519      0.090178
  C       0.322868     -3.466256     -1.291610
  H      -0.728596     -3.092376     -1.268125
  H       0.882425     -2.750488     -1.944581
  C       0.357488     -4.875799     -1.931944
  H       1.401218     -5.273490     -1.899376
  H      -0.257859     -5.578513     -1.317442
  C      -0.137207     -4.908340     -3.414323
  H       0.020729     -5.940860     -3.810800
  H       0.511097     -4.239638     -4.025798
  C      -1.605333     -4.542497     -3.575863
  H      -2.323506     -5.316809     -3.234398
  C      -2.111793     -3.376219     -4.049556
  H      -3.215194     -3.279018     -4.097914
  C      -1.315941     -2.180736     -4.556386
  H      -0.295786     -2.172275     -4.112929
  H      -1.811787     -1.241538     -4.206673
  C      -1.183961     -2.111317     -6.110225
  H      -0.679490     -3.038280     -6.476178
  H      -0.499705     -1.266136     -6.362878
  C      -2.523337     -1.917916     -6.863924
  H      -3.185559     -2.802584     -6.701415
  H      -3.068728     -1.045301     -6.424328
  C      -2.336524     -1.684134     -8.384904
  H      -1.655313     -0.812294     -8.528937
  H      -1.806012     -2.561074     -8.833318
  C      -3.668123     -1.446640     -9.142300
  H      -4.204838     -0.581453     -8.677860
  H      -4.333135     -2.331515     -8.988452
  C      -3.517295     -1.189459    -10.666823
  H      -2.973506     -2.047497    -11.135952
  H      -4.533230     -1.183547    -11.132372
  C      -2.796136      0.134944    -11.035935
  H      -3.304010      0.984429    -10.515095
  H      -1.750637      0.122083    -10.645321
  C      -2.765555      0.405434    -12.560490
  H      -2.240429      1.358884    -12.799756
  H      -2.240211     -0.413179    -13.106925
  H      -3.796229      0.474985    -12.982020
138
Coordinates from ORCA-job /wrk/rja7/qm_final_3_replicates/qm_final_1.1/qm/10/freq E -2722.582654070470
  N       1.109294      0.384857     11.589275
  C       0.437239     -0.100041     10.253053
  H       1.192972      0.054088      9.465817
  H      -0.405002      0.605667     10.083424
  C       1.896615     -0.712352     12.325106
  H       1.204255     -1.519547     12.631926
  H       2.664249     -1.101432     11.622992
  H       2.353497     -0.239175     13.220865
  C       0.037911      0.922418     12.521147
  H      -0.702656      0.118954     12.712510
  H       0.506962      1.232952     13.477759
  H      -0.464144      1.791333     12.047150
  C       2.095358      1.496935     11.212106
  H       2.888846      1.030391     10.594617
  H       2.509728      1.936319     12.144138
  H       1.564970      2.263604     10.612515
  C      -0.081762     -1.555781     10.201928
  H      -0.786027     -1.763245     11.049384
  H      -0.698628     -1.586244      9.264594
  P       2.305146     -2.502178      9.185280
  O       2.858789     -3.900028      9.067133
  O       3.145964     -1.279357      9.631083
  O       0.906431     -2.573264     10.207412
  O       1.444531     -2.028099      7.763809
  C       2.242581     -1.875460      6.576895
  H       1.598812     -2.133136      5.701920
  H       3.107946     -2.580824      6.573018
  C       2.771563     -0.423952      6.426164
  H       3.162446     -0.089701      7.412474
  O       1.629828      0.436708      6.020881
  C       1.215451      1.465904      6.811145
  O       1.716127      1.780194      7.889984
  C       0.061053      2.231998      6.146948
  H      -0.486207      2.754599      6.962159
  H      -0.641875      1.521933      5.656470
  C       3.897560     -0.227766      5.391375
  H       4.760785     -0.878924      5.655693
  H       4.226628      0.835508      5.391463
  O       3.455443     -0.495942      4.023581
  C       3.727849     -1.739206      3.479282
  O       4.372568     -2.608952      4.044631
  C       3.074934     -1.859747      2.097996
  H       3.413335     -1.003987      1.465957
  H       3.451848     -2.798339      1.638742
  C       0.572578      3.297933      5.116674
  H       1.411720      3.863639      5.587675
  H      -0.246747      4.041944      4.965623
  C       1.013177      2.762118      3.724369
  H       1.798363      1.979665      3.834679
  H       1.493702      3.609259      3.176569
  C      -0.155072      2.215591      2.860315
  H      -1.005911      2.942033      2.897451
  H      -0.548562      1.266253      3.299553
  C       0.214849      1.970824      1.373081
  H       1.009352      1.188950      1.301502
  H       0.670655      2.899828      0.952557
  C      -1.004473      1.555959      0.508736
  H      -1.809807      2.323121      0.629617
  H      -1.435866      0.602872      0.900246
  C      -0.699339      1.384644     -1.008226
  H      -1.641695      1.058078     -1.518261
  H       0.023883      0.550505     -1.158005
  C      -0.195679      2.661263     -1.666882
  H      -0.655894      3.598320     -1.288748
  C       0.726169      2.771100     -2.656742
  H       0.962466      3.790793     -3.021394
  C       1.421739      1.624431     -3.378466
  H       1.452788      0.716788     -2.733196
  H       2.484728      1.901532     -3.585230
  C       0.726633      1.246032     -4.729401
  H      -0.342750      1.013540     -4.514771
  H       1.179201      0.300833     -5.116816
  C       0.830540      2.345030     -5.818337
  H       1.909641      2.499848     -6.065682
  H       0.484626      3.319396     -5.399033
  C       0.059483      2.043601     -7.132878
  H       0.450157      1.097135     -7.582002
  H       0.299078      2.843347     -7.873539
  C      -1.486689      1.913767     -6.999112
  H      -1.738002      0.979407     -6.446508
  H      -1.912653      1.771667     -8.022724
  C      -2.213424      3.107347     -6.319066
  H      -1.864894      3.221800     -5.263506
  H      -3.301350      2.860868     -6.246952
  C      -2.057805      4.464132     -7.055672
  H      -2.380279      4.341926     -8.119424
  H      -0.980488      4.754772     -7.095938
  C      -2.865173      5.609135     -6.395238
  H      -2.733972      6.573683     -6.937837
  H      -2.544426      5.771460     -5.339027
  H      -3.956961      5.379773     -6.377503
  C       1.515600     -1.852990      2.168170
  H       1.185237     -0.906667      2.652218
  H       1.172426     -2.682718      2.833109
  C       0.841208     -1.990854      0.775956
  H       1.263250     -1.216448      0.088417
  H      -0.243555     -1.746080      0.876078
  C       0.982739     -3.389630      0.121906
  H       0.481431     -4.150434      0.770569
  H       2.058361     -3.686756      0.084115
  C       0.392836     -3.455509     -1.309314
  H      -0.669514     -3.113259     -1.293286
  H       0.935871     -2.724676     -1.959530
  C       0.473014     -4.864842     -1.947259
  H       1.528416     -5.229679     -1.908432
  H      -0.123373     -5.584567     -1.333813
  C      -0.015800     -4.915546     -3.431002
  H       0.170617     -5.944457     -3.824407
  H       0.615579     -4.231559     -4.043243
  C      -1.492985     -4.589787     -3.595975
  H      -2.190042     -5.382640     -3.253178
  C      -2.031537     -3.438655     -4.071422
  H      -3.137271     -3.372685     -4.119763
  C      -1.270938     -2.222408     -4.581548
  H      -0.241038     -2.198449     -4.161751
  H      -1.775952     -1.296272     -4.210040
  C      -1.175708     -2.133045     -6.137474
  H      -0.671651     -3.050576     -6.526871
  H      -0.504539     -1.278376     -6.394550
  C      -2.532099     -1.939661     -6.860105
  H      -3.187466     -2.828390     -6.691342
  H      -3.071952     -1.072891     -6.402043
  C      -2.378679     -1.693911     -8.383239
  H      -1.704882     -0.817758     -8.534734
  H      -1.852117     -2.564726     -8.848282
  C      -3.726612     -1.459872     -9.111727
  H      -4.257133     -0.597991     -8.634168
  H      -4.384777     -2.347727     -8.946226
  C      -3.610193     -1.196643    -10.638482
  H      -3.077060     -2.052169    -11.124131
  H      -4.636806     -1.189863    -11.079849
  C      -2.899965      0.130738    -11.018985
  H      -3.392341      0.976211    -10.477012
  H      -1.843419      0.115568    -10.659129
  C      -2.913986      0.412498    -12.541793
  H      -2.397332      1.368451    -12.789368
  H      -2.403903     -0.401300    -13.109425
  H      -3.956788      0.483378    -12.931970
138
Coordinates from ORCA-job /wrk/rja7/qm_final_3_replicates/qm_final_1.1/qm/10/freq E -2722.582699186871
  N       1.087483      0.361009     11.582133
  C       0.411715     -0.081796     10.232233
  H       1.178523      0.060600      9.453292
  H      -0.403635      0.656150     10.069927
  C       1.844968     -0.767282     12.301375
  H       1.131981     -1.564009     12.587433
  H       2.607520     -1.161480     11.596584
  H       2.307636     -0.322984     13.208948
  C       0.022809      0.905441     12.517775
  H      -0.737782      0.116220     12.688396
  H       0.492580      1.185300     13.483399
  H      -0.455657      1.795417     12.058564
  C       2.100143      1.457122     11.230125
  H       2.886837      0.984043     10.608782
  H       2.520149      1.870513     12.171499
  H       1.589824      2.246097     10.642069
  C      -0.152191     -1.518831     10.155221
  H      -0.869093     -1.718340     10.993765
  H      -0.761287     -1.517547      9.212349
  P       2.215121     -2.522454      9.144202
  O       2.729837     -3.934512      9.018976
  O       3.086679     -1.328759      9.609727
  O       0.805800     -2.565318     10.153148
  O       1.382219     -2.008968      7.719998
  C       2.198803     -1.858096      6.545478
  H       1.560528     -2.090303      5.659269
  H       3.048679     -2.582238      6.542177
  C       2.760377     -0.416739      6.419929
  H       3.143870     -0.100955      7.414943
  O       1.641027      0.470988      6.009121
  C       1.238487      1.499527      6.806684
  O       1.735798      1.792392      7.893206
  C       0.100974      2.290763      6.143840
  H      -0.430064      2.829344      6.959367
  H      -0.619975      1.594049      5.659998
  C       3.904371     -0.234065      5.402804
  H       4.752653     -0.901268      5.674855
  H       4.251232      0.823534      5.414055
  O       3.475865     -0.488967      4.028403
  C       3.745542     -1.730563      3.478375
  O       4.382912     -2.606658      4.042288
  C       3.099924     -1.839909      2.093075
  H       3.440122     -0.978807      1.469422
  H       3.479444     -2.774682      1.628176
  C       0.627424      3.340292      5.104807
  H       1.474664      3.898002      5.570909
  H      -0.182773      4.093212      4.948925
  C       1.059045      2.789559      3.715594
  H       1.840439      2.003707      3.828844
  H       1.541658      3.629965      3.159283
  C      -0.116347      2.243057      2.860891
  H      -0.963382      2.973939      2.898215
  H      -0.511464      1.298274      3.308409
  C       0.244201      1.987318      1.373420
  H       1.033295      1.199787      1.301991
  H       0.703197      2.910871      0.944567
  C      -0.981981      1.573706      0.517660
  H      -1.782513      2.346114      0.637481
  H      -1.416377      0.625888      0.918460
  C      -0.685602      1.391275     -0.999591
  H      -1.630439      1.061202     -1.502700
  H       0.037323      0.556604     -1.147189
  C      -0.184928      2.663374     -1.669648
  H      -0.638481      3.603383     -1.290746
  C       0.728661      2.767602     -2.667523
  H       0.964463      3.786010     -3.036131
  C       1.417715      1.619107     -3.391905
  H       1.451693      0.711581     -2.746385
  H       2.479763      1.895082     -3.604849
  C       0.715870      1.242545     -4.739880
  H      -0.352586      1.009687     -4.521031
  H       1.166426      0.298513     -5.132293
  C       0.814903      2.346183     -5.824830
  H       1.892940      2.501057     -6.077085
  H       0.472536      3.318400     -5.398211
  C       0.037435      2.054137     -7.137650
  H       0.427053      1.112555     -7.597420
  H       0.271839      2.860908     -7.872341
  C      -1.507904      1.922024     -6.996079
  H      -1.754321      0.981440     -6.451525
  H      -1.940070      1.790407     -8.018386
  C      -2.228778      3.108515     -6.297934
  H      -1.877625      3.206754     -5.241607
  H      -3.317711      2.866408     -6.226830
  C      -2.068480      4.475594     -7.014695
  H      -2.395324      4.371685     -8.079165
  H      -0.990077      4.761345     -7.054353
  C      -2.867128      5.614655     -6.333642
  H      -2.729741      6.587574     -6.859454
  H      -2.543381      5.755971     -5.275289
  H      -3.960544      5.392948     -6.317634
  C       1.540347     -1.835785      2.158039
  H       1.207070     -0.889514      2.640397
  H       1.196464     -2.665136      2.823014
  C       0.871009     -1.978002      0.763558
  H       1.297629     -1.207886      0.074147
  H      -0.213593     -1.730240      0.858180
  C       1.013118     -3.380364      0.117612
  H       0.509290     -4.137095      0.768924
  H       2.088822     -3.678154      0.085949
  C       0.429847     -3.455282     -1.315437
  H      -0.634811     -3.119893     -1.306135
  H       0.971375     -2.725025     -1.967480
  C       0.519681     -4.867698     -1.946334
  H       1.577398     -5.225359     -1.904655
  H      -0.072234     -5.588087     -1.329321
  C       0.029450     -4.927972     -3.428953
  H       0.224166     -5.956016     -3.820531
  H       0.652978     -4.240068     -4.044889
  C      -1.451154     -4.616640     -3.591070
  H      -2.139272     -5.416239     -3.245806
  C      -2.002541     -3.471573     -4.066197
  H      -3.109017     -3.417229     -4.112527
  C      -1.256218     -2.247720     -4.578156
  H      -0.221987     -2.217606     -4.169190
  H      -1.763145     -1.326404     -4.196845
  C      -1.176003     -2.152348     -6.134828
  H      -0.673203     -3.067383     -6.531659
  H      -0.508633     -1.295510     -6.394614
  C      -2.537579     -1.958689     -6.847159
  H      -3.192056     -2.847803     -6.676367
  H      -3.074790     -1.092694     -6.384589
  C      -2.393118     -1.710384     -8.370947
  H      -1.722361     -0.832020     -8.523875
  H      -1.865596     -2.578817     -8.839502
  C      -3.744149     -1.479455     -9.093789
  H      -4.275070     -0.618646     -8.614815
  H      -4.399984     -2.368595     -8.925796
  C      -3.633756     -1.216068    -10.621141
  H      -3.103122     -2.071649    -11.109430
  H      -4.662385     -1.209110    -11.057845
  C      -2.925116      0.111365    -11.004862
  H      -3.415444      0.957163    -10.461447
  H      -1.867290      0.096512    -10.648475
  C      -2.944033      0.392380    -12.527659
  H      -2.429812      1.349124    -12.777209
  H      -2.434368     -0.420856    -13.096466
  H      -3.988140      0.461275    -12.914662
138
Coordinates from ORCA-job /wrk/rja7/qm_final_3_replicates/qm_final_1.1/qm/10/freq E -2722.582742068890
  N       1.063936      0.321015     11.587861
  C       0.387299     -0.064347     10.220053
  H       1.167030      0.071398      9.452529
  H      -0.397624      0.708402     10.070496
  C       1.784240     -0.846512     12.281527
  H       1.046828     -1.631007     12.535952
  H       2.543490     -1.241559     11.573538
  H       2.249369     -0.441782     13.206255
  C       0.005235      0.868367     12.528778
  H      -0.778726      0.096307     12.668333
  H       0.471613      1.106762     13.507068
  H      -0.443663      1.784706     12.092077
  C       2.107373      1.398193     11.272550
  H       2.886324      0.920339     10.645151
  H       2.530989      1.775782     12.227232
  H       1.622004      2.215293     10.702058
  C      -0.224107     -1.478554     10.103912
  H      -0.955350     -1.674399     10.930517
  H      -0.823083     -1.436654      9.155402
  P       2.120521     -2.536523      9.093275
  O       2.598306     -3.960442      8.957995
  O       3.019411     -1.373294      9.582684
  O       0.700311     -2.555233     10.086997
  O       1.318227     -1.983347      7.666529
  C       2.156061     -1.837147      6.506601
  H       1.524702     -2.036906      5.607642
  H       2.985210     -2.585159      6.503398
  C       2.759258     -0.410265      6.411986
  H       3.137560     -0.118629      7.416158
  O       1.668971      0.512594      6.000073
  C       1.279521      1.534255      6.812765
  O       1.771870      1.795448      7.909708
  C       0.162814      2.358304      6.155326
  H      -0.347419      2.913169      6.973155
  H      -0.580115      1.680001      5.678300
  C       3.920260     -0.245983      5.412043
  H       4.749124     -0.934857      5.689453
  H       4.291242      0.803353      5.435995
  O       3.502681     -0.483724      4.031075
  C       3.766833     -1.722900      3.472601
  O       4.395785     -2.607467      4.032688
  C       3.125128     -1.818507      2.084653
  H       3.463816     -0.950250      1.470420
  H       3.506840     -2.747977      1.610978
  C       0.707070      3.389580      5.107730
  H       1.567466      3.933369      5.566248
  H      -0.089440      4.156697      4.951209
  C       1.121246      2.822726      3.719873
  H       1.895386      2.029753      3.833159
  H       1.607553      3.654225      3.153403
  C      -0.066427      2.281691      2.878978
  H      -0.906893      3.019839      2.920347
  H      -0.464537      1.342443      3.335260
  C       0.278722      2.015470      1.389902
  H       1.060219      1.220553      1.315263
  H       0.741625      2.933119      0.952375
  C      -0.957937      1.608221      0.546217
  H      -1.751790      2.387002      0.668887
  H      -1.395943      0.665687      0.955555
  C      -0.674577      1.416288     -0.972181
  H      -1.623014      1.082542     -1.465397
  H       0.047660      0.580941     -1.119772
  C      -0.179447      2.683095     -1.657059
  H      -0.627511      3.626785     -1.280661
  C       0.725606      2.778406     -2.663575
  H       0.960249      3.793893     -3.040884
  C       1.408679      1.624363     -3.384353
  H       1.443175      0.720591     -2.733481
  H       2.470404      1.897490     -3.602240
  C       0.703471      1.241326     -4.728942
  H      -0.363610      1.005683     -4.506843
  H       1.155497      0.296952     -5.119059
  C       0.797398      2.341084     -5.818657
  H       1.874962      2.501191     -6.069667
  H       0.448183      3.312385     -5.396380
  C       0.024390      2.039043     -7.132601
  H       0.421483      1.098791     -7.588423
  H       0.255310      2.844877     -7.869429
  C      -1.521089      1.898634     -6.993547
  H      -1.762454      0.960623     -6.442552
  H      -1.950160      1.756169     -8.015650
  C      -2.249955      3.085728     -6.304935
  H      -1.901837      3.192326     -5.248652
  H      -3.337877      2.838905     -6.234619
  C      -2.096605      4.449482     -7.029479
  H      -2.422826      4.337964     -8.093350
  H      -1.019792      4.740756     -7.070630
  C      -2.901000      5.588204     -6.354962
  H      -2.767801      6.558887     -6.885900
  H      -2.578120      5.736863     -5.297276
  H      -3.993312      5.361267     -6.337624
  C       1.565358     -1.819048      2.148590
  H       1.229247     -0.873996      2.631771
  H       1.223131     -2.649908      2.812416
  C       0.898308     -1.963271      0.753336
  H       1.326052     -1.193897      0.063912
  H      -0.186658     -1.715424      0.845266
  C       1.043441     -3.366418      0.109584
  H       0.540702     -4.123004      0.761696
  H       2.119936     -3.661923      0.079928
  C       0.462527     -3.445321     -1.323678
  H      -0.604922     -3.118957     -1.315925
  H       0.998950     -2.711096     -1.975374
  C       0.562351     -4.856718     -1.956108
  H       1.622990     -5.205991     -1.917572
  H      -0.021395     -5.582677     -1.337761
  C       0.066740     -4.918285     -3.436523
  H       0.270168     -5.942801     -3.832873
  H       0.679833     -4.222002     -4.053629
  C      -1.417889     -4.622792     -3.591430
  H      -2.095071     -5.432308     -3.247683
  C      -1.984326     -3.482712     -4.060545
  H      -3.091515     -3.441392     -4.103461
  C      -1.254565     -2.248435     -4.571019
  H      -0.218376     -2.207384     -4.167783
  H      -1.769201     -1.334282     -4.183021
  C      -1.181685     -2.147481     -6.127536
  H      -0.671836     -3.057212     -6.527682
  H      -0.523452     -1.284206     -6.388488
  C      -2.546937     -1.965949     -6.834729
  H      -3.194543     -2.859564     -6.660886
  H      -3.089004     -1.103006     -6.372470
  C      -2.407940     -1.718903     -8.359159
  H      -1.742455     -0.836693     -8.514236
  H      -1.876161     -2.584815     -8.827505
  C      -3.760694     -1.495269     -9.079842
  H      -4.294876     -0.635581     -8.602488
  H      -4.412868     -2.386705     -8.909370
  C      -3.652554     -1.235720    -10.607922
  H      -3.119528     -2.090854    -11.094377
  H      -4.681760     -1.233737    -11.043528
  C      -2.948815      0.092728    -10.996445
  H      -3.444687      0.939596    -10.459512
  H      -1.892172      0.084283    -10.636124
  C      -2.963258      0.364887    -12.520696
  H      -2.453140      1.322919    -12.773612
  H      -2.447165     -0.449034    -13.082696
  H      -4.006181      0.426184    -12.912232
138
Coordinates from ORCA-job /wrk/rja7/qm_final_3_replicates/qm_final_1.1/qm/10/freq E -2722.582770964705
  N       1.073374      0.333999     11.581244
  C       0.401417     -0.061817     10.214473
  H       1.183742      0.070293      9.448850
  H      -0.384561      0.708406     10.054578
  C       1.788634     -0.829285     12.287767
  H       1.049413     -1.613026     12.537058
  H       2.556024     -1.226801     11.590142
  H       2.243417     -0.418872     13.215025
  C       0.009988      0.889519     12.512083
  H      -0.774271      0.118468     12.654569
  H       0.470156      1.138465     13.490829
  H      -0.437092      1.801593     12.064917
  C       2.119033      1.406728     11.262290
  H       2.900302      0.922514     10.642879
  H       2.537511      1.791515     12.216306
  H       1.637673      2.219885     10.682755
  C      -0.206154     -1.478285     10.108498
  H      -0.936114     -1.671077     10.936792
  H      -0.806283     -1.444950      9.160263
  P       2.139235     -2.534189      9.100414
  O       2.620248     -3.957285      8.968196
  O       3.036577     -1.367121      9.582854
  O       0.721860     -2.551964     10.097725
  O       1.329326     -1.989509      7.674566
  C       2.163523     -1.845691      6.511709
  H       1.529703     -2.046370      5.614943
  H       2.992389     -2.594151      6.507087
  C       2.766760     -0.418810      6.414965
  H       3.143319     -0.124900      7.419166
  O       1.676395      0.502128      5.999607
  C       1.285912      1.524722      6.810616
  O       1.781567      1.791284      7.904793
  C       0.165690      2.344140      6.153174
  H      -0.348145      2.894986      6.971608
  H      -0.573037      1.661339      5.676350
  C       3.928495     -0.257161      5.416277
  H       4.757060     -0.944910      5.697572
  H       4.299515      0.792288      5.436763
  O       3.513070     -0.499945      4.035091
  C       3.773930     -1.742163      3.482031
  O       4.398508     -2.626953      4.046522
  C       3.134607     -1.840244      2.092826
  H       3.475708     -0.974515      1.476539
  H       3.514075     -2.772134      1.622139
  C       0.704317      3.377240      5.105138
  H       1.564670      3.923654      5.560614
  H      -0.094177      4.142630      4.950732
  C       1.116180      2.809533      3.717031
  H       1.889217      2.015436      3.830161
  H       1.603159      3.639598      3.149094
  C      -0.072838      2.268588      2.878384
  H      -0.911733      3.008549      2.917639
  H      -0.472919      1.331628      3.337503
  C       0.272531      1.998672      1.390227
  H       1.054313      1.204025      1.317049
  H       0.735670      2.916108      0.952038
  C      -0.963988      1.593394      0.546304
  H      -1.756602      2.373537      0.667737
  H      -1.404183      0.651602      0.955197
  C      -0.679729      1.403254     -0.971821
  H      -1.627303      1.069223     -1.466472
  H       0.042735      0.567861     -1.121220
  C      -0.184342      2.672052     -1.653393
  H      -0.630729      3.614948     -1.273034
  C       0.718904      2.770699     -2.661110
  H       0.953968      3.787674     -3.034127
  C       1.400016      1.620097     -3.388575
  H       1.427216      0.710827     -2.744957
  H       2.463923      1.890325     -3.599403
  C       0.698358      1.253304     -4.739348
  H      -0.367398      1.007824     -4.521991
  H       1.156129      0.317046     -5.142576
  C       0.787306      2.367931     -5.814869
  H       1.864757      2.543010     -6.055849
  H       0.422659      3.329697     -5.384306
  C       0.026412      2.071290     -7.137515
  H       0.438143      1.140721     -7.600225
  H       0.252816      2.887373     -7.864474
  C      -1.518708      1.911976     -7.009669
  H      -1.752753      0.969741     -6.463398
  H      -1.939543      1.767543     -8.034930
  C      -2.267216      3.086067     -6.319733
  H      -1.927619      3.188790     -5.260505
  H      -3.352308      2.824219     -6.258900
  C      -2.128526      4.456567     -7.034015
  H      -2.443334      4.347182     -8.101455
  H      -1.055773      4.764532     -7.063537
  C      -2.956866      5.578105     -6.359891
  H      -2.837523      6.552833     -6.886692
  H      -2.643348      5.729024     -5.299675
  H      -4.044901      5.331306     -6.350181
  C       1.574716     -1.835950      2.155724
  H       1.241783     -0.890120      2.639584
  H       1.229194     -2.666358      2.818404
  C       0.906313     -1.974782      0.760852
  H       1.335589     -1.204665      0.073140
  H      -0.177549     -1.722760      0.854479
  C       1.042808     -3.376404      0.111555
  H       0.537787     -4.132523      0.762425
  H       2.117479     -3.678122      0.076950
  C       0.454469     -3.445214     -1.319320
  H      -0.607717     -3.102029     -1.305997
  H       0.998478     -2.717547     -1.972114
  C       0.529348     -4.856220     -1.955782
  H       1.584826     -5.221755     -1.925604
  H      -0.060251     -5.575117     -1.334640
  C       0.022920     -4.907844     -3.432715
  H       0.215168     -5.932453     -3.834364
  H       0.637115     -4.214191     -4.051831
  C      -1.460341     -4.599953     -3.577594
  H      -2.142277     -5.405064     -3.233001
  C      -2.018964     -3.454279     -4.042155
  H      -3.125877     -3.402486     -4.079748
  C      -1.278792     -2.226685     -4.554465
  H      -0.246428     -2.187343     -4.141161
  H      -1.793296     -1.307865     -4.178234
  C      -1.189168     -2.137711     -6.110534
  H      -0.677595     -3.052056     -6.497888
  H      -0.526055     -1.278730     -6.371999
  C      -2.547356     -1.959110     -6.831596
  H      -3.197163     -2.851307     -6.659354
  H      -3.092694     -1.093382     -6.378821
  C      -2.393552     -1.717695     -8.355487
  H      -1.725358     -0.836811     -8.506852
  H      -1.859855     -2.586258     -8.816295
  C      -3.739070     -1.491982     -9.089105
  H      -4.276502     -0.631370     -8.617304
  H      -4.393974     -2.382660     -8.924950
  C      -3.614724     -1.235326    -10.616283
  H      -3.073571     -2.090103    -11.094324
  H      -4.638808     -1.237488    -11.063968
  C      -2.910091      0.093787    -11.000184
  H      -3.419526      0.941876    -10.478146
  H      -1.860245      0.091996    -10.620772
  C      -2.897985      0.356136    -12.526154
  H      -2.387497      1.314918    -12.775482
  H      -2.367627     -0.458868    -13.073116
  H      -3.933627      0.410501    -12.937629
138
Coordinates from ORCA-job /wrk/rja7/qm_final_3_replicates/qm_final_1.1/qm/10/freq E -2722.582792077169
  N       1.050898      0.303705     11.580260
  C       0.379531     -0.062111     10.204801
  H       1.167459      0.070084      9.445187
  H      -0.394776      0.721328     10.051597
  C       1.741380     -0.881803     12.274737
  H       0.987126     -1.656390     12.506322
  H       2.507510     -1.281198     11.576821
  H       2.195928     -0.492657     13.211355
  C      -0.007791      0.865078     12.512819
  H      -0.807119      0.106737     12.638979
  H       0.450479      1.091503     13.497955
  H      -0.434647      1.791811     12.076277
  C       2.116993      1.362095     11.281678
  H       2.892035      0.873363     10.658159
  H       2.537753      1.725020     12.243269
  H       1.652905      2.192217     10.712126
  C      -0.248636     -1.467844     10.075409
  H      -0.985828     -1.660854     10.897348
  H      -0.843694     -1.412368      9.125042
  P       2.085064     -2.547542      9.064913
  O       2.542405     -3.976499      8.912658
  O       3.000372     -1.404105      9.569835
  O       0.662510     -2.555606     10.054676
  O       1.291210     -1.967929      7.643963
  C       2.133894     -1.819186      6.487738
  H       1.502141     -1.996641      5.584715
  H       2.951408     -2.580051      6.477059
  C       2.758634     -0.400090      6.414045
  H       3.133373     -0.125016      7.424257
  O       1.685706      0.542720      6.003224
  C       1.300525      1.559881      6.823838
  O       1.786975      1.805198      7.926976
  C       0.201332      2.403584      6.161283
  H      -0.297030      2.973740      6.975929
  H      -0.555711      1.735805      5.691779
  C       3.928210     -0.244018      5.424220
  H       4.748317     -0.941074      5.707492
  H       4.309293      0.801662      5.451317
  O       3.517849     -0.477301      4.039568
  C       3.781571     -1.715330      3.478351
  O       4.403479     -2.604427      4.038979
  C       3.149354     -1.803338      2.085188
  H       3.487845     -0.930302      1.477915
  H       3.535728     -2.729079      1.608112
  C       0.763013      3.414064      5.102877
  H       1.637157      3.944311      5.551336
  H      -0.017460      4.197024      4.944328
  C       1.158543      2.826865      3.717787
  H       1.920353      2.022835      3.834959
  H       1.654407      3.644389      3.139484
  C      -0.042557      2.294847      2.890947
  H      -0.872574      3.044819      2.930793
  H      -0.450714      1.366047      3.359253
  C       0.288454      2.011688      1.401695
  H       1.059143      1.206785      1.326531
  H       0.759984      2.920854      0.955133
  C      -0.960261      1.619270      0.569825
  H      -1.741444      2.410078      0.695988
  H      -1.409646      0.684604      0.985413
  C      -0.692217      1.420672     -0.950276
  H      -1.650533      1.103780     -1.435797
  H       0.012777      0.571587     -1.104443
  C      -0.179672      2.678945     -1.637700
  H      -0.616194      3.629215     -1.264251
  C       0.726637      2.760764     -2.644362
  H       0.974935      3.772574     -3.022817
  C       1.393220      1.597258     -3.365118
  H       1.407054      0.691223     -2.716697
  H       2.460980      1.851805     -3.576155
  C       0.688040      1.232695     -4.714764
  H      -0.380874      1.001420     -4.496944
  H       1.134716      0.288755     -5.112589
  C       0.792199      2.339887     -5.796642
  H       1.872079      2.500703     -6.036381
  H       0.438004      3.308759     -5.372800
  C       0.030168      2.044128     -7.118675
  H       0.434110      1.107386     -7.576100
  H       0.265231      2.854574     -7.849224
  C      -1.516440      1.899044     -6.993367
  H      -1.760609      0.959791     -6.446381
  H      -1.936996      1.757288     -8.019168
  C      -2.256779      3.080265     -6.307091
  H      -1.914670      3.185408     -5.248798
  H      -3.343140      2.824154     -6.243480
  C      -2.112547      4.446405     -7.028461
  H      -2.429557      4.332854     -8.094877
  H      -1.038243      4.749347     -7.061259
  C      -2.935034      5.575106     -6.359095
  H      -2.813036      6.546126     -6.892159
  H      -2.618937      5.731398     -5.300473
  H      -4.023945      5.332493     -6.345968
  C       1.589130     -1.808548      2.141977
  H       1.248693     -0.865576      2.626079
  H       1.246306     -2.642406      2.801772
  C       0.926373     -1.949720      0.744721
  H       1.352977     -1.176631      0.058518
  H      -0.159253     -1.704411      0.835079
  C       1.073895     -3.350781      0.096390
  H       0.574259     -4.109996      0.747960
  H       2.150825     -3.644183      0.063093
  C       0.486149     -3.427259     -1.334384
  H      -0.579537     -3.095126     -1.321494
  H       1.022568     -2.694729     -1.988183
  C       0.577142     -4.838722     -1.967474
  H       1.637250     -5.190779     -1.938667
  H      -0.001679     -5.563187     -1.342642
  C       0.068943     -4.902712     -3.443234
  H       0.275822     -5.926060     -3.840860
  H       0.671612     -4.202543     -4.066253
  C      -1.419220     -4.617959     -3.587071
  H      -2.088654     -5.432534     -3.240325
  C      -1.995314     -3.481020     -4.051912
  H      -3.102908     -3.444796     -4.086949
  C      -1.273258     -2.243946     -4.567118
  H      -0.239979     -2.191059     -4.157807
  H      -1.798526     -1.331882     -4.189514
  C      -1.191491     -2.153525     -6.123456
  H      -0.675735     -3.064051     -6.514181
  H      -0.535127     -1.290191     -6.387453
  C      -2.554681     -1.982061     -6.836936
  H      -3.198206     -2.878271     -6.662336
  H      -3.102368     -1.120280     -6.379322
  C      -2.411441     -1.736700     -8.361419
  H      -1.746944     -0.853522     -8.515036
  H      -1.878508     -2.602640     -8.827860
  C      -3.762820     -1.513173     -9.085174
  H      -4.300251     -0.656572     -8.606110
  H      -4.413188     -2.407114     -8.920537
  C      -3.650665     -1.250212    -10.612215
  H      -3.106867     -2.099535    -11.096891
  H      -4.677820     -1.258027    -11.052726
  C      -2.958284      0.085157    -10.996503
  H      -3.468587      0.927353    -10.466053
  H      -1.904881      0.088965    -10.627194
  C      -2.962817      0.354517    -12.521448
  H      -2.460317      1.317402    -12.771268
  H      -2.432977     -0.454771    -13.077317
  H      -4.002724      0.404749    -12.922474
138
Coordinates from ORCA-job /wrk/rja7/qm_final_3_replicates/qm_final_1.1/qm/10/freq E -2722.582812433138
  N       1.061346      0.308756     11.587084
  C       0.384612     -0.052693     10.212954
  H       1.172486      0.073082      9.452521
  H      -0.384161      0.736207     10.060531
  C       1.745237     -0.881491     12.280773
  H       0.985906     -1.650966     12.512757
  H       2.507083     -1.285873     11.580977
  H       2.203747     -0.495059     13.216640
  C       0.009005      0.878174     12.521717
  H      -0.795871      0.126037     12.649804
  H       0.471182      1.101822     13.505693
  H      -0.411193      1.808017     12.085254
  C       2.134445      1.359650     11.286304
  H       2.904469      0.866162     10.660364
  H       2.560190      1.719158     12.246997
  H       1.675037      2.193590     10.718441
  C      -0.255598     -1.453315     10.084219
  H      -0.994618     -1.638794     10.906424
  H      -0.850482     -1.393373      9.134162
  P       2.068585     -2.554511      9.075755
  O       2.515391     -3.987134      8.926732
  O       2.993083     -1.417271      9.577968
  O       0.645529     -2.549435     10.064556
  O       1.279746     -1.972554      7.653374
  C       2.124791     -1.827177      6.497851
  H       1.493092     -2.003394      5.594605
  H       2.939511     -2.590933      6.488764
  C       2.753332     -0.409733      6.422098
  H       3.128275     -0.134075      7.431864
  O       1.682379      0.535072      6.009635
  C       1.300361      1.554059      6.829966
  O       1.788189      1.797937      7.932747
  C       0.200077      2.399254      6.170587
  H      -0.300055      2.963954      6.988035
  H      -0.555656      1.732210      5.697947
  C       3.924222     -0.257636      5.432405
  H       4.740930     -0.959118      5.714656
  H       4.309980      0.786204      5.461195
  O       3.514600     -0.486720      4.046615
  C       3.774352     -1.725225      3.484214
  O       4.391407     -2.617497      4.045218
  C       3.146493     -1.809350      2.088799
  H       3.487838     -0.935346      1.484538
  H       3.533628     -2.734473      1.611076
  C       0.758866      3.417218      5.117840
  H       1.629799      3.949615      5.569974
  H      -0.025166      4.197147      4.961866
  C       1.158304      2.837867      3.730579
  H       1.925164      2.038093      3.845183
  H       1.649254      3.660303      3.155125
  C      -0.040189      2.302294      2.902356
  H      -0.872510      3.049778      2.941843
  H      -0.445827      1.372465      3.370530
  C       0.292470      2.018972      1.413457
  H       1.063834      1.214739      1.339621
  H       0.763397      2.928072      0.966212
  C      -0.955244      1.623085      0.581779
  H      -1.737698      2.412933      0.706137
  H      -1.403397      0.688597      0.999009
  C      -0.685968      1.420200     -0.937426
  H      -1.642685      1.096027     -1.421319
  H       0.023577      0.574541     -1.087526
  C      -0.180041      2.677857     -1.630780
  H      -0.616316      3.628202     -1.257358
  C       0.719643      2.758377     -2.643574
  H       0.963739      3.769366     -3.026889
  C       1.383652      1.593499     -3.364908
  H       1.394708      0.687113     -2.717131
  H       2.452299      1.845271     -3.575394
  C       0.678519      1.230953     -4.714954
  H      -0.391514      1.003646     -4.498174
  H       1.122160      0.285297     -5.111782
  C       0.787973      2.335993     -5.798140
  H       1.868943      2.496289     -6.033243
  H       0.431879      3.306095     -5.378079
  C       0.032321      2.036390     -7.122509
  H       0.440887      1.100145     -7.576952
  H       0.267370      2.846742     -7.853174
  C      -1.513437      1.884944     -7.003086
  H      -1.756329      0.944290     -6.457705
  H      -1.929535      1.742573     -8.030763
  C      -2.260887      3.062860     -6.318911
  H      -1.923897      3.167911     -5.258747
  H      -3.346644      2.802986     -6.260661
  C      -2.116368      4.429928     -7.038173
  H      -2.426925      4.316156     -8.106407
  H      -1.042684      4.735750     -7.064717
  C      -2.945949      5.555750     -6.372629
  H      -2.824425      6.527389     -6.904728
  H      -2.636153      5.712712     -5.312311
  H      -4.034133      5.309598     -6.365709
  C       1.586092     -1.813181      2.140013
  H       1.244920     -0.870939      2.624733
  H       1.240241     -2.648196      2.796748
  C       0.928390     -1.950435      0.740001
  H       1.357608     -1.175616      0.057351
  H      -0.157574     -1.705524      0.827282
  C       1.078220     -3.349749      0.088348
  H       0.577958     -4.111093      0.737068
  H       2.155343     -3.642367      0.055992
  C       0.492659     -3.422427     -1.343640
  H      -0.573473     -3.091618     -1.330955
  H       1.029612     -2.687114     -1.993928
  C       0.586880     -4.831404     -1.981323
  H       1.647915     -5.180845     -1.955095
  H       0.010566     -5.559503     -1.358390
  C       0.077545     -4.891647     -3.456882
  H       0.285001     -5.913846     -3.857227
  H       0.678982     -4.189304     -4.078492
  C      -1.411136     -4.607914     -3.597842
  H      -2.079376     -5.423133     -3.250304
  C      -1.988864     -3.470416     -4.059464
  H      -3.096516     -3.434455     -4.091735
  C      -1.268249     -2.232755     -4.575631
  H      -0.235452     -2.178108     -4.165434
  H      -1.795103     -1.321033     -4.199491
  C      -1.186531     -2.143051     -6.132083
  H      -0.671533     -3.053977     -6.522810
  H      -0.529852     -1.280082     -6.396761
  C      -2.550298     -1.970626     -6.844646
  H      -3.194678     -2.865633     -6.666935
  H      -3.096188     -1.107251     -6.387741
  C      -2.409295     -1.728600     -8.369829
  H      -1.743912     -0.846684     -8.526903
  H      -1.878242     -2.596215     -8.835336
  C      -3.762102     -1.505771     -9.091481
  H      -4.297355     -0.647089     -8.613699
  H      -4.413179     -2.398396     -8.922677
  C      -3.653222     -1.246991    -10.619463
  H      -3.107544     -2.096244    -11.102183
  H      -4.680872     -1.259172    -11.058570
  C      -2.965386      0.089395    -11.008371
  H      -3.478888      0.931566    -10.480830
  H      -1.911960      0.098655    -10.639102
  C      -2.971105      0.353687    -12.534315
  H      -2.471938      1.317455    -12.787456
  H      -2.438622     -0.455568    -13.087699
  H      -4.011224      0.398986    -12.935283
138
Coordinates from ORCA-job /wrk/rja7/qm_final_3_replicates/qm_final_1.1/qm/10/freq E -2722.582827664274
  N       1.044746      0.307539     11.592566
  C       0.369866     -0.046986     10.215820
  H       1.160020      0.077924      9.457677
  H      -0.395434      0.745198     10.063277
  C       1.716632     -0.889099     12.287839
  H       0.950136     -1.652941     12.514948
  H       2.477843     -1.298619     11.590392
  H       2.173993     -0.507030     13.225935
  C      -0.006055      0.884886     12.523993
  H      -0.817145      0.139019     12.648983
  H       0.454364      1.105142     13.509537
  H      -0.417282      1.818023     12.085952
  C       2.128128      1.349152     11.296815
  H       2.896097      0.849328     10.673333
  H       2.553340      1.704211     12.259365
  H       1.678749      2.187943     10.727883
  C      -0.276277     -1.444146     10.081089
  H      -1.019868     -1.627557     10.899701
  H      -0.866924     -1.379387      9.128806
  P       2.046837     -2.553889      9.080904
  O       2.489526     -3.987724      8.932024
  O       2.973544     -1.420423      9.586940
  O       0.619569     -2.544674     10.063261
  O       1.266238     -1.969362      7.654957
  C       2.116875     -1.829768      6.502588
  H       1.487114     -2.000969      5.596934
  H       2.925789     -2.599615      6.496237
  C       2.755716     -0.417007      6.428975
  H       3.127492     -0.143190      7.440295
  O       1.693446      0.534961      6.010130
  C       1.310538      1.553315      6.831015
  O       1.791883      1.790783      7.938052
  C       0.217217      2.405184      6.168615
  H      -0.281784      2.972435      6.984958
  H      -0.541178      1.742025      5.694658
  C       3.932795     -0.274546      5.445145
  H       4.742947     -0.981596      5.732142
  H       4.325573      0.766632      5.474319
  O       3.529102     -0.502320      4.057343
  C       3.785624     -1.742366      3.496875
  O       4.392636     -2.638727      4.062335
  C       3.163695     -1.823877      2.098825
  H       3.508493     -0.949506      1.497133
  H       3.551248     -2.749014      1.621394
  C       0.782640      3.419744      5.116323
  H       1.655184      3.948696      5.569435
  H       0.002266      4.203060      4.958813
  C       1.180551      2.837763      3.729618
  H       1.945425      2.036094      3.844982
  H       1.673544      3.658316      3.153241
  C      -0.020250      2.305601      2.902299
  H      -0.849673      3.056309      2.941930
  H      -0.428848      1.377781      3.371785
  C       0.309451      2.019515      1.413194
  H       1.077662      1.212253      1.339144
  H       0.783196      2.926231      0.964199
  C      -0.941052      1.626851      0.584043
  H      -1.720979      2.418960      0.710155
  H      -1.391028      0.693740      1.002382
  C      -0.676116      1.422887     -0.935845
  H      -1.634350      1.098252     -1.416466
  H       0.032921      0.577328     -1.087499
  C      -0.171999      2.680065     -1.631488
  H      -0.604596      3.630888     -1.255046
  C       0.721735      2.759824     -2.649556
  H       0.964061      3.770597     -3.034502
  C       1.381117      1.594865     -3.375010
  H       1.390791      0.686455     -2.730084
  H       2.450206      1.843710     -3.587009
  C       0.671331      1.238848     -4.723949
  H      -0.398384      1.012995     -4.504439
  H       1.111366      0.293745     -5.126300
  C       0.779198      2.347265     -5.803568
  H       1.859899      2.509368     -6.038860
  H       0.422382      3.315919     -5.380796
  C       0.022592      2.050087     -7.127726
  H       0.431215      1.115160     -7.584652
  H       0.255806      2.862131     -7.857099
  C      -1.522452      1.896925     -7.006149
  H      -1.763815      0.956004     -6.460522
  H      -1.939794      1.754510     -8.033245
  C      -2.270015      3.074410     -6.320921
  H      -1.931742      3.179550     -5.261151
  H      -3.355466      2.813715     -6.261420
  C      -2.126138      4.441358     -7.040204
  H      -2.435948      4.326963     -8.108548
  H      -1.052675      4.747686     -7.066270
  C      -2.956704      5.566869     -6.375394
  H      -2.836638      6.538176     -6.908447
  H      -2.646867      5.725243     -5.315313
  H      -4.044566      5.319270     -6.368169
  C       1.603149     -1.825331      2.144289
  H       1.262095     -0.884462      2.631835
  H       1.253361     -2.662512      2.796137
  C       0.950300     -1.954651      0.741269
  H       1.382146     -1.176371      0.064362
  H      -0.135914     -1.709823      0.826327
  C       1.101830     -3.350295      0.082502
  H       0.602527     -4.115457      0.727469
  H       2.179270     -3.641522      0.048256
  C       0.515657     -3.416489     -1.349674
  H      -0.550251     -3.085438     -1.334286
  H       1.052419     -2.678726     -1.997322
  C       0.608968     -4.822898     -1.992691
  H       1.670600     -5.170895     -1.972930
  H       0.036692     -5.553902     -1.369433
  C       0.092167     -4.879430     -3.465877
  H       0.301018     -5.899638     -3.870565
  H       0.688001     -4.173033     -4.088223
  C      -1.398216     -4.600267     -3.597763
  H      -2.061659     -5.418056     -3.247081
  C      -1.982526     -3.464155     -4.054652
  H      -3.090445     -3.431907     -4.080547
  C      -1.268807     -2.223946     -4.574684
  H      -0.235910     -2.163138     -4.165636
  H      -1.799587     -1.313677     -4.200321
  C      -1.189757     -2.138312     -6.131733
  H      -0.674818     -3.049825     -6.521058
  H      -0.534113     -1.275472     -6.399956
  C      -2.554955     -1.968788     -6.842590
  H      -3.198249     -2.863746     -6.660456
  H      -3.100643     -1.104323     -6.387444
  C      -2.416966     -1.732475     -8.368898
  H      -1.753135     -0.850128     -8.530757
  H      -1.885399     -2.601174     -8.831875
  C      -3.771533     -1.515911     -9.089306
  H      -4.307985     -0.656504     -8.614177
  H      -4.420140     -2.409320     -8.915374
  C      -3.666037     -1.264126    -10.618838
  H      -3.116593     -2.113242    -11.097574
  H      -4.694103     -1.284042    -11.056614
  C      -2.985640      0.073595    -11.016133
  H      -3.503392      0.916037    -10.493330
  H      -1.931959      0.091097    -10.647642
  C      -2.993816      0.329116    -12.543587
  H      -2.500015      1.294088    -12.802602
  H      -2.457474     -0.480445    -13.092774
  H      -4.034470      0.366576    -12.943904
138
Coordinates from ORCA-job /wrk/rja7/qm_final_3_replicates/qm_final_1.1/qm/10/freq E -2722.582842108456
  N       1.023923      0.309964     11.595367
  C       0.350854     -0.038546     10.216404
  H       1.143143      0.084152      9.460019
  H      -0.410884      0.757024     10.063005
  C       1.681691     -0.893241     12.294308
  H       0.907615     -1.651289     12.515332
  H       2.443762     -1.307991     11.601043
  H       2.135962     -0.515055     13.235323
  C      -0.025086      0.898158     12.522063
  H      -0.843128      0.159608     12.644972
  H       0.433489      1.116434     13.508898
  H      -0.425979      1.834067     12.080317
  C       2.119491      1.340010     11.304209
  H       2.884468      0.831864     10.683649
  H       2.544453      1.690477     12.268545
  H       1.681920      2.184063     10.733596
  C      -0.303317     -1.431381     10.077539
  H      -1.050813     -1.610808     10.893484
  H      -0.890658     -1.361425      9.123584
  P       2.016310     -2.553777      9.084821
  O       2.449961     -3.990003      8.931721
  O       2.949263     -1.428974      9.598349
  O       0.584994     -2.537993     10.060866
  O       1.245852     -1.960386      7.656772
  C       2.102292     -1.827769      6.507821
  H       1.474037     -1.990521      5.599510
  H       2.902929     -2.606207      6.503392
  C       2.755747     -0.421723      6.438500
  H       3.126425     -0.152568      7.451550
  O       1.705386      0.541753      6.016044
  C       1.327868      1.561773      6.837487
  O       1.806412      1.792335      7.947147
  C       0.243929      2.423709      6.173014
  H      -0.248906      2.998057      6.988139
  H      -0.521579      1.766392      5.702133
  C       3.937778     -0.290820      5.459403
  H       4.740245     -1.005092      5.749891
  H       4.339461      0.746947      5.488973
  O       3.537885     -0.516020      4.069934
  C       3.789747     -1.757312      3.510050
  O       4.387695     -2.658021      4.078359
  C       3.176645     -1.833878      2.107852
  H       3.524533     -0.957214      1.511402
  H       3.567461     -2.757246      1.629662
  C       0.817581      3.428959      5.116655
  H       1.694279      3.953014      5.567460
  H       0.043244      4.217613      4.956080
  C       1.210639      2.838249      3.732185
  H       1.971261      2.033014      3.850439
  H       1.707381      3.653509      3.151446
  C       0.005285      2.310197      2.909058
  H      -0.818648      3.067027      2.946742
  H      -0.408978      1.387389      3.383544
  C       0.330084      2.015265      1.420674
  H       1.091592      1.201407      1.348631
  H       0.810150      2.916189      0.966782
  C      -0.925326      1.628902      0.595811
  H      -1.699245      2.426871      0.722194
  H      -1.380737      0.700082      1.017758
  C      -0.666109      1.419673     -0.924421
  H      -1.627303      1.097753     -1.400807
  H       0.039178      0.570695     -1.075976
  C      -0.158709      2.673410     -1.624233
  H      -0.582828      3.626975     -1.245072
  C       0.727441      2.747928     -2.649311
  H       0.971761      3.757307     -3.036640
  C       1.376639      1.580169     -3.379416
  H       1.380107      0.669076     -2.738134
  H       2.447525      1.821077     -3.591794
  C       0.662175      1.235367     -4.728690
  H      -0.408092      1.013804     -4.507936
  H       1.095791      0.290123     -5.137563
  C       0.773049      2.348217     -5.803455
  H       1.854415      2.511048     -6.035404
  H       0.415540      3.315391     -5.378027
  C       0.019286      2.056153     -7.130629
  H       0.430374      1.124141     -7.591239
  H       0.252333      2.871946     -7.855834
  C      -1.525661      1.899603     -7.012657
  H      -1.766284      0.956433     -6.470663
  H      -1.940902      1.759981     -8.040983
  C      -2.277094      3.073590     -6.324650
  H      -1.941493      3.175098     -5.263702
  H      -3.362111      2.810583     -6.268702
  C      -2.133166      4.443727     -7.037991
  H      -2.437559      4.332925     -8.108299
  H      -1.060326      4.752364     -7.057715
  C      -2.969296      5.564878     -6.372698
  H      -2.849901      6.538292     -6.902040
  H      -2.664217      5.720509     -5.310837
  H      -4.056503      5.314242     -6.370926
  C       1.615742     -1.836351      2.143324
  H       1.271049     -0.898211      2.633755
  H       1.262184     -2.677242      2.788253
  C       0.972264     -1.958007      0.735111
  H       1.405759     -1.173476      0.066541
  H      -0.115259     -1.717445      0.815116
  C       1.132258     -3.348338      0.067167
  H       0.636683     -4.120528      0.706573
  H       2.211327     -3.633306      0.031510
  C       0.547151     -3.408130     -1.366003
  H      -0.519664     -3.080155     -1.348649
  H       1.081953     -2.665110     -2.009294
  C       0.644858     -4.810542     -2.016693
  H       1.708580     -5.152479     -2.005211
  H       0.080556     -5.547969     -1.393701
  C       0.119244     -4.863406     -3.487083
  H       0.333817     -5.879824     -3.898255
  H       0.705448     -4.149003     -4.109467
  C      -1.374131     -4.595368     -3.607314
  H      -2.028704     -5.419024     -3.253636
  C      -1.970270     -3.462331     -4.056556
  H      -3.078555     -3.438008     -4.074384
  C      -1.268592     -2.216409     -4.579577
  H      -0.235562     -2.146139     -4.172292
  H      -1.806317     -1.310113     -4.205617
  C      -1.193632     -2.132722     -6.137058
  H      -0.676916     -3.043043     -6.526704
  H      -0.541747     -1.268034     -6.408512
  C      -2.561518     -1.968894     -6.844215
  H      -3.201076     -2.865870     -6.658375
  H      -3.108625     -1.105577     -6.388623
  C      -2.428908     -1.735138     -8.371240
  H      -1.769219     -0.850349     -8.537020
  H      -1.895173     -2.602569     -8.834165
  C      -3.786527     -1.526353     -9.088177
  H      -4.326531     -0.669804     -8.611838
  H      -4.429650     -2.423325     -8.912357
  C      -3.685843     -1.274389    -10.618030
  H      -3.127495     -2.117872    -11.096492
  H      -4.714119     -1.306303    -11.054644
  C      -3.020960      0.070569    -11.017043
  H      -3.549598      0.907802    -10.496707
  H      -1.967979      0.101929    -10.647043
  C      -3.029814      0.323166    -12.545034
  H      -2.547308      1.293583    -12.804971
  H      -2.482833     -0.480791    -13.091965
  H      -4.070246      0.347209    -12.946874
138
Coordinates from ORCA-job /wrk/rja7/qm_final_3_replicates/qm_final_1.1/qm/10/freq E -2722.582854553384
  N       1.002077      0.306018     11.601645
  C       0.330250     -0.033151     10.220067
  H       1.124596      0.086269      9.465183
  H      -0.426474      0.767521     10.067413
  C       1.643149     -0.905875     12.302393
  H       0.860370     -1.656574     12.518138
  H       2.404409     -1.326793     11.612055
  H       2.096373     -0.533519     13.246121
  C      -0.043512      0.906307     12.524669
  H      -0.870412      0.177137     12.644375
  H       0.414213      1.119228     13.513026
  H      -0.431481      1.846667     12.080970
  C       2.111851      1.322431     11.316295
  H       2.872395      0.805382     10.697599
  H       2.537616      1.665874     12.282806
  H       1.687618      2.173358     10.745701
  C      -0.334839     -1.420220     10.075634
  H      -1.086422     -1.594963     10.888750
  H      -0.918472     -1.342584      9.119903
  P       1.978732     -2.559390      9.088825
  O       2.400783     -3.998706      8.931079
  O       2.919489     -1.445131      9.611070
  O       0.543457     -2.534745     10.058705
  O       1.219862     -1.954760      7.659119
  C       2.082811     -1.828017      6.514484
  H       1.457037     -1.981178      5.602784
  H       2.874886     -2.615225      6.511925
  C       2.751447     -0.428935      6.452413
  H       3.120115     -0.166429      7.468000
  O       1.713732      0.547197      6.028077
  C       1.345455      1.570165      6.850289
  O       1.824059      1.793484      7.961399
  C       0.272810      2.445039      6.184551
  H      -0.212607      3.026395      6.999234
  H      -0.501181      1.795792      5.716161
  C       3.939525     -0.308224      5.479572
  H       4.733839     -1.030094      5.773492
  H       4.350078      0.726024      5.511836
  O       3.545368     -0.529368      4.087642
  C       3.793550     -1.771251      3.527326
  O       4.380403     -2.677258      4.098901
  C       3.194335     -1.840433      2.118792
  H       3.549744     -0.961999      1.529519
  H       3.587875     -2.762663      1.640711
  C       0.856295      3.441311      5.125531
  H       1.738654      3.957473      5.574428
  H       0.089803      4.237263      4.963518
  C       1.242234      2.843209      3.742170
  H       1.996162      2.031980      3.861851
  H       1.745056      3.652640      3.158423
  C       0.030822      2.324068      2.922543
  H      -0.784833      3.089912      2.958082
  H      -0.392836      1.407874      3.401557
  C       0.350587      2.018740      1.435299
  H       1.102656      1.195861      1.366469
  H       0.839830      2.911973      0.975970
  C      -0.910181      1.640792      0.614392
  H      -1.676642      2.446081      0.739793
  H      -1.372774      0.717615      1.040955
  C      -0.656306      1.423481     -0.905673
  H      -1.620630      1.104503     -1.377476
  H       0.044293      0.570129     -1.055224
  C      -0.144521      2.671238     -1.613166
  H      -0.555849      3.629478     -1.231657
  C       0.730660      2.735504     -2.648182
  H       0.980388      3.741860     -3.039950
  C       1.362283      1.561108     -3.382846
  H       1.355536      0.647898     -2.744477
  H       2.435899      1.788423     -3.596725
  C       0.640773      1.229471     -4.731548
  H      -0.431666      1.020335     -4.509193
  H       1.060998      0.279950     -5.144433
  C       0.762461      2.342889     -5.804495
  H       1.845599      2.499117     -6.032901
  H       0.409901      3.312148     -5.379780
  C       0.011195      2.056108     -7.134436
  H       0.419208      1.122688     -7.594864
  H       0.250354      2.871382     -7.858203
  C      -1.534900      1.906577     -7.020870
  H      -1.781015      0.965084     -6.478445
  H      -1.947979      1.767746     -8.050196
  C      -2.282918      3.084878     -6.336223
  H      -1.949839      3.186434     -5.274506
  H      -3.369195      2.826754     -6.282838
  C      -2.130258      4.453524     -7.050767
  H      -2.430270      4.342776     -8.122326
  H      -1.056043      4.757565     -7.065947
  C      -2.964431      5.579196     -6.390590
  H      -2.838571      6.551434     -6.920565
  H      -2.663329      5.734660     -5.327564
  H      -4.052747      5.333388     -6.393413
  C       1.633164     -1.840030      2.138563
  H       1.285511     -0.903569      2.630157
  H       1.271677     -2.683335      2.775822
  C       1.003376     -1.953393      0.723275
  H       1.442435     -1.164026      0.064082
  H      -0.085123     -1.714413      0.794630
  C       1.171045     -3.339132      0.047722
  H       0.677768     -4.117223      0.681651
  H       2.251503     -3.618917      0.012392
  C       0.588835     -3.394106     -1.387056
  H      -0.479763     -3.071958     -1.369274
  H       1.120661     -2.644980     -2.025788
  C       0.695127     -4.792737     -2.044410
  H       1.762016     -5.124804     -2.041039
  H       0.141567     -5.537924     -1.420972
  C       0.160267     -4.845331     -3.511723
  H       0.383276     -5.857750     -3.928145
  H       0.734518     -4.122237     -4.135301
  C      -1.336704     -4.593263     -3.619935
  H      -1.979492     -5.424737     -3.262868
  C      -1.948650     -3.465874     -4.062121
  H      -3.057239     -3.453470     -4.071448
  C      -1.263805     -2.212287     -4.589060
  H      -0.229660     -2.130216     -4.186682
  H      -1.809256     -1.311570     -4.213075
  C      -1.197509     -2.129593     -6.147048
  H      -0.679420     -3.038173     -6.538843
  H      -0.551101     -1.262455     -6.423306
  C      -2.569981     -1.972466     -6.846723
  H      -3.205306     -2.871245     -6.654674
  H      -3.117303     -1.109739     -6.390346
  C      -2.446580     -1.743095     -8.375066
  H      -1.791212     -0.856255     -8.547467
  H      -1.911878     -2.609914     -8.838046
  C      -3.808645     -1.542554     -9.085676
  H      -4.350834     -0.687694     -8.608728
  H      -4.446353     -2.442374     -8.904820
  C      -3.715986     -1.293497    -10.616546
  H      -3.148926     -2.131535    -11.094350
  H      -4.745246     -1.339634    -11.049710
  C      -3.069382      0.058487    -11.021346
  H      -3.609538      0.890739    -10.504817
  H      -2.016939      0.106441    -10.651170
  C      -3.081119      0.304403    -12.550432
  H      -2.611945      1.280273    -12.814239
  H      -2.522938     -0.494242    -13.093822
  H      -4.121740      0.312083    -12.952371
138
Coordinates from ORCA-job /wrk/rja7/qm_final_3_replicates/qm_final_1.1/qm/10/freq E -2722.582864940966
  N       0.978673      0.308677     11.605614
  C       0.308218     -0.029237     10.223332
  H       1.102882      0.088970      9.468672
  H      -0.448054      0.771909     10.070181
  C       1.611008     -0.905529     12.310869
  H       0.824553     -1.652395     12.526848
  H       2.372301     -1.330841     11.623319
  H       2.063463     -0.533225     13.254976
  C      -0.065517      0.918059     12.524604
  H      -0.896959      0.194076     12.644628
  H       0.391758      1.130927     13.513151
  H      -0.446398      1.859204     12.076731
  C       2.095874      1.317421     11.321220
  H       2.854034      0.794481     10.704587
  H       2.521665      1.659404     12.288227
  H       1.678387      2.170494     10.748916
  C      -0.360241     -1.414815     10.078146
  H      -1.113567     -1.586816     10.890139
  H      -0.941950     -1.335202      9.121301
  P       1.952525     -2.560929      9.097458
  O       2.368921     -4.001653      8.936500
  O       2.895881     -1.452123      9.626549
  O       0.513983     -2.532524     10.062347
  O       1.201853     -1.949461      7.665895
  C       2.069278     -1.828415      6.524200
  H       1.445886     -1.977487      5.610182
  H       2.856185     -2.620850      6.524751
  C       2.747354     -0.433789      6.465148
  H       3.115745     -0.174866      7.481792
  O       1.717070      0.549902      6.040588
  C       1.357673      1.576693      6.861883
  O       1.838807      1.797246      7.972517
  C       0.291667      2.459318      6.195978
  H      -0.188881      3.045126      7.010405
  H      -0.487451      1.815304      5.728891
  C       3.937903     -0.319345      5.494784
  H       4.728385     -1.044452      5.791035
  H       4.352587      0.713283      5.527199
  O       3.546476     -0.540471      4.101988
  C       3.794718     -1.782819      3.542787
  O       4.375003     -2.690771      4.118048
  C       3.205204     -1.850060      2.130091
  H       3.564347     -0.970506      1.544817
  H       3.602527     -2.771343      1.653386
  C       0.882040      3.450030      5.135732
  H       1.767597      3.960975      5.584327
  H       0.120694      4.250532      4.972105
  C       1.264909      2.847096      3.753602
  H       2.012660      2.030474      3.875252
  H       1.774472      3.651938      3.169276
  C       0.050419      2.336330      2.933614
  H      -0.757197      3.110860      2.964063
  H      -0.383995      1.426814      3.415772
  C       0.370173      2.019962      1.448920
  H       1.114032      1.189199      1.386508
  H       0.868586      2.905634      0.984723
  C      -0.892891      1.647870      0.628647
  H      -1.653426      2.459395      0.749636
  H      -1.362240      0.730150      1.059603
  C      -0.639507      1.421053     -0.889954
  H      -1.604921      1.103053     -1.360015
  H       0.058048      0.564114     -1.033722
  C      -0.122374      2.662263     -1.605516
  H      -0.520305      3.625527     -1.222481
  C       0.741664      2.715258     -2.650429
  H       0.997909      3.718202     -3.046787
  C       1.353890      1.533717     -3.389551
  H       1.336073      0.618788     -2.753744
  H       2.430130      1.746471     -3.605635
  C       0.625148      1.215591     -4.737593
  H      -0.449462      1.019374     -4.513825
  H       1.031548      0.261740     -5.154218
  C       0.758090      2.329835     -5.808338
  H       1.842838      2.477559     -6.034887
  H       0.412865      3.301403     -5.382865
  C       0.007032      2.050851     -7.140290
  H       0.409621      1.115597     -7.601683
  H       0.253085      2.865749     -7.862134
  C      -1.540486      1.911576     -7.029448
  H      -1.793062      0.971818     -6.486914
  H      -1.953000      1.775010     -8.059323
  C      -2.281258      3.095122     -6.346269
  H      -1.948457      3.195700     -5.284349
  H      -3.369276      2.844308     -6.293501
  C      -2.119124      4.462498     -7.061564
  H      -2.417490      4.353259     -8.133792
  H      -1.043101      4.760234     -7.074454
  C      -2.947702      5.593521     -6.403481
  H      -2.813855      6.565082     -6.932705
  H      -2.648351      5.746412     -5.339574
  H      -4.037680      5.355205     -6.409216
  C       1.643908     -1.850860      2.137749
  H       1.291620     -0.917599      2.632222
  H       1.278229     -2.698228      2.767126
  C       1.025693     -1.955964      0.716643
  H       1.466268     -1.158972      0.067757
  H      -0.064527     -1.722651      0.781355
  C       1.205720     -3.335086      0.030751
  H       0.717615     -4.122129      0.657547
  H       2.288541     -3.605763     -0.004768
  C       0.627076     -3.384474     -1.405841
  H      -0.444581     -3.072561     -1.387953
  H       1.153294     -2.625872     -2.038108
  C       0.747842     -4.777355     -2.073040
  H       1.818842     -5.095888     -2.076249
  H       0.206335     -5.533714     -1.452438
  C       0.207374     -4.827597     -3.538640
  H       0.441846     -5.834405     -3.962254
  H       0.769805     -4.093373     -4.160075
  C      -1.293071     -4.594530     -3.638277
  H      -1.923021     -5.435513     -3.280499
  C      -1.922113     -3.474046     -4.073818
  H      -3.030800     -3.476084     -4.077014
  C      -1.256189     -2.210660     -4.601266
  H      -0.220808     -2.116900     -4.204437
  H      -1.810001     -1.317648     -4.219600
  C      -1.200086     -2.123583     -6.159328
  H      -0.677709     -3.027344     -6.556536
  H      -0.562596     -1.250893     -6.438105
  C      -2.578240     -1.975798     -6.849737
  H      -3.206021     -2.879068     -6.653806
  H      -3.128337     -1.116967     -6.389441
  C      -2.466498     -1.745167     -8.378675
  H      -1.818903     -0.853321     -8.555323
  H      -1.928080     -2.607758     -8.845204
  C      -3.834243     -1.554794     -9.080740
  H      -4.380701     -0.704759     -8.600026
  H      -4.463678     -2.459849     -8.896953
  C      -3.752170     -1.303331    -10.611829
  H      -3.175152     -2.132655    -11.092882
  H      -4.782674     -1.364660    -11.040331
  C      -3.127841      0.058424    -11.018099
  H      -3.680768      0.882147    -10.501345
  H      -2.075896      0.124021    -10.648861
  C      -3.144966      0.303432    -12.547274
  H      -2.692119      1.286763    -12.811778
  H      -2.574314     -0.486215    -13.090864
  H      -4.186049      0.293527    -12.947935
138
Coordinates from ORCA-job /wrk/rja7/qm_final_3_replicates/qm_final_1.1/qm/10/freq E -2722.582873418945
  N       0.967414      0.306476     11.607396
  C       0.299208     -0.030628     10.223831
  H       1.094852      0.087356      9.470237
  H      -0.456771      0.770683     10.070006
  C       1.597017     -0.908239     12.313593
  H       0.809633     -1.654062     12.529620
  H       2.358921     -1.334358     11.627183
  H       2.048876     -0.536523     13.258318
  C      -0.077888      0.917210     12.524479
  H      -0.910998      0.194719     12.642255
  H       0.377838      1.128071     13.514168
  H      -0.455821      1.859393     12.076459
  C       2.085990      1.314516     11.325113
  H       2.844818      0.791251     10.709632
  H       2.510205      1.655984     12.292995
  H       1.669665      2.167762     10.752370
  C      -0.369513     -1.416175     10.077512
  H      -1.123889     -1.587925     10.888516
  H      -0.949663     -1.336198      9.119701
  P       1.944655     -2.563646      9.100984
  O       2.359967     -4.004777      8.940321
  O       2.887210     -1.455504      9.633115
  O       0.504130     -2.534323     10.062849
  O       1.197742     -1.950248      7.668101
  C       2.067646     -1.830032      6.528277
  H       1.446624     -1.979739      5.612780
  H       2.854622     -2.622444      6.531222
  C       2.746232     -0.435550      6.470731
  H       3.113823     -0.177433      7.487824
  O       1.715894      0.548474      6.046977
  C       1.360649      1.577279      6.867504
  O       1.846376      1.799503      7.975867
  C       0.293674      2.460484      6.203847
  H      -0.186500      3.044818      7.019567
  H      -0.485318      1.817240      5.735639
  C       3.937399     -0.320408      5.501252
  H       4.728412     -1.044510      5.798653
  H       4.351112      0.712614      5.533769
  O       3.547415     -0.543018      4.108329
  C       3.798381     -1.785285      3.550125
  O       4.379589     -2.691879      4.126579
  C       3.213112     -1.853245      2.135675
  H       3.573405     -0.973521      1.551334
  H       3.612314     -2.774345      1.660221
  C       0.884114      3.453574      5.145714
  H       1.769350      3.963744      5.595814
  H       0.122691      4.254191      4.983077
  C       1.268203      2.852895      3.762994
  H       2.013082      2.033565      3.884364
  H       1.781863      3.657364      3.181732
  C       0.054427      2.347371      2.938877
  H      -0.748936      3.126507      2.964238
  H      -0.387643      1.441455      3.420944
  C       0.379225      2.025119      1.456663
  H       1.120581      1.191716      1.400474
  H       0.882073      2.907603      0.991094
  C      -0.881623      1.652933      0.632920
  H      -1.641547      2.465754      0.748679
  H      -1.353352      0.737097      1.065272
  C      -0.623147      1.420991     -0.883770
  H      -1.586493      1.099920     -1.356109
  H       0.075826      0.564220     -1.021672
  C      -0.104900      2.659719     -1.603221
  H      -0.496182      3.625137     -1.218815
  C       0.752034      2.707692     -2.654186
  H       1.010967      3.709042     -3.052860
  C       1.353430      1.522884     -3.396389
  H       1.331161      0.607505     -2.761386
  H       2.430469      1.728609     -3.615690
  C       0.619154      1.210570     -4.742685
  H      -0.456264      1.020919     -4.516905
  H       1.018328      0.254174     -5.160342
  C       0.756371      2.324179     -5.813654
  H       1.841503      2.466384     -6.041837
  H       0.416315      3.297449     -5.387915
  C       0.002549      2.048299     -7.144839
  H       0.400184      1.110804     -7.605895
  H       0.252156      2.861537     -7.867336
  C      -1.545771      1.917128     -7.032489
  H      -1.802105      0.979692     -6.487542
  H      -1.959846      1.780207     -8.061709
  C      -2.279291      3.105872     -6.351233
  H      -1.944791      3.207258     -5.289899
  H      -3.368719      2.861481     -6.296711
  C      -2.111140      4.470979     -7.069724
  H      -2.412173      4.361481     -8.141222
  H      -1.033581      4.763134     -7.085189
  C      -2.932281      5.607634     -6.412026
  H      -2.792939      6.577797     -6.942376
  H      -2.630629      5.759693     -5.348639
  H      -4.023734      5.376143     -6.415933
  C       1.651818     -1.855106      2.138509
  H       1.297406     -0.923382      2.634249
  H       1.285002     -2.704272      2.764792
  C       1.037759     -1.956798      0.715472
  H       1.479312     -1.157156      0.070525
  H      -0.052933     -1.724799      0.777793
  C       1.221173     -3.333486      0.025635
  H       0.734635     -4.123493      0.649939
  H       2.304630     -3.601672     -0.010206
  C       0.643123     -3.380435     -1.411175
  H      -0.429749     -3.072753     -1.392772
  H       1.166474     -2.618002     -2.041268
  C       0.768658     -4.771031     -2.082570
  H       1.841096     -5.084666     -2.088803
  H       0.231968     -5.531703     -1.463039
  C       0.225241     -4.819827     -3.547104
  H       0.461950     -5.825048     -3.973278
  H       0.784323     -4.082755     -4.168238
  C      -1.276116     -4.591538     -3.643348
  H      -1.902364     -5.434760     -3.284312
  C      -1.910136     -3.473701     -4.078421
  H      -3.018815     -3.479932     -4.079179
  C      -1.250178     -2.208078     -4.607635
  H      -0.213203     -2.112157     -4.215449
  H      -1.804336     -1.316932     -4.222081
  C      -1.201331     -2.119511     -6.165815
  H      -0.678180     -3.021693     -6.565691
  H      -0.567695     -1.244982     -6.447252
  C      -2.582911     -1.975349     -6.850155
  H      -3.208298     -2.879263     -6.649763
  H      -3.132363     -1.116436     -6.389193
  C      -2.478622     -1.747337     -8.380126
  H      -1.833817     -0.854388     -8.561566
  H      -1.940248     -2.609671     -8.847127
  C      -3.849500     -1.560797     -9.076804
  H      -4.395603     -0.710507     -8.596175
  H      -4.476767     -2.466437     -8.888418
  C      -3.773662     -1.312644    -10.608779
  H      -3.194525     -2.140353    -11.090017
  H      -4.805312     -1.379827    -11.033761
  C      -3.156894      0.051018    -11.019902
  H      -3.714090      0.873327    -10.505528
  H      -2.105211      0.123648    -10.651150
  C      -3.176017      0.290988    -12.549848
  H      -2.728985      1.276083    -12.817598
  H      -2.600935     -0.497107    -13.091013
  H      -4.217206      0.273479    -12.949943
138
Coordinates from ORCA-job /wrk/rja7/qm_final_3_replicates/qm_final_1.1/qm/10/freq E -2722.582882175154
  N       0.958468      0.307484     11.605639
  C       0.292463     -0.036835     10.222573
  H       1.088033      0.082513      9.469271
  H      -0.467049      0.760506     10.066074
  C       1.593131     -0.901743     12.315083
  H       0.808812     -1.649280     12.535968
  H       2.356127     -1.327327     11.629529
  H       2.044969     -0.525453     13.258167
  C      -0.090147      0.916175     12.520460
  H      -0.921130      0.191240     12.638399
  H       0.363690      1.129562     13.510492
  H      -0.470488      1.856530     12.070759
  C       2.071962      1.320687     11.320605
  H       2.833385      0.799886     10.706345
  H       2.494225      1.666832     12.287659
  H       1.650561      2.169770     10.745563
  C      -0.368867     -1.426611     10.079642
  H      -1.122443     -1.600196     10.890991
  H      -0.948839     -1.352435      9.121304
  P       1.952412     -2.564331      9.108037
  O       2.374798     -4.003747      8.951183
  O       2.887634     -1.449400      9.638969
  O       0.510957     -2.539815     10.068674
  O       1.203779     -1.956371      7.673455
  C       2.073751     -1.834199      6.533906
  H       1.455010     -1.991133      5.618142
  H       2.866264     -2.621092      6.539912
  C       2.743400     -0.435442      6.473951
  H       3.109641     -0.173855      7.490566
  O       1.705800      0.541052      6.050134
  C       1.348712      1.570877      6.868413
  O       1.837443      1.799175      7.974289
  C       0.275552      2.447629      6.205884
  H      -0.209712      3.026828      7.022210
  H      -0.497987      1.801070      5.733466
  C       3.933315     -0.313049      5.503803
  H       4.730007     -1.030444      5.802526
  H       4.339594      0.722964      5.534847
  O       3.544682     -0.540662      4.111451
  C       3.804863     -1.781776      3.554932
  O       4.392268     -2.683459      4.132669
  C       3.219884     -1.855236      2.140612
  H       3.578203     -0.976070      1.554138
  H       3.621498     -2.776449      1.667376
  C       0.863733      3.448004      5.152791
  H       1.745374      3.960436      5.607310
  H       0.099383      4.245983      4.990828
  C       1.254651      2.853489      3.769419
  H       1.996655      2.031487      3.891057
  H       1.774336      3.659123      3.195166
  C       0.045185      2.354574      2.935293
  H      -0.753163      3.139114      2.951371
  H      -0.408165      1.452843      3.414864
  C       0.381816      2.026017      1.457127
  H       1.121808      1.190817      1.410572
  H       0.890401      2.905713      0.992457
  C      -0.873090      1.653427      0.624545
  H      -1.633737      2.466475      0.733429
  H      -1.347859      0.738326      1.055136
  C      -0.603957      1.419211     -0.889504
  H      -1.563353      1.095778     -1.368456
  H       0.096689      0.562826     -1.020778
  C      -0.082112      2.657020     -1.608355
  H      -0.468841      3.623727     -1.222708
  C       0.772192      2.702113     -2.661644
  H       1.034529      3.702526     -3.060448
  C       1.365822      1.515078     -3.405964
  H       1.340686      0.599935     -2.770793
  H       2.443086      1.715919     -3.628869
  C       0.626556      1.205765     -4.750080
  H      -0.449069      1.019863     -4.522004
  H       1.021570      0.247703     -5.167911
  C       0.765044      2.318656     -5.821720
  H       1.849944      2.455728     -6.053904
  H       0.430324      3.293375     -5.395013
  C       0.005901      2.045228     -7.150434
  H       0.397115      1.104766     -7.610839
  H       0.258302      2.856047     -7.874680
  C      -1.542969      1.923604     -7.034128
  H      -1.803269      0.989144     -6.485771
  H      -1.960056      1.785808     -8.062012
  C      -2.267101      3.118824     -6.355097
  H      -1.928612      3.222205     -5.295195
  H      -3.358034      2.882010     -6.296355
  C      -2.093650      4.480380     -7.079233
  H      -2.400931      4.369224     -8.148828
  H      -1.014374      4.765865     -7.101250
  C      -2.904132      5.624370     -6.421082
  H      -2.759820      6.592149     -6.954461
  H      -2.596766      5.777024     -5.359407
  H      -3.997239      5.400856     -6.419386
  C       1.658663     -1.860969      2.143070
  H       1.301707     -0.931150      2.640467
  H       1.294179     -2.712269      2.767862
  C       1.044755     -1.961081      0.720173
  H       1.484266     -1.158805      0.077113
  H      -0.046513     -1.731751      0.783163
  C       1.231513     -3.335653      0.027197
  H       0.747318     -4.128333      0.650015
  H       2.315643     -3.601059     -0.009515
  C       0.652667     -3.381455     -1.409063
  H      -0.421349     -3.077984     -1.389656
  H       1.172547     -2.615866     -2.038210
  C       0.782482     -4.770366     -2.083457
  H       1.855882     -5.080683     -2.090342
  H       0.248265     -5.534167     -1.465634
  C       0.239282     -4.817487     -3.547893
  H       0.477048     -5.821949     -3.975414
  H       0.797918     -4.079226     -4.167992
  C      -1.262320     -4.591208     -3.644799
  H      -1.887351     -5.435161     -3.285368
  C      -1.898273     -3.475350     -4.082071
  H      -3.006935     -3.484095     -4.083099
  C      -1.241496     -2.208301     -4.611505
  H      -0.202505     -2.113485     -4.224468
  H      -1.793954     -1.318564     -4.220157
  C      -1.201032     -2.115279     -6.169545
  H      -0.676198     -3.014498     -6.573999
  H      -0.572228     -1.237750     -6.452309
  C      -2.586680     -1.974685     -6.846445
  H      -3.208098     -2.880684     -6.643552
  H      -3.136441     -1.117808     -6.381968
  C      -2.491769     -1.744452     -8.376849
  H      -1.852339     -0.848089     -8.560869
  H      -1.951661     -2.603707     -8.847441
  C      -3.867037     -1.563225     -9.066081
  H      -4.413890     -0.714869     -8.582930
  H      -4.490037     -2.471129     -8.874287
  C      -3.800453     -1.315100    -10.598558
  H      -3.220610     -2.140402    -11.083037
  H      -4.834056     -1.386499    -11.018098
  C      -3.191128      0.050930    -11.012888
  H      -3.749909      0.870880    -10.496587
  H      -2.138413      0.128110    -10.648103
  C      -3.217541      0.290252    -12.542823
  H      -2.776239      1.277354    -12.812631
  H      -2.640867     -0.495369    -13.085883
  H      -4.260240      0.267515    -12.938661
138
Coordinates from ORCA-job /wrk/rja7/qm_final_3_replicates/qm_final_1.1/qm/10/freq E -2722.582886605798
  N       0.942983      0.299154     11.605419
  C       0.281043     -0.040323     10.218975
  H       1.079759      0.079079      9.469031
  H      -0.475950      0.759165     10.061450
  C       1.572116     -0.913309     12.313796
  H       0.784697     -1.659073     12.529294
  H       2.336860     -1.338825     11.630225
  H       2.021212     -0.541082     13.259835
  C      -0.107850      0.907648     12.517778
  H      -0.941671      0.184970     12.629190
  H       0.341925      1.115994     13.510757
  H      -0.483100      1.850963     12.069929
  C       2.059604      1.310851     11.327168
  H       2.822370      0.789966     10.714632
  H       2.478700      1.653642     12.296782
  H       1.642085      2.162048     10.752360
  C      -0.382159     -1.428611     10.070495
  H      -1.138471     -1.602900     10.879192
  H      -0.959141     -1.351607      9.110638
  P       1.940600     -2.568018      9.103892
  O       2.360873     -4.007867      8.945685
  O       2.875902     -1.455553      9.639819
  O       0.496322     -2.542812     10.060057
  O       1.197342     -1.955871      7.668179
  C       2.071578     -1.831946      6.531897
  H       1.456248     -1.987158      5.613556
  H       2.863976     -2.618975      6.539379
  C       2.741851     -0.433342      6.476617
  H       3.105191     -0.173823      7.494740
  O       1.705377      0.544174      6.051705
  C       1.347165      1.573031      6.870928
  O       1.834613      1.799934      7.977637
  C       0.274339      2.450503      6.208676
  H      -0.212814      3.027181      7.025615
  H      -0.497722      1.804736      5.732780
  C       3.934657     -0.310314      5.510143
  H       4.730481     -1.027738      5.811183
  H       4.341006      0.725607      5.542681
  O       3.550200     -0.537772      4.116625
  C       3.814592     -1.778071      3.559926
  O       4.402349     -2.678864      4.138596
  C       3.232746     -1.851886      2.144251
  H       3.590625     -0.971714      1.559030
  H       3.636968     -2.772104      1.671248
  C       0.864170      3.454416      5.159599
  H       1.744326      3.966391      5.617482
  H       0.099690      4.252368      4.998082
  C       1.258707      2.863570      3.775755
  H       1.997711      2.038859      3.897636
  H       1.783341      3.669226      3.205999
  C       0.051125      2.370954      2.935583
  H      -0.741707      3.161196      2.943799
  H      -0.412335      1.474264      3.415125
  C       0.394840      2.034527      1.460776
  H       1.132440      1.196845      1.422387
  H       0.908788      2.910537      0.995007
  C      -0.856807      1.661920      0.623252
  H      -1.616725      2.476373      0.726551
  H      -1.334976      0.748795      1.054287
  C      -0.581292      1.423128     -0.888708
  H      -1.538322      1.097688     -1.371086
  H       0.119853      0.566281     -1.014349
  C      -0.056536      2.658721     -1.609417
  H      -0.437311      3.627303     -1.222667
  C       0.793452      2.699418     -2.666385
  H       1.058533      3.698331     -3.067139
  C       1.378403      1.508992     -3.412041
  H       1.350964      0.594671     -2.775808
  H       2.455740      1.704161     -3.639625
  C       0.632383      1.201954     -4.752737
  H      -0.442923      1.019600     -4.520362
  H       1.022807      0.242500     -5.171676
  C       0.770099      2.313612     -5.825787
  H       1.854577      2.447818     -6.061475
  H       0.438491      3.289446     -5.399212
  C       0.006403      2.039805     -7.151808
  H       0.393907      1.097425     -7.611347
  H       0.258768      2.848666     -7.878262
  C      -1.542299      1.922579     -7.030945
  H      -1.803725      0.990109     -6.479594
  H      -1.962459      1.783320     -8.057438
  C      -2.260951      3.121597     -6.352873
  H      -1.918910      3.226482     -5.294225
  H      -3.352510      2.888677     -6.290398
  C      -2.085452      4.480739     -7.081021
  H      -2.397690      4.367916     -8.148987
  H      -1.005300      4.762319     -7.108483
  C      -2.889028      5.629286     -6.422300
  H      -2.743272      6.595174     -6.958719
  H      -2.576660      5.783555     -5.362326
  H      -3.982934      5.409831     -6.415414
  C       1.671498     -1.860409      2.143764
  H       1.312050     -0.932385      2.642607
  H       1.307561     -2.713806      2.766022
  C       1.059801     -1.957930      0.719779
  H       1.498563     -1.153111      0.079403
  H      -0.031964     -1.730834      0.781949
  C       1.249746     -3.330279      0.023338
  H       0.768214     -4.125625      0.644884
  H       2.334523     -3.592763     -0.014901
  C       0.668890     -3.374442     -1.412080
  H      -0.405933     -3.073922     -1.390248
  H       1.185426     -2.606076     -2.040646
  C       0.801002     -4.761626     -2.089565
  H       1.875224     -5.069011     -2.099998
  H       0.270716     -5.528084     -1.471622
  C       0.253802     -4.807713     -3.552344
  H       0.492979     -5.810957     -3.982051
  H       0.808464     -4.067063     -4.173126
  C      -1.248802     -4.585871     -3.644873
  H      -1.870178     -5.431215     -3.282376
  C      -1.889536     -3.472754     -4.082233
  H      -2.998160     -3.485130     -4.080108
  C      -1.238492     -2.204416     -4.615709
  H      -0.197987     -2.106883     -4.233434
  H      -1.791624     -1.315890     -4.222350
  C      -1.205558     -2.112487     -6.174028
  H      -0.679722     -3.010471     -6.579990
  H      -0.580562     -1.233459     -6.460591
  C      -2.594748     -1.976098     -6.844594
  H      -3.213169     -2.883028     -6.636803
  H      -3.144031     -1.119383     -6.379144
  C      -2.508115     -1.748390     -8.375933
  H      -1.872135     -0.850600     -8.564849
  H      -1.968219     -2.607149     -8.847672
  C      -3.887262     -1.571631     -9.058505
  H      -4.433522     -0.723534     -8.574227
  H      -4.507390     -2.480531     -8.862179
  C      -3.828679     -1.326039    -10.591759
  H      -3.248014     -2.150097    -11.077399
  H      -4.863838     -1.401861    -11.006617
  C      -3.225763      0.041411    -11.011083
  H      -3.786318      0.860287    -10.495005
  H      -2.172310      0.123443    -10.649434
  C      -3.257635      0.277329    -12.541477
  H      -2.821266      1.265724    -12.814567
  H      -2.679069     -0.506957    -13.084455
  H      -4.301330      0.249283    -12.934267
138
Coordinates from ORCA-job /wrk/rja7/qm_final_3_replicates/qm_final_1.1/qm/10/freq E -2722.582890898568
  N       0.941986      0.297128     11.604507
  C       0.280392     -0.049577     10.219543
  H       1.077911      0.072749      9.468768
  H      -0.481270      0.745124     10.060625
  C       1.579192     -0.909954     12.314713
  H       0.795944     -1.659330     12.533234
  H       2.345172     -1.332927     11.631055
  H       2.027743     -0.532949     13.259070
  C      -0.111523      0.901205     12.516524
  H      -0.941468      0.174317     12.629365
  H       0.337314      1.113672     13.509068
  H      -0.492067      1.841912     12.067515
  C       2.052356      1.314786     11.322964
  H       2.817873      0.796724     10.711416
  H       2.469897      1.662344     12.291530
  H       1.629823      2.162002     10.745885
  C      -0.374241     -1.442210     10.074557
  H      -1.128820     -1.619320     10.884330
  H      -0.952597     -1.371055      9.115145
  P       1.954876     -2.568669      9.108499
  O       2.384007     -4.006041      8.952720
  O       2.883683     -1.449169      9.641038
  O       0.511611     -2.550441     10.066228
  O       1.206357     -1.963789      7.672492
  C       2.078869     -1.835130      6.535266
  H       1.463782     -1.995697      5.617680
  H       2.876791     -2.616507      6.542846
  C       2.739424     -0.432028      6.477750
  H       3.102060     -0.169214      7.495280
  O       1.696004      0.538133      6.052525
  C       1.332645      1.566327      6.870437
  O       1.819641      1.798010      7.976293
  C       0.254785      2.437104      6.207472
  H      -0.238868      3.008251      7.024393
  H      -0.511190      1.787172      5.727464
  C       3.930661     -0.301941      5.510312
  H       4.731022     -1.014446      5.811062
  H       4.331065      0.736316      5.542133
  O       3.546313     -0.531648      4.117213
  C       3.815818     -1.771114      3.560983
  O       4.408272     -2.668833      4.139565
  C       3.233252     -1.847984      2.145697
  H       3.589510     -0.967969      1.559198
  H       3.639103     -2.767999      1.673643
  C       0.841488      3.448074      5.163313
  H       1.717305      3.963539      5.625520
  H       0.073279      4.242531      5.002109
  C       1.243539      2.863444      3.779043
  H       1.981048      2.037392      3.901385
  H       1.772657      3.670880      3.215907
  C       0.040510      2.376420      2.929648
  H      -0.747789      3.171211      2.929351
  H      -0.432762      1.483292      3.406557
  C       0.394663      2.035603      1.458239
  H       1.131600      1.196990      1.427777
  H       0.913458      2.909821      0.994499
  C      -0.851399      1.663323      0.612283
  H      -1.611737      2.478004      0.710671
  H      -1.332950      0.750531      1.040188
  C      -0.566116      1.424535     -0.897784
  H      -1.519882      1.099223     -1.386751
  H       0.135164      0.567116     -1.018903
  C      -0.035947      2.660203     -1.614586
  H      -0.413828      3.629191     -1.226120
  C       0.815465      2.700256     -2.670479
  H       1.083966      3.698949     -3.069461
  C       1.396683      1.508622     -3.417374
  H       1.368960      0.594683     -2.780644
  H       2.473723      1.701342     -3.648147
  C       0.645886      1.202596     -4.755516
  H      -0.428688      1.020947     -4.519401
  H       1.034611      0.243222     -5.176303
  C       0.780787      2.314297     -5.828845
  H       1.864602      2.447938     -6.067830
  H       0.450631      3.290222     -5.401430
  C       0.012689      2.040235     -7.152246
  H       0.397636      1.096855     -7.611873
  H       0.263570      2.848108     -7.880298
  C      -1.535574      1.925023     -7.026591
  H      -1.797004      0.993359     -6.473846
  H      -1.958758      1.785457     -8.051795
  C      -2.250949      3.125830     -6.347717
  H      -1.905574      3.231276     -5.290207
  H      -3.342606      2.894556     -6.281755
  C      -2.075547      4.483712     -7.078126
  H      -2.392991      4.369958     -8.144473
  H      -0.994951      4.762715     -7.111103
  C      -2.873559      5.634991     -6.417400
  H      -2.728582      6.599617     -6.956317
  H      -2.555754      5.790741     -5.359274
  H      -3.967831      5.417606     -6.404886
  C       1.672017     -1.858982      2.146026
  H       1.311210     -0.931825      2.645557
  H       1.309777     -2.713373      2.767909
  C       1.059535     -1.956422      0.722423
  H       1.496506     -1.150594      0.082145
  H      -0.032491     -1.731010      0.785591
  C       1.250506     -3.327964      0.024778
  H       0.770508     -4.124259      0.646325
  H       2.335521     -3.589160     -0.014947
  C       0.667492     -3.371233     -1.409766
  H      -0.406950     -3.069506     -1.385836
  H       1.183537     -2.603088     -2.039014
  C       0.796930     -4.758258     -2.087770
  H       1.870561     -5.067619     -2.099489
  H       0.265867     -5.523810     -1.469362
  C       0.248094     -4.802882     -3.549799
  H       0.484239     -5.806825     -3.979648
  H       0.803669     -4.063592     -4.171343
  C      -1.254093     -4.577280     -3.640921
  H      -1.877314     -5.420086     -3.275674
  C      -1.892430     -3.463395     -4.079980
  H      -3.001082     -3.473043     -4.076774
  C      -1.238940     -2.197697     -4.617073
  H      -0.197569     -2.102387     -4.236701
  H      -1.789452     -1.307128     -4.224453
  C      -1.208977     -2.109033     -6.175748
  H      -0.684324     -3.008146     -6.580736
  H      -0.583898     -1.230988     -6.465399
  C      -2.599488     -1.973218     -6.843852
  H      -3.217560     -2.879598     -6.632614
  H      -3.147471     -1.115420     -6.378844
  C      -2.516294     -1.749066     -8.375892
  H      -1.881291     -0.851394     -8.568550
  H      -1.977284     -2.608796     -8.846910
  C      -3.897195     -1.574661     -9.055775
  H      -4.442300     -0.725283     -8.572374
  H      -4.516670     -2.483146     -8.855698
  C      -3.842027     -1.333301    -10.589893
  H      -3.262751     -2.159094    -11.074288
  H      -4.878024     -1.409427    -11.002512
  C      -3.238646      0.032498    -11.014400
  H      -3.797940      0.853366    -10.500149
  H      -2.184646      0.114638    -10.654373
  C      -3.272283      0.263792    -12.545459
  H      -2.835705      1.251136    -12.822022
  H      -2.694690     -0.522367    -13.086766
  H      -4.316438      0.235156    -12.936958
138
Coordinates from ORCA-job /wrk/rja7/qm_final_3_replicates/qm_final_1.1/qm/10/freq E -2722.582893928730
  N       0.934017      0.293412     11.602909
  C       0.273130     -0.052190     10.217236
  H       1.071459      0.069694      9.467160
  H      -0.487277      0.743680     10.058262
  C       1.570248     -0.914536     12.313062
  H       0.786409     -1.663957     12.529369
  H       2.336885     -1.337095     11.629920
  H       2.017666     -0.538340     13.258215
  C      -0.120062      0.897256     12.514274
  H      -0.950331      0.170554     12.625845
  H       0.327665      1.109393     13.507389
  H      -0.499946      1.838311     12.065371
  C       2.045113      1.310544     11.322815
  H       2.810795      0.792319     10.711576
  H       2.462172      1.657207     12.291907
  H       1.623809      2.158515     10.745907
  C      -0.382780     -1.444002     10.071156
  H      -1.138199     -1.620803     10.880212
  H      -0.960447     -1.371853      9.111396
  P       1.946092     -2.571646      9.106125
  O       2.374185     -4.009164      8.949563
  O       2.875851     -1.453708      9.640125
  O       0.502252     -2.552908     10.062843
  O       1.199261     -1.964997      7.670047
  C       2.073341     -1.834691      6.534212
  H       1.459145     -1.993225      5.615656
  H       2.870848     -2.616490      6.541301
  C       2.734471     -0.431825      6.479800
  H       3.095072     -0.170189      7.498377
  O       1.692650      0.539300      6.052840
  C       1.327523      1.566640      6.871161
  O       1.811002      1.796170      7.978981
  C       0.252388      2.439037      6.206060
  H      -0.242443      3.010438      7.022111
  H      -0.513434      1.789896      5.724599
  C       3.927965     -0.301265      5.515300
  H       4.727395     -1.014291      5.817209
  H       4.328560      0.736890      5.548793
  O       3.546592     -0.529705      4.121156
  C       3.818224     -1.768394      3.564049
  O       4.410119     -2.666354      4.142836
  C       3.237914     -1.844400      2.147835
  H       3.593990     -0.963228      1.562969
  H       3.645887     -2.763275      1.675399
  C       0.841834      3.449680      5.163298
  H       1.716997      3.964495      5.627483
  H       0.074511      4.244729      5.000848
  C       1.246161      2.865206      3.779607
  H       1.980511      2.036553      3.903315
  H       1.780032      3.671371      3.219039
  C       0.043920      2.384231      2.926078
  H      -0.738895      3.184395      2.920341
  H      -0.437665      1.495326      3.402653
  C       0.401813      2.038128      1.456817
  H       1.135326      1.196336      1.431263
  H       0.926126      2.908917      0.992809
  C      -0.843073      1.669537      0.607486
  H      -1.600738      2.486992      0.703531
  H      -1.329219      0.758825      1.034634
  C      -0.554474      1.428997     -0.901687
  H      -1.507874      1.106715     -1.393274
  H       0.143980      0.568858     -1.020220
  C      -0.017225      2.662359     -1.617307
  H      -0.389569      3.633127     -1.227971
  C       0.834346      2.698466     -2.673172
  H       1.108392      3.695894     -3.071510
  C       1.408722      1.503787     -3.420766
  H       1.379090      0.590298     -2.783375
  H       2.485878      1.691701     -3.654655
  C       0.652554      1.200354     -4.756469
  H      -0.421554      1.021236     -4.516482
  H       1.037423      0.240549     -5.179891
  C       0.786424      2.312590     -5.829309
  H       1.869945      2.445448     -6.070134
  H       0.457919      3.288574     -5.400832
  C       0.015511      2.039758     -7.151327
  H       0.398498      1.096032     -7.611893
  H       0.265707      2.847477     -7.879746
  C      -1.532561      1.926084     -7.022539
  H      -1.794144      0.994961     -6.469010
  H      -1.957864      1.786590     -8.046880
  C      -2.245673      3.128057     -6.342846
  H      -1.898339      3.233436     -5.286005
  H      -3.337385      2.897834     -6.274780
  C      -2.069735      4.485410     -7.074051
  H      -2.390177      4.371711     -8.139509
  H      -0.988728      4.762274     -7.110018
  C      -2.863850      5.638508     -6.411840
  H      -2.718934      6.602505     -6.951900
  H      -2.542800      5.794571     -5.354745
  H      -3.958445      5.422905     -6.396238
  C       1.676752     -1.857503      2.145892
  H       1.313977     -0.931483      2.646254
  H       1.314683     -2.713250      2.765959
  C       1.066610     -1.953864      0.721159
  H       1.502952     -1.146297      0.082742
  H      -0.025968     -1.730675      0.783116
  C       1.261340     -3.323877      0.021497
  H       0.783369     -4.122377      0.641726
  H       2.347083     -3.582007     -0.018505
  C       0.678667     -3.366404     -1.413296
  H      -0.396359     -3.066810     -1.388866
  H       1.193289     -2.596419     -2.041468
  C       0.811211     -4.752192     -2.093046
  H       1.885575     -5.058867     -2.106121
  H       0.282595     -5.519690     -1.474938
  C       0.260783     -4.796498     -3.554467
  H       0.499854     -5.798899     -3.986291
  H       0.812622     -4.054173     -4.175707
  C      -1.242298     -4.575954     -3.642704
  H      -1.861987     -5.420852     -3.276238
  C      -1.885252     -3.463928     -4.079729
  H      -2.993857     -3.477236     -4.074194
  C      -1.237220     -2.195848     -4.617959
  H      -0.195285     -2.097079     -4.239964
  H      -1.789857     -1.307245     -4.224030
  C      -1.211644     -2.107103     -6.176745
  H      -0.685980     -3.004943     -6.583180
  H      -0.589580     -1.227541     -6.468185
  C      -2.604465     -1.974934     -6.840799
  H      -3.219207     -2.883148     -6.627569
  H      -3.153412     -1.118784     -6.373972
  C      -2.526443     -1.750938     -8.373004
  H      -1.894996     -0.851187     -8.567917
  H      -1.986098     -2.609042     -8.845485
  C      -3.909985     -1.581633     -9.048950
  H      -4.456292     -0.733595     -8.564492
  H      -4.525878     -2.491968     -8.846364
  C      -3.860026     -1.341560    -10.583482
  H      -3.279516     -2.166147    -11.068477
  H      -4.896934     -1.421227    -10.993134
  C      -3.262077      0.025626    -11.011222
  H      -3.822785      0.845429    -10.496795
  H      -2.207479      0.111548    -10.653742
  C      -3.299788      0.254772    -12.542476
  H      -2.867326      1.243313    -12.821209
  H      -2.720560     -0.529979    -13.084079
  H      -4.344678      0.221951    -12.931695
138
Coordinates from ORCA-job /wrk/rja7/qm_final_3_replicates/qm_final_1.1/qm/10/freq E -2722.582896068254
  N       0.933042      0.288182     11.601807
  C       0.272464     -0.058005     10.216172
  H       1.070342      0.065745      9.465875
  H      -0.489376      0.736681     10.058068
  C       1.573572     -0.918753     12.310509
  H       0.792310     -1.671187     12.525722
  H       2.341198     -1.338147     11.626471
  H       2.020012     -0.541993     13.255842
  C      -0.122280      0.887560     12.514543
  H      -0.949811      0.157767     12.626414
  H       0.325556      1.100782     13.507373
  H      -0.506190      1.827532     12.066757
  C       2.040780      1.308881     11.322122
  H       2.807870      0.793556     10.710157
  H       2.457317      1.655980     12.291296
  H       1.616804      2.156194     10.746222
  C      -0.380710     -1.450937     10.069873
  H      -1.135125     -1.629966     10.879348
  H      -0.959444     -1.379273      9.110663
  P       1.949700     -2.572971      9.101773
  O       2.380385     -4.009531      8.943577
  O       2.878442     -1.454319      9.636109
  O       0.506701     -2.558018     10.059777
  O       1.200808     -1.966453      7.666901
  C       2.073938     -1.832885      6.530759
  H       1.459011     -1.990399      5.612513
  H       2.872267     -2.613850      6.535825
  C       2.733562     -0.429229      6.477856
  H       3.093719     -0.167993      7.496732
  O       1.691272      0.541367      6.051035
  C       1.323858      1.567396      6.869992
  O       1.805324      1.796209      7.978833
  C       0.249244      2.439524      6.203815
  H      -0.246915      3.010224      7.019579
  H      -0.515818      1.789743      5.721871
  C       3.927361     -0.296706      5.513832
  H       4.727240     -1.009489      5.815102
  H       4.327032      0.741761      5.548595
  O       3.546584     -0.523925      4.119263
  C       3.818379     -1.762162      3.561120
  O       4.410963     -2.660243      4.139058
  C       3.236459     -1.838029      2.145549
  H       3.591435     -0.956478      1.560595
  H       3.644552     -2.756514      1.672481
  C       0.838299      3.450969      5.161869
  H       1.712682      3.966380      5.626892
  H       0.070301      4.245346      4.999433
  C       1.243978      2.867712      3.778040
  H       1.977450      2.038351      3.901875
  H       1.779479      3.674007      3.219142
  C       0.042466      2.389088      2.922371
  H      -0.738670      3.190871      2.915082
  H      -0.441805      1.501020      3.397832
  C       0.402349      2.042812      1.453664
  H       1.135507      1.200671      1.429451
  H       0.927947      2.913264      0.990495
  C      -0.841348      1.675077      0.602228
  H      -1.598618      2.492982      0.697557
  H      -1.328738      0.764474      1.028136
  C      -0.550022      1.435143     -0.906627
  H      -1.502881      1.115328     -1.400712
  H       0.146868      0.573480     -1.024041
  C      -0.007827      2.667714     -1.619771
  H      -0.378604      3.639149     -1.230607
  C       0.847069      2.702084     -2.672898
  H       1.125701      3.698893     -3.069577
  C       1.419617      1.505651     -3.419328
  H       1.390945      0.593168     -2.780322
  H       2.496430      1.692587     -3.655278
  C       0.660530      1.200451     -4.753011
  H      -0.412894      1.021298     -4.510017
  H       1.044629      0.240592     -5.176945
  C       0.791379      2.312077     -5.826790
  H       1.874392      2.446319     -6.069193
  H       0.462376      3.287957     -5.398476
  C       0.018643      2.037509     -7.147361
  H       0.401491      1.093678     -7.607866
  H       0.266932      2.844723     -7.876964
  C      -1.529126      1.922552     -7.015499
  H      -1.789024      0.991596     -6.460953
  H      -1.956361      1.782231     -8.038961
  C      -2.242183      3.124107     -6.334758
  H      -1.893634      3.229456     -5.278328
  H      -3.333560      2.892771     -6.265248
  C      -2.067889      4.481703     -7.065768
  H      -2.390822      4.368462     -8.130497
  H      -0.986873      4.758209     -7.104119
  C      -2.860188      5.634745     -6.401346
  H      -2.716832      6.598811     -6.941690
  H      -2.536404      5.790619     -5.345066
  H      -3.954749      5.419105     -6.383120
  C       1.675346     -1.852000      2.145311
  H       1.312711     -0.925910      2.645669
  H       1.314220     -2.707574      2.766141
  C       1.063886     -1.949597      0.721149
  H       1.499647     -1.142576      0.081686
  H      -0.028681     -1.726485      0.783882
  C       1.258007     -3.320126      0.022152
  H       0.780311     -4.118226      0.643044
  H       2.343724     -3.578325     -0.018510
  C       0.674658     -3.363007     -1.412511
  H      -0.400021     -3.062190     -1.387650
  H       1.189900     -2.593781     -2.041091
  C       0.805757     -4.749149     -2.091707
  H       1.879788     -5.056967     -2.104498
  H       0.276176     -5.515783     -1.473358
  C       0.255386     -4.793509     -3.553279
  H       0.493924     -5.796001     -3.985107
  H       0.807474     -4.051371     -4.174544
  C      -1.247523     -4.571757     -3.641073
  H      -1.867826     -5.415945     -3.273987
  C      -1.889660     -3.459165     -4.077822
  H      -2.998276     -3.471332     -4.071595
  C      -1.240792     -2.191916     -4.617082
  H      -0.198998     -2.093068     -4.238696
  H      -1.793266     -1.302630     -4.224623
  C      -1.214675     -2.105262     -6.176002
  H      -0.689189     -3.003756     -6.581188
  H      -0.592585     -1.226122     -6.468459
  C      -2.607532     -1.974286     -6.840346
  H      -3.221912     -2.882391     -6.625555
  H      -3.156629     -1.117605     -6.374736
  C      -2.529600     -1.753157     -8.372846
  H      -1.897833     -0.854097     -8.569828
  H      -1.989833     -2.612423     -8.843887
  C      -3.913248     -1.584416     -9.048910
  H      -4.458806     -0.734964     -8.566066
  H      -4.529576     -2.493969     -8.844253
  C      -3.863050     -1.347523    -10.583888
  H      -3.283687     -2.173933    -11.067127
  H      -4.900077     -1.426376    -10.993426
  C      -3.263148      0.017989    -11.014176
  H      -3.823146      0.839695    -10.501971
  H      -2.208686      0.103185    -10.656128
  C      -3.299241      0.243676    -12.545938
  H      -2.865578      1.231163    -12.826528
  H      -2.720273     -0.542822    -13.085279
  H      -4.343811      0.210966    -12.936076
138
Coordinates from ORCA-job /wrk/rja7/qm_final_3_replicates/qm_final_1.1/qm/10/freq E -2722.582897576678
  N       0.929120      0.284255     11.602508
  C       0.268977     -0.062215     10.216834
  H       1.066627      0.062354      9.466462
  H      -0.493737      0.731717     10.059062
  C       1.571193     -0.922254     12.310779
  H       0.791057     -1.675777     12.526155
  H       2.338973     -1.340628     11.626190
  H       2.017519     -0.545052     13.255991
  C      -0.126607      0.882034     12.515844
  H      -0.952942      0.150956     12.628260
  H       0.321633      1.095780     13.508373
  H      -0.512348      1.821428     12.068433
  C       2.035621      1.306249     11.322977
  H       2.803047      0.792118     10.710474
  H       2.452192      1.653386     12.292138
  H       1.610478      2.153392     10.747745
  C      -0.382836     -1.455809     10.070319
  H      -1.136822     -1.635975     10.879888
  H      -0.961845     -1.384279      9.111230
  P       1.948595     -2.574951      9.101339
  O       2.381146     -4.010940      8.942764
  O       2.876112     -1.455422      9.636114
  O       0.505636     -2.562074     10.059439
  O       1.199006     -1.968790      7.666825
  C       2.071730     -1.833588      6.530632
  H       1.456673     -1.990732      5.612428
  H       2.870606     -2.614007      6.534894
  C       2.730399     -0.429370      6.478880
  H       3.089659     -0.168366      7.498112
  O       1.687899      0.540793      6.051799
  C       1.319586      1.566353      6.870898
  O       1.799585      1.794182      7.980605
  C       0.246243      2.439402      6.203817
  H      -0.250789      3.009792      7.019293
  H      -0.518546      1.789941      5.720938
  C       3.924867     -0.295159      5.515856
  H       4.725112     -1.007614      5.816933
  H       4.323571      0.743625      5.552018
  O       3.545250     -0.521424      4.120805
  C       3.817936     -1.759127      3.561951
  O       4.410896     -2.657238      4.139498
  C       3.237810     -1.833946      2.145634
  H       3.593114     -0.951720      1.561879
  H       3.646839     -2.751854      1.672266
  C       0.836671      3.451183      5.163124
  H       1.710821      3.965840      5.629441
  H       0.069160      4.245980      5.000481
  C       1.243492      2.868795      3.779229
  H       1.974785      2.037532      3.903364
  H       1.782152      3.674503      3.222500
  C       0.042466      2.394455      2.920574
  H      -0.735625      3.199185      2.911364
  H      -0.446406      1.508162      3.394652
  C       0.404753      2.046767      1.452813
  H       1.135277      1.202279      1.430648
  H       0.934115      2.915395      0.990529
  C      -0.838118      1.682603      0.598542
  H      -1.593266      2.502639      0.692274
  H      -1.328832      0.773305      1.023394
  C      -0.543880      1.441706     -0.909618
  H      -1.496624      1.125362     -1.406161
  H       0.150194      0.577503     -1.024888
  C       0.005100      2.671959     -1.621654
  H      -0.361147      3.645137     -1.232564
  C       0.860994      2.701985     -2.674114
  H       1.145848      3.697266     -3.070196
  C       1.426802      1.502351     -3.420560
  H       1.396193      0.590605     -2.780580
  H       2.503772      1.684730     -3.659335
  C       0.663017      1.198793     -4.751939
  H      -0.410322      1.023381     -4.505705
  H       1.042435      0.237358     -5.176534
  C       0.794465      2.309452     -5.826617
  H       1.877379      2.441768     -6.070574
  H       0.467796      3.286215     -5.398504
  C       0.019385      2.035374     -7.145919
  H       0.399409      1.090214     -7.606027
  H       0.268567      2.841207     -7.876733
  C      -1.528532      1.924111     -7.011638
  H      -1.789543      0.994645     -6.455110
  H      -1.957684      1.783065     -8.034192
  C      -2.237888      3.128214     -6.331708
  H      -1.887380      3.234721     -5.276027
  H      -3.329577      2.898966     -6.259852
  C      -2.062320      4.484282     -7.065210
  H      -2.388462      4.370447     -8.128909
  H      -0.980678      4.757956     -7.106809
  C      -2.849868      5.640241     -6.400255
  H      -2.705480      6.603217     -6.942259
  H      -2.522837      5.796569     -5.345046
  H      -3.944956      5.427551     -6.378850
  C       1.676759     -1.848562      2.143579
  H       1.313199     -0.922886      2.643991
  H       1.315241     -2.704559      2.763616
  C       1.067023     -1.945890      0.718723
  H       1.503323     -1.138475      0.080099
  H      -0.025725     -1.723201      0.780282
  C       1.262575     -3.316077      0.019461
  H       0.785457     -4.114837      0.639935
  H       2.348539     -3.573291     -0.021087
  C       0.679738     -3.359142     -1.415433
  H      -0.395285     -3.059624     -1.390735
  H       1.194350     -2.589087     -2.043515
  C       0.812723     -4.744900     -2.095051
  H       1.887301     -5.050770     -2.108579
  H       0.284860     -5.512717     -1.476699
  C       0.261367     -4.789730     -3.556308
  H       0.501358     -5.791590     -3.988748
  H       0.811806     -4.046365     -4.177599
  C      -1.241916     -4.570268     -3.642473
  H      -1.860535     -5.415566     -3.275082
  C      -1.886272     -3.458433     -4.077807
  H      -2.994856     -3.472173     -4.069920
  C      -1.240022     -2.189991     -4.617312
  H      -0.197901     -2.089710     -4.240186
  H      -1.793168     -1.301613     -4.223783
  C      -1.216159     -2.102922     -6.176234
  H      -0.690229     -3.000735     -6.582349
  H      -0.595831     -1.222906     -6.469596
  C      -2.610347     -1.974227     -6.838407
  H      -3.222957     -2.883050     -6.621680
  H      -3.159869     -1.117926     -6.372615
  C      -2.535361     -1.754729     -8.371241
  H      -1.905383     -0.854897     -8.570693
  H      -1.994996     -2.613736     -8.842060
  C      -3.920392     -1.589232     -9.045389
  H      -4.466390     -0.739502     -8.563545
  H      -4.535024     -2.499246     -8.837653
  C      -3.872923     -1.355779    -10.580996
  H      -3.292315     -2.181937    -11.063135
  H      -4.910374     -1.438085    -10.988855
  C      -3.277161      0.010216    -11.015250
  H      -3.839471      0.831647    -10.505210
  H      -2.222878      0.099545    -10.657627
  C      -3.314242      0.231475    -12.547621
  H      -2.883866      1.219577    -12.831071
  H      -2.732838     -0.554665    -13.084855
  H      -4.358791      0.194146    -12.937406
138
Coordinates from ORCA-job /wrk/rja7/qm_final_3_replicates/qm_final_1.1/qm/10/freq E -2722.582898766289
  N       0.928477      0.280232     11.601119
  C       0.268698     -0.065799     10.215208
  H       1.066386      0.059177      9.465010
  H      -0.494192      0.728004     10.057759
  C       1.571887     -0.926170     12.308197
  H       0.792604     -1.680597     12.523294
  H       2.339771     -1.343427     11.622959
  H       2.018146     -0.549348     13.253624
  C      -0.127650      0.875902     12.515379
  H      -0.952669      0.143387     12.628169
  H       0.321116      1.089701     13.507658
  H      -0.515450      1.814879     12.068866
  C       2.033626      1.303842     11.322222
  H       2.801398      0.791390     10.708783
  H       2.450320      1.650551     12.291493
  H       1.606952      2.151014     10.748197
  C      -0.382434     -1.459722     10.068097
  H      -1.135802     -1.641090     10.877939
  H      -0.961909     -1.387914      9.109309
  P       1.949580     -2.576642      9.097422
  O       2.383093     -4.012306      8.937991
  O       2.876413     -1.456780      9.632835
  O       0.506783     -2.565461     10.055888
  O       1.199286     -1.969798      7.663657
  C       2.071522     -1.832581      6.527341
  H       1.456400     -1.989341      5.609123
  H       2.871146     -2.612257      6.530522
  C       2.728933     -0.427654      6.476961
  H       3.087396     -0.167114      7.496566
  O       1.685711      0.541839      6.050142
  C       1.315813      1.566171      6.869947
  O       1.794391      1.792901      7.980530
  C       0.242617      2.439426      6.202834
  H      -0.255091      3.009051      7.018420
  H      -0.521657      1.789847      5.719249
  C       3.923726     -0.291292      5.514577
  H       4.724699     -1.003106      5.815240
  H       4.321117      0.747928      5.552112
  O       3.544901     -0.516607      4.119177
  C       3.818603     -1.753604      3.559341
  O       4.412646     -2.651556      4.136030
  C       3.237976     -1.827977      2.143229
  H       3.592187     -0.945053      1.559865
  H       3.647517     -2.745258      1.669088
  C       0.833110      3.452094      5.163060
  H       1.706918      3.966698      5.630082
  H       0.065289      4.246647      5.000704
  C       1.240671      2.871042      3.778804
  H       1.971677      2.039454      3.902560
  H       1.779947      3.677164      3.223295
  C       0.040117      2.397661      2.918874
  H      -0.737785      3.202584      2.909995
  H      -0.449247      1.511021      3.391792
  C       0.403547      2.051074      1.451167
  H       1.133055      1.205738      1.428883
  H       0.934245      2.919510      0.990109
  C      -0.838827      1.689127      0.595102
  H      -1.592703      2.510425      0.687795
  H      -1.331359      0.780460      1.019162
  C      -0.542511      1.447821     -0.912572
  H      -1.495227      1.134704     -1.411221
  H       0.149156      0.581557     -1.026531
  C       0.012221      2.676301     -1.623204
  H      -0.351318      3.650786     -1.234882
  C       0.870867      2.702928     -2.673522
  H       1.160974      3.696982     -3.068879
  C       1.433008      1.500873     -3.418757
  H       1.401673      0.590178     -2.777294
  H       2.509902      1.680826     -3.659656
  C       0.666324      1.196776     -4.748318
  H      -0.406823      1.023101     -4.499852
  H       1.043435      0.234258     -5.172497
  C       0.797193      2.306427     -5.824074
  H       1.879846      2.437751     -6.069720
  H       0.471950      3.283704     -5.396034
  C       0.019932      2.032244     -7.142021
  H       0.397837      1.086071     -7.601764
  H       0.269402      2.836960     -7.873981
  C      -1.528021      1.923542     -7.005254
  H      -1.789277      0.995383     -6.446607
  H      -1.958960      1.781288     -8.026897
  C      -2.234364      3.129660     -6.326066
  H      -1.882366      3.237023     -5.270953
  H      -3.326364      2.902279     -6.252440
  C      -2.057745      4.484626     -7.061299
  H      -2.386559      4.370721     -8.124143
  H      -0.975611      4.756001     -7.105512
  C      -2.841362      5.642709     -6.395407
  H      -2.695823      6.605078     -6.938181
  H      -2.511778      5.798702     -5.340942
  H      -3.936909      5.432659     -6.371567
  C       1.676928     -1.843984      2.141882
  H       1.312791     -0.918603      2.642410
  H       1.316457     -2.700191      2.762271
  C       1.066652     -1.942131      0.717368
  H       1.502704     -1.135006      0.078175
  H      -0.026105     -1.719534      0.779180
  C       1.262197     -3.312732      0.018947
  H       0.785235     -4.111173      0.639968
  H       2.348151     -3.570004     -0.021617
  C       0.679297     -3.356907     -1.415858
  H      -0.395854     -3.057843     -1.391484
  H       1.193725     -2.587067     -2.044343
  C       0.812786     -4.743080     -2.094664
  H       1.887551     -5.048335     -2.108085
  H       0.285410     -5.510965     -1.475993
  C       0.261345     -4.788871     -3.555912
  H       0.501987     -5.790695     -3.988041
  H       0.811448     -4.045385     -4.177374
  C      -1.242043     -4.570274     -3.641881
  H      -1.860136     -5.416042     -3.274694
  C      -1.887068     -3.458754     -4.076940
  H      -2.995637     -3.473002     -4.068660
  C      -1.241531     -2.189960     -4.616311
  H      -0.199321     -2.089427     -4.239492
  H      -1.794697     -1.301826     -4.222212
  C      -1.218081     -2.102353     -6.175149
  H      -0.691403     -2.999569     -6.581644
  H      -0.598776     -1.221652     -6.468459
  C      -2.612631     -1.975044     -6.836961
  H      -3.224449     -2.884149     -6.619324
  H      -3.162612     -1.118739     -6.371701
  C      -2.538357     -1.756568     -8.369965
  H      -1.909032     -0.856492     -8.570506
  H      -1.997568     -2.615592     -8.840254
  C      -3.923650     -1.592250     -9.043896
  H      -4.469694     -0.741866     -8.563304
  H      -4.538056     -2.502049     -8.834476
  C      -3.876526     -1.361021    -10.579840
  H      -3.295866     -2.187690    -11.061006
  H      -4.914034     -1.444102    -10.987444
  C      -3.281076      0.004543    -11.015775
  H      -3.844399      0.826416    -10.507596
  H      -2.227236      0.095047    -10.657150
  C      -3.316844      0.223268    -12.548546
  H      -2.887174      1.211318    -12.833223
  H      -2.734163     -0.563229    -13.083873
  H      -4.360979      0.184156    -12.939255
138
Coordinates from ORCA-job /wrk/rja7/qm_final_3_replicates/qm_final_1.1/qm/10/freq E -2722.582899549529
  N       0.924867      0.274953     11.600211
  C       0.265793     -0.071278     10.214059
  H       1.063347      0.055261      9.464010
  H      -0.498407      0.721278     10.056789
  C       1.569903     -0.930850     12.306575
  H       0.791605     -1.686343     12.521518
  H       2.338308     -1.346820     11.621155
  H       2.015659     -0.553953     13.252217
  C      -0.132166      0.868470     12.514815
  H      -0.955766      0.134383     12.627748
  H       0.316562      1.082743     13.507010
  H      -0.521924      1.806826     12.068695
  C       2.028501      1.300468     11.322154
  H       2.797081      0.789639     10.708382
  H       2.444605      1.647126     12.291689
  H       1.600460      2.147352     10.748713
  C      -0.383073     -1.466215     10.065978
  H      -1.135859     -1.649452     10.875946
  H      -0.962877     -1.394748      9.107397
  P       1.950940     -2.578694      9.094482
  O       2.386389     -4.013659      8.933608
  O       2.876039     -1.457947      9.631186
  O       0.507963     -2.570489     10.052813
  O       1.199992     -1.971329      7.661308
  C       2.072043     -1.831821      6.525077
  H       1.457188     -1.988341      5.606647
  H       2.872608     -2.610529      6.527427
  C       2.727878     -0.426061      6.476192
  H       3.085404     -0.166066      7.496251
  O       1.683783      0.542687      6.049563
  C       1.312102      1.565846      6.869978
  O       1.789157      1.791746      7.981400
  C       0.238977      2.439162      6.202685
  H      -0.259956      3.007486      7.018405
  H      -0.524329      1.789540      5.717609
  C       3.923124     -0.287464      5.514654
  H       4.724779     -0.998575      5.815168
  H       4.319216      0.752195      5.553501
  O       3.545511     -0.511901      4.118805
  C       3.820291     -1.748324      3.558299
  O       4.414528     -2.646305      4.134726
  C       3.240047     -1.822300      2.142002
  H       3.593653     -0.938802      1.559151
  H       3.650233     -2.739059      1.667401
  C       0.830070      3.453359      5.164684
  H       1.703367      3.967605      5.633043
  H       0.062183      4.247933      5.002675
  C       1.238976      2.874194      3.780033
  H       1.969370      2.042002      3.903446
  H       1.779386      3.680785      3.226338
  C       0.039219      2.402575      2.917952
  H      -0.738078      3.208079      2.908906
  H      -0.451521      1.515894      3.389388
  C       0.404620      2.056851      1.450541
  H       1.132537      1.210166      1.428659
  H       0.937568      2.924754      0.991130
  C      -0.836931      1.697853      0.591879
  H      -1.588941      2.521035      0.682719
  H      -1.332327      0.790388      1.015145
  C      -0.537844      1.455197     -0.915023
  H      -1.490460      1.145533     -1.416033
  H       0.150961      0.586426     -1.027007
  C       0.023336      2.681335     -1.624686
  H      -0.336368      3.657487     -1.237041
  C       0.883869      2.703672     -2.673597
  H       1.179333      3.696158     -3.068923
  C       1.440866      1.498619     -3.417852
  H       1.408006      0.589070     -2.774830
  H       2.517731      1.674923     -3.661441
  C       0.670413      1.194597     -4.745203
  H      -0.402552      1.023548     -4.494058
  H       1.044318      0.230619     -5.168922
  C       0.801140      2.302706     -5.822537
  H       1.883551      2.432232     -6.070168
  H       0.477856      3.280854     -5.395017
  C       0.021290      2.028002     -7.138843
  H       0.396746      1.080457     -7.597740
  H       0.271081      2.831186     -7.872385
  C      -1.526615      1.922354     -6.999387
  H      -1.788372      0.995741     -6.438351
  H      -1.959446      1.778711     -8.020042
  C      -2.229558      3.131014     -6.321309
  H      -1.875687      3.239587     -5.266934
  H      -3.321907      2.905972     -6.245527
  C      -2.051632      4.484424     -7.059056
  H      -2.383373      4.369853     -8.120917
  H      -0.969000      4.753234     -7.106312
  C      -2.830969      5.645205     -6.392802
  H      -2.684332      6.606537     -6.937119
  H      -2.498514      5.801688     -5.339310
  H      -3.926966      5.437887     -6.366024
  C       1.678976     -1.839449      2.140401
  H       1.314075     -0.914516      2.641175
  H       1.319097     -2.696097      2.760539
  C       1.068876     -1.937579      0.715840
  H       1.504811     -1.130280      0.076782
  H      -0.023938     -1.715243      0.777526
  C       1.264771     -3.308094      0.017431
  H       0.788191     -4.106673      0.638597
  H       2.350767     -3.565126     -0.023396
  C       0.681404     -3.352612     -1.417135
  H      -0.393829     -3.053860     -1.392492
  H       1.195426     -2.582737     -2.045908
  C       0.814919     -4.738859     -2.095810
  H       1.889851     -5.043504     -2.110309
  H       0.288625     -5.507018     -1.476565
  C       0.262089     -4.785181     -3.556533
  H       0.502875     -5.787015     -3.988568
  H       0.811379     -4.041626     -4.178623
  C      -1.241505     -4.567469     -3.641120
  H      -1.858749     -5.413626     -3.273416
  C      -1.887603     -3.456378     -4.075712
  H      -2.996147     -3.471292     -4.066351
  C      -1.243192     -2.187338     -4.615873
  H      -0.200848     -2.086161     -4.239627
  H      -1.796586     -1.299392     -4.221603
  C      -1.220691     -2.100055     -6.174711
  H      -0.692963     -2.996647     -6.581242
  H      -0.602826     -1.218559     -6.468695
  C      -2.615890     -1.975030     -6.835693
  H      -3.226527     -2.884440     -6.616092
  H      -3.166357     -1.118543     -6.371335
  C      -2.543272     -1.758727     -8.369095
  H      -1.915308     -0.858150     -8.571716
  H      -2.001878     -2.617808     -8.838579
  C      -3.929408     -1.597061     -9.041974
  H      -4.475793     -0.746170     -8.562681
  H      -4.542759     -2.506979     -8.829979
  C      -3.883966     -1.368912    -10.578448
  H      -3.302065     -2.195401    -11.058436
  H      -4.921587     -1.454871    -10.985150
  C      -3.291446     -0.003027    -11.017397
  H      -3.857054      0.818610    -10.511382
  H      -2.238036      0.090875    -10.658406
  C      -3.327185      0.212106    -12.550701
  H      -2.899990      1.200613    -12.837485
  H      -2.742242     -0.574128    -13.083951
  H      -4.371074      0.169295    -12.941646
138
Coordinates from ORCA-job /wrk/rja7/qm_final_3_replicates/qm_final_1.1/qm/10/freq E -2722.582900043878
  N       0.924675      0.271362     11.598574
  C       0.265671     -0.074190     10.212243
  H       1.063314      0.052681      9.462319
  H      -0.498470      0.718437     10.055146
  C       1.569771     -0.934706     12.304197
  H       0.791352     -1.690208     12.518720
  H       2.338223     -1.350387     11.618680
  H       2.015473     -0.558460     13.250126
  C      -0.132508      0.864174     12.513452
  H      -0.955753      0.129687     12.626346
  H       0.316235      1.078397     13.505657
  H      -0.522799      1.802470     12.067652
  C       2.028147      1.297266     11.321173
  H       2.796896      0.786840     10.707271
  H       2.444051      1.643467     12.290944
  H       1.600002      2.144321     10.748051
  C      -0.383063     -1.469088     10.063360
  H      -1.135577     -1.652968     10.873456
  H      -0.963101     -1.397208      9.104980
  P       1.951205     -2.580340      9.090845
  O       2.386609     -4.015178      8.928603
  O       2.876218     -1.459913      9.628405
  O       0.508268     -2.573092     10.049336
  O       1.200059     -1.971673      7.658327
  C       2.072070     -1.830733      6.522204
  H       1.457283     -1.986545      5.603603
  H       2.872907     -2.609149      6.523694
  C       2.727381     -0.424668      6.474648
  H       3.084455     -0.165421      7.495051
  O       1.683006      0.544050      6.048351
  C       1.310238      1.566129      6.869566
  O       1.786219      1.790980      7.981664
  C       0.237131      2.439706      6.202540
  H      -0.262055      3.007411      7.018514
  H      -0.525934      1.790228      5.716874
  C       3.922851     -0.284786      5.513623
  H       4.724641     -0.995897      5.813763
  H       4.318607      0.754965      5.553551
  O       3.545695     -0.507998      4.117484
  C       3.820583     -1.743974      3.556093
  O       4.415021     -2.642274      4.131808
  C       3.240143     -1.817099      2.139849
  H       3.592798     -0.932815      1.557634
  H       3.650877     -2.733135      1.664321
  C       0.828290      3.454589      5.165208
  H       1.701379      3.968811      5.633979
  H       0.060255      4.249083      5.003467
  C       1.237625      2.876364      3.780298
  H       1.968776      2.044776      3.903269
  H       1.777186      3.683709      3.226891
  C       0.038187      2.404023      2.918056
  H      -0.740321      3.208365      2.910380
  H      -0.450971      1.516058      3.388728
  C       0.403641      2.060605      1.450127
  H       1.131084      1.213563      1.426792
  H       0.936968      2.929020      0.992172
  C      -0.837977      1.703688      0.590558
  H      -1.588554      2.528224      0.680739
  H      -1.335129      0.797060      1.013538
  C      -0.538027      1.460303     -0.916079
  H      -1.490921      1.153219     -1.418160
  H       0.148641      0.589789     -1.027400
  C       0.027297      2.684963     -1.625016
  H      -0.330375      3.662112     -1.238037
  C       0.889762      2.704761     -2.672390
  H       1.188357      3.696335     -3.067655
  C       1.444601      1.497985     -3.415545
  H       1.411029      0.589248     -2.771400
  H       2.521407      1.672538     -3.660490
  C       0.672420      1.193452     -4.741751
  H      -0.400412      1.023511     -4.489290
  H       1.045060      0.228764     -5.165010
  C       0.802886      2.300667     -5.819993
  H       1.885130      2.429244     -6.068822
  H       0.480607      3.279224     -5.392694
  C       0.021418      2.025663     -7.135252
  H       0.395323      1.077273     -7.593659
  H       0.271370      2.827946     -7.869728
  C      -1.526414      1.921951     -6.994021
  H      -1.788532      0.996354     -6.431466
  H      -1.960443      1.777395     -8.014030
  C      -2.227181      3.132297     -6.316655
  H      -1.872041      3.241640     -5.262790
  H      -3.319753      2.908876     -6.239440
  C      -2.048304      4.484640     -7.056088
  H      -2.381819      4.369463     -8.117312
  H      -0.965383      4.751829     -7.105267
  C      -2.824999      5.647229     -6.389852
  H      -2.677636      6.607821     -6.935279
  H      -2.490842      5.804239     -5.336973
  H      -3.921265      5.441588     -6.361281
  C       1.679039     -1.835560      2.138746
  H       1.313452     -0.910957      2.639663
  H       1.320104     -2.692533      2.758975
  C       1.068645     -1.934269      0.714341
  H       1.504206     -1.127100      0.074871
  H      -0.024212     -1.712195      0.776150
  C       1.264707     -3.305068      0.016580
  H       0.788163     -4.103356      0.638162
  H       2.350708     -3.562087     -0.024052
  C       0.681344     -3.350402     -1.417915
  H      -0.393851     -3.051489     -1.393493
  H       1.195480     -2.581049     -2.047225
  C       0.814516     -4.737101     -2.095726
  H       1.889430     -5.041791     -2.110705
  H       0.288583     -5.504846     -1.475666
  C       0.260858     -4.784318     -3.556090
  H       0.501620     -5.786386     -3.987618
  H       0.809671     -4.041046     -4.178926
  C      -1.242865     -4.567139     -3.640031
  H      -1.859667     -5.413513     -3.272100
  C      -1.889450     -3.456193     -4.074311
  H      -2.997982     -3.471417     -4.064600
  C      -1.245358     -2.187014     -4.614574
  H      -0.203121     -2.085547     -4.238146
  H      -1.799040     -1.299164     -4.220446
  C      -1.222573     -2.099855     -6.173403
  H      -0.694074     -2.996089     -6.579717
  H      -0.605209     -1.217954     -6.467296
  C      -2.617677     -1.975848     -6.834769
  H      -3.227992     -2.885299     -6.614456
  H      -3.168519     -1.119159     -6.371246
  C      -2.544898     -1.760764     -8.368345
  H      -1.917331     -0.860047     -8.571603
  H      -2.003074     -2.619979     -8.837093
  C      -3.931023     -1.600281     -9.041559
  H      -4.477630     -0.748909     -8.563362
  H      -4.544212     -2.510049     -8.828501
  C      -3.885418     -1.373936    -10.578315
  H      -3.303074     -2.200771    -11.057194
  H      -4.922871     -1.460724    -10.985235
  C      -3.293088     -0.008380    -11.018634
  H      -3.859675      0.813630    -10.514312
  H      -2.240115      0.086549    -10.658667
  C      -3.327503      0.204672    -12.552269
  H      -2.900667      1.193062    -12.839984
  H      -2.741559     -0.581922    -13.083887
  H      -4.371008      0.160673    -12.944088
138
Coordinates from ORCA-job /wrk/rja7/qm_final_3_replicates/qm_final_1.1/qm/10/freq E -2722.582900331109
  N       0.922717      0.268488     11.597472
  C       0.263704     -0.076890     10.211097
  H       1.061231      0.050540      9.461126
  H      -0.500723      0.715500     10.054232
  C       1.567948     -0.937596     12.302846
  H       0.789537     -1.693160     12.517278
  H       2.336506     -1.353067     11.617355
  H       2.013615     -0.561533     13.248857
  C      -0.134628      0.861000     12.512340
  H      -0.957815      0.126411     12.624999
  H       0.313875      1.075205     13.504661
  H      -0.524932      1.799319     12.066603
  C       2.026092      1.294615     11.320337
  H       2.795023      0.784290     10.706562
  H       2.441721      1.640700     12.290260
  H       1.598017      2.141657     10.747149
  C      -0.384464     -1.471985     10.061778
  H      -1.136861     -1.656331     10.871893
  H      -0.964612     -1.400076      9.103472
  P       1.950309     -2.582025      9.088917
  O       2.385755     -4.016700      8.925593
  O       2.875140     -1.461825      9.627240
  O       0.507328     -2.575583     10.047403
  O       1.199227     -1.972424      7.656721
  C       2.071489     -1.830447      6.520897
  H       1.456903     -1.985588      5.602043
  H       2.872430     -2.608747      6.521865
  C       2.726601     -0.424275      6.474622
  H       3.083117     -0.165717      7.495397
  O       1.682254      0.544607      6.048416
  C       1.309148      1.566272      6.869980
  O       1.784716      1.790709      7.982337
  C       0.236275      2.440127      6.202940
  H      -0.263132      3.007479      7.019023
  H      -0.526667      1.790926      5.716711
  C       3.922585     -0.283470      5.514369
  H       4.724326     -0.994627      5.814533
  H       4.318158      0.756316      5.555249
  O       3.546376     -0.505662      4.117803
  C       3.821592     -1.741248      3.555692
  O       4.415591     -2.640001      4.131155
  C       3.241564     -1.813592      2.139241
  H       3.593860     -0.928714      1.557729
  H       3.652849     -2.729076      1.663131
  C       0.827857      3.455477      5.166308
  H       1.700823      3.969425      5.635614
  H       0.060000      4.250169      5.004687
  C       1.237658      2.877876      3.781295
  H       1.968724      2.046203      3.904091
  H       1.777434      3.685480      3.228460
  C       0.038493      2.406159      2.918335
  H      -0.740004      3.210511      2.910953
  H      -0.450832      1.517906      3.388298
  C       0.404379      2.063744      1.450298
  H       1.130961      1.215974      1.426497
  H       0.938740      2.932048      0.993357
  C      -0.837202      1.708735      0.589835
  H      -1.586264      2.534735      0.679119
  H      -1.336341      0.803213      1.012828
  C      -0.536448      1.464228     -0.916460
  H      -1.489486      1.158897     -1.419310
  H       0.148550      0.592259     -1.026914
  C       0.031990      2.687553     -1.625240
  H      -0.323772      3.665555     -1.238679
  C       0.895159      2.705241     -2.672041
  H       1.195991      3.696074     -3.067472
  C       1.447837      1.497058     -3.414584
  H       1.413321      0.588849     -2.769710
  H       2.524694      1.669796     -3.660462
  C       0.674269      1.192608     -4.740005
  H      -0.398519      1.023829     -4.486608
  H       1.045727      0.227396     -5.163099
  C       0.804901      2.299149     -5.818904
  H       1.887076      2.426654     -6.068568
  H       0.483634      3.278141     -5.391884
  C       0.022254      2.024012     -7.133473
  H       0.394970      1.074962     -7.591469
  H       0.272412      2.825605     -7.868621
  C      -1.525555      1.921802     -6.991089
  H      -1.788163      0.996856     -6.427681
  H      -1.960372      1.776857     -8.010719
  C      -2.224747      3.133318     -6.314070
  H      -1.868915      3.242791     -5.260458
  H      -3.317531      2.911267     -6.236161
  C      -2.044686      4.485080     -7.054284
  H      -2.379304      4.369802     -8.115154
  H      -0.961487      4.750847     -7.104601
  C      -2.819272      5.649033     -6.387951
  H      -2.671089      6.609156     -6.933980
  H      -2.484013      5.806169     -5.335442
  H      -3.915781      5.444833     -6.358343
  C       1.680462     -1.832897      2.137886
  H       1.314293     -0.908656      2.639056
  H       1.321919     -2.690277      2.757759
  C       1.070313     -1.931531      0.713331
  H       1.505755     -1.124199      0.074008
  H      -0.022606     -1.709698      0.774996
  C       1.266722     -3.302234      0.015449
  H       0.790220     -4.100614      0.636934
  H       2.352781     -3.559044     -0.025012
  C       0.683496     -3.347595     -1.419099
  H      -0.391699     -3.048660     -1.394712
  H       1.197663     -2.578324     -2.048482
  C       0.816629     -4.734329     -2.096818
  H       1.891585     -5.038814     -2.112484
  H       0.291253     -5.502041     -1.476240
  C       0.262009     -4.782013     -3.556797
  H       0.502768     -5.784145     -3.988190
  H       0.810102     -4.038754     -4.180278
  C      -1.241883     -4.565511     -3.639801
  H      -1.858046     -5.412138     -3.271385
  C      -1.889277     -3.454900     -4.073777
  H      -2.997792     -3.470724     -4.063473
  C      -1.246075     -2.185494     -4.614629
  H      -0.203795     -2.083378     -4.238521
  H      -1.800161     -1.297859     -4.220612
  C      -1.223935     -2.098822     -6.173509
  H      -0.694818     -2.994737     -6.579719
  H      -0.607416     -1.216502     -6.467932
  C      -2.619426     -1.976226     -6.834290
  H      -3.229038     -2.885856     -6.612735
  H      -3.170512     -1.119454     -6.371232
  C      -2.547710     -1.762550     -8.368104
  H      -1.920983     -0.861528     -8.572603
  H      -2.005572     -2.621787     -8.836446
  C      -3.934412     -1.603774     -9.040542
  H      -4.481191     -0.752177     -8.562917
  H      -4.546893     -2.513665     -8.826038
  C      -3.889914     -1.379115    -10.577581
  H      -3.306957     -2.205918    -11.055793
  H      -4.927452     -1.467361    -10.983946
  C      -3.299022     -0.013492    -11.019683
  H      -3.866684      0.808555    -10.516603
  H      -2.246242      0.083099    -10.659587
  C      -3.333395      0.197462    -12.553603
  H      -2.907662      1.185968    -12.842545
  H      -2.746423     -0.589148    -13.084062
  H      -4.376793      0.151724    -12.945499
138
Coordinates from ORCA-job /wrk/rja7/qm_final_3_replicates/qm_final_1.1/qm/10/freq E -2722.582900503046
  N       0.921819      0.266691     11.596798
  C       0.262900     -0.078366     10.210282
  H       1.060481      0.049240      9.460380
  H      -0.501445      0.714129     10.053516
  C       1.566726     -0.939605     12.302109
  H       0.788145     -1.695052     12.516371
  H       2.335378     -1.355083     11.616744
  H       2.012351     -0.563743     13.248218
  C      -0.135604      0.859292     12.511518
  H      -0.959075      0.124949     12.623711
  H       0.312577      1.073214     13.504048
  H      -0.525419      1.797841     12.065839
  C       2.025455      1.292649     11.319985
  H       2.794498      0.782132     10.706500
  H       2.440772      1.638605     12.290088
  H       1.597791      2.139744     10.746586
  C      -0.385302     -1.473383     10.060598
  H      -1.137843     -1.657824     10.870562
  H      -0.965359     -1.401209      9.102246
  P       1.949498     -2.583222      9.087645
  O       2.384534     -4.017892      8.923472
  O       2.874544     -1.463536      9.626613
  O       0.506450     -2.576977     10.046060
  O       1.198671     -1.972676      7.655660
  C       2.071152     -1.830328      6.520071
  H       1.456643     -1.984883      5.601065
  H       2.871939     -2.608785      6.520733
  C       2.726507     -0.424255      6.474573
  H       3.082837     -0.166164      7.495535
  O       1.682404      0.544976      6.048489
  C       1.309504      1.566566      6.870227
  O       1.785117      1.790761      7.982613
  C       0.236733      2.440628      6.203321
  H      -0.262551      3.007968      7.019497
  H      -0.526346      1.791669      5.716989
  C       3.922759     -0.283159      5.514723
  H       4.724208     -0.994734      5.814681
  H       4.318646      0.756481      5.556298
  O       3.546809     -0.504367      4.117930
  C       3.821593     -1.739797      3.555239
  O       4.415199     -2.639049      4.130339
  C       3.241731     -1.811295      2.138695
  H       3.593769     -0.925933      1.557773
  H       3.653311     -2.726346      1.662007
  C       0.828447      3.456046      5.166843
  H       1.701439      3.969855      5.636266
  H       0.060713      4.250872      5.005314
  C       1.238254      2.878630      3.781763
  H       1.969642      2.047228      3.904377
  H       1.777630      3.686504      3.228913
  C       0.039116      2.406683      2.918878
  H      -0.739951      3.210490      2.912343
  H      -0.449383      1.517729      3.388376
  C       0.404599      2.065680      1.450409
  H       1.131038      1.217806      1.425507
  H       0.938934      2.934359      0.994162
  C      -0.837292      1.711658      0.589971
  H      -1.585492      2.538454      0.679154
  H      -1.337348      0.806742      1.013163
  C      -0.536701      1.466677     -0.916291
  H      -1.489942      1.161995     -1.419133
  H       0.147593      0.594125     -1.026548
  C       0.032751      2.689424     -1.625242
  H      -0.322583      3.667754     -1.239109
  C       0.896331      2.706291     -2.671699
  H       1.197855      3.696842     -3.067312
  C       1.448688      1.497516     -3.413587
  H       1.413808      0.589654     -2.768242
  H       2.525625      1.669711     -3.659452
  C       0.675130      1.192586     -4.738938
  H      -0.397679      1.024060     -4.485508
  H       1.046606      0.227225     -5.161683
  C       0.805949      2.298681     -5.818271
  H       1.888120      2.425701     -6.068190
  H       0.485058      3.277937     -5.391593
  C       0.022909      2.023257     -7.132556
  H       0.395038      1.073770     -7.590123
  H       0.273303      2.824355     -7.868149
  C      -1.524916      1.921897     -6.989755
  H      -1.787965      0.997395     -6.425830
  H      -1.960031      1.776658     -8.009215
  C      -2.223357      3.134129     -6.313183
  H      -1.867137      3.243964     -5.259744
  H      -3.316222      2.912693     -6.234818
  C      -2.042815      4.485370     -7.054232
  H      -2.377985      4.369581     -8.114877
  H      -0.959497      4.750492     -7.105247
  C      -2.816421      5.650209     -6.388312
  H      -2.667954      6.609884     -6.935049
  H      -2.480596      5.807894     -5.336066
  H      -3.913028      5.446616     -6.358098
  C       1.680636     -1.831111      2.137357
  H       1.314156     -0.907046      2.638641
  H       1.322363     -2.688707      2.757077
  C       1.070589     -1.929916      0.712752
  H       1.505953     -1.122600      0.073369
  H      -0.022374     -1.708235      0.774317
  C       1.267271     -3.300706      0.015052
  H       0.790624     -4.099008      0.636508
  H       2.353374     -3.557399     -0.025002
  C       0.684503     -3.346262     -1.419673
  H      -0.390683     -3.047278     -1.395596
  H       1.198871     -2.577125     -2.049052
  C       0.817775     -4.733087     -2.097155
  H       1.892757     -5.037454     -2.112991
  H       0.292601     -5.500689     -1.476264
  C       0.262841     -4.781193     -3.556989
  H       0.503753     -5.783335     -3.988271
  H       0.810493     -4.037879     -4.180799
  C      -1.241156     -4.565212     -3.639712
  H      -1.856950     -5.412067     -3.271195
  C      -1.889014     -3.454774     -4.073441
  H      -2.997521     -3.470998     -4.062945
  C      -1.246327     -2.185082     -4.614266
  H      -0.204070     -2.082612     -4.238210
  H      -1.800771     -1.297712     -4.220195
  C      -1.224420     -2.098376     -6.173165
  H      -0.694944     -2.994038     -6.579455
  H      -0.608361     -1.215751     -6.467639
  C      -2.620092     -1.976527     -6.833682
  H      -3.229251     -2.886350     -6.611655
  H      -3.171420     -1.119869     -6.370721
  C      -2.548866     -1.763440     -8.367584
  H      -1.922600     -0.862214     -8.572630
  H      -2.006508     -2.622623     -8.835768
  C      -3.935871     -1.605644     -9.039681
  H      -4.482788     -0.753964     -8.562346
  H      -4.547911     -2.515647     -8.824439
  C      -3.891925     -1.381946    -10.576879
  H      -3.308785     -2.208866    -11.054670
  H      -4.929533     -1.470779    -10.982938
  C      -3.301605     -0.016426    -11.020074
  H      -3.869582      0.805799    -10.517641
  H      -2.248852      0.080811    -10.660078
  C      -3.336095      0.193291    -12.554151
  H      -2.910752      1.181736    -12.843879
  H      -2.748826     -0.593494    -13.084018
  H      -4.379496      0.146854    -12.945960
138
Coordinates from ORCA-job /wrk/rja7/qm_final_3_replicates/qm_final_1.1/qm/10/freq E -2722.582900599845
  N       0.921425      0.265786     11.596405
  C       0.262461     -0.079043     10.209838
  H       1.060048      0.048492      9.459943
  H      -0.501737      0.713617     10.053163
  C       1.565915     -0.940749     12.301733
  H       0.787127     -1.695962     12.516042
  H       2.334452     -1.356440     11.616357
  H       2.011708     -0.564994     13.247810
  C      -0.135858      0.858729     12.511066
  H      -0.959741      0.124797     12.622929
  H       0.312214      1.072250     13.503731
  H      -0.525069      1.797579     12.065494
  C       2.025431      1.291371     11.319666
  H       2.794377      0.780571     10.706301
  H       2.440721      1.637217     12.289823
  H       1.598143      2.138569     10.746152
  C      -0.385947     -1.473956     10.060084
  H      -1.138601     -1.658277     10.869962
  H      -0.965941     -1.401599      9.101694
  P       1.948698     -2.584077      9.087175
  O       2.383450     -4.018782      8.922765
  O       2.873917     -1.464662      9.626360
  O       0.505615     -2.577696     10.045537
  O       1.198108     -1.973158      7.655187
  C       2.070762     -1.830705      6.519751
  H       1.456310     -1.984870      5.600643
  H       2.871396     -2.609320      6.520265
  C       2.726382     -0.424740      6.474799
  H       3.082569     -0.167013      7.495898
  O       1.682459      0.544755      6.048908
  C       1.310041      1.566453      6.870716
  O       1.786105      1.790629      7.982917
  C       0.237269      2.440680      6.204057
  H      -0.261802      3.008054      7.020349
  H      -0.525996      1.791884      5.717805
  C       3.922878     -0.283393      5.515265
  H       4.724121     -0.995283      5.815027
  H       4.318962      0.756143      5.557475
  O       3.547217     -0.503736      4.118242
  C       3.821738     -1.738948      3.554926
  O       4.414927     -2.638711      4.129671
  C       3.242042     -1.809571      2.138282
  H       3.593967     -0.923783      1.557950
  H       3.653796     -2.724262      1.661058
  C       0.828943      3.456123      5.167605
  H       1.702035      3.969796      5.637001
  H       0.061290      4.251057      5.006240
  C       1.238543      2.878811      3.782426
  H       1.969884      2.047341      3.904848
  H       1.777935      3.686723      3.229636
  C       0.039264      2.407141      2.919604
  H      -0.739802      3.210957      2.913479
  H      -0.449159      1.518012      3.388847
  C       0.404364      2.066696      1.450909
  H       1.130521      1.218593      1.425423
  H       0.938856      2.935409      0.994917
  C      -0.837850      1.713429      0.590635
  H      -1.585340      2.540884      0.679738
  H      -1.338627      0.809052      1.014110
  C      -0.537517      1.467993     -0.915587
  H      -1.490929      1.163672     -1.418324
  H       0.146306      0.595034     -1.025653
  C       0.032556      2.690303     -1.624772
  H      -0.322561      3.668854     -1.238986
  C       0.896360      2.706622     -2.671043
  H       1.198352      3.696984     -3.066770
  C       1.448570      1.497475     -3.412412
  H       1.413231      0.589806     -2.766813
  H       2.525662      1.669242     -3.657919
  C       0.675359      1.192375     -4.737936
  H      -0.397556      1.024127     -4.484786
  H       1.046844      0.226904     -5.160392
  C       0.806711      2.298203     -5.817494
  H       1.888957      2.424742     -6.067332
  H       0.486161      3.277698     -5.391112
  C       0.023676      2.022777     -7.131799
  H       0.395429      1.073010     -7.589091
  H       0.274462      2.823575     -7.867579
  C      -1.524221      1.922098     -6.989089
  H      -1.787749      0.997809     -6.425033
  H      -1.959333      1.776883     -8.008559
  C      -2.222216      3.134713     -6.312735
  H      -1.866085      3.244471     -5.259255
  H      -3.315183      2.913735     -6.234483
  C      -2.041022      4.485813     -7.053886
  H      -2.376327      4.370097     -8.114502
  H      -0.957563      4.750356     -7.105020
  C      -2.813930      5.651133     -6.388021
  H      -2.664992      6.610675     -6.934863
  H      -2.477931      5.808727     -5.335820
  H      -3.910648      5.448135     -6.357734
  C       1.680957     -1.829649      2.136881
  H       1.314333     -0.905730      2.638326
  H       1.322784     -2.687423      2.756413
  C       1.070988     -1.928381      0.712230
  H       1.506437     -1.121076      0.072887
  H      -0.021974     -1.706674      0.773732
  C       1.267709     -3.299189      0.014530
  H       0.790857     -4.097442      0.635881
  H       2.353816     -3.555918     -0.025230
  C       0.685317     -3.344736     -1.420353
  H      -0.389890     -3.045809     -1.396518
  H       1.199815     -2.575575     -2.049598
  C       0.818863     -4.731570     -2.097764
  H       1.893914     -5.035684     -2.113650
  H       0.293901     -5.499226     -1.476757
  C       0.263796     -4.779989     -3.557532
  H       0.504909     -5.782093     -3.988777
  H       0.811129     -4.036569     -4.181506
  C      -1.240274     -4.564397     -3.640075
  H      -1.855793     -5.411406     -3.271446
  C      -1.888499     -3.454168     -4.073765
  H      -2.996999     -3.470705     -4.063075
  C      -1.246289     -2.184321     -4.614789
  H      -0.204013     -2.081505     -4.238888
  H      -1.800964     -1.297095     -4.220734
  C      -1.224713     -2.097824     -6.173720
  H      -0.695045     -2.993379     -6.579995
  H      -0.609049     -1.215028     -6.468460
  C      -2.620622     -1.976630     -6.833886
  H      -3.229388     -2.886576     -6.611296
  H      -3.172081     -1.119987     -6.371053
  C      -2.549969     -1.764192     -8.367888
  H      -1.924060     -0.862872     -8.573621
  H      -2.007511     -2.623428     -8.835859
  C      -3.937250     -1.607124     -9.039626
  H      -4.484180     -0.755265     -8.562628
  H      -4.548992     -2.517141     -8.823614
  C      -3.893757     -1.384376    -10.576967
  H      -3.310599     -2.211502    -11.054370
  H      -4.931450     -1.473587    -10.982739
  C      -3.303728     -0.019045    -11.021126
  H      -3.871906      0.803435    -10.519345
  H      -2.251015      0.078634    -10.661122
  C      -3.338144      0.189505    -12.555356
  H      -2.913045      1.177845    -12.845795
  H      -2.750614     -0.597514    -13.084587
  H      -4.381505      0.142471    -12.947206
138
Coordinates from ORCA-job /wrk/rja7/qm_final_3_replicates/qm_final_1.1/qm/10/freq E -2722.582900662977
  N       0.920714      0.264859     11.596115
  C       0.262024     -0.079921     10.209389
  H       1.059735      0.047641      9.459646
  H      -0.502150      0.712751     10.052649
  C       1.565032     -0.941729     12.301550
  H       0.786220     -1.696930     12.515795
  H       2.333642     -1.357433     11.616258
  H       2.010743     -0.565947     13.247657
  C      -0.136726      0.857804     12.510594
  H      -0.960774      0.123998     12.622084
  H       0.311126      1.071043     13.503418
  H      -0.525645      1.796814     12.065102
  C       2.024804      1.290425     11.319639
  H       2.793894      0.779639     10.706450
  H       2.439851      1.636293     12.289893
  H       1.597638      2.137604     10.746011
  C      -0.386348     -1.474847     10.059478
  H      -1.139156     -1.659218     10.869193
  H      -0.966184     -1.402396      9.100993
  P       1.948446     -2.584933      9.086901
  O       2.383166     -4.019626      8.922374
  O       2.873601     -1.465639      9.626421
  O       0.505195     -2.578602     10.045007
  O       1.198131     -1.973769      7.654837
  C       2.070978     -1.831122      6.519581
  H       1.456693     -1.985155      5.600340
  H       2.871644     -2.609709      6.520104
  C       2.726554     -0.425118      6.475027
  H       3.082532     -0.167559      7.496236
  O       1.682622      0.544364      6.049185
  C       1.310381      1.566175      6.870923
  O       1.786702      1.790484      7.982993
  C       0.237463      2.440288      6.204371
  H      -0.261721      3.007520      7.020696
  H      -0.525686      1.791436      5.718016
  C       3.923237     -0.283428      5.515774
  H       4.724389     -0.995499      5.815345
  H       4.319353      0.756069      5.558522
  O       3.547762     -0.503134      4.118603
  C       3.821956     -1.738246      3.554906
  O       4.414867     -2.638350      4.129410
  C       3.242328     -1.808264      2.138216
  H       3.594116     -0.922169      1.558275
  H       3.654185     -2.722707      1.660605
  C       0.829040      3.455960      5.168082
  H       1.702074      3.969625      5.637594
  H       0.061306      4.250843      5.006848
  C       1.238692      2.878944      3.782787
  H       1.969940      2.047364      3.905062
  H       1.778239      3.686934      3.230265
  C       0.039418      2.407610      2.919788
  H      -0.739591      3.211485      2.913912
  H      -0.449099      1.518350      3.388692
  C       0.404410      2.067604      1.450952
  H       1.130489      1.219447      1.425108
  H       0.938919      2.936414      0.995163
  C      -0.837940      1.714710      0.590719
  H      -1.585107      2.542462      0.679815
  H      -1.339033      0.810561      1.014301
  C      -0.537714      1.469114     -0.915486
  H      -1.491170      1.164827     -1.418160
  H       0.146003      0.596064     -1.025421
  C       0.032485      2.691256     -1.624831
  H      -0.322777      3.669869     -1.239326
  C       0.896524      2.707377     -2.670922
  H       1.198656      3.697663     -3.066726
  C       1.448953      1.498061     -3.411829
  H       1.413469      0.590568     -2.765998
  H       2.526140      1.669787     -3.656989
  C       0.676170      1.192543     -4.737505
  H      -0.396803      1.024284     -4.484612
  H       1.047885      0.227016     -5.159623
  C       0.807740      2.298112     -5.817317
  H       1.890007      2.424374     -6.067209
  H       0.487433      3.277797     -5.391188
  C       0.024599      2.022532     -7.131518
  H       0.396003      1.072491     -7.588524
  H       0.275627      2.822999     -7.867575
  C      -1.523339      1.922414     -6.988707
  H      -1.787146      0.998423     -6.424286
  H      -1.958561      1.776970     -8.008101
  C      -2.220911      3.135480     -6.312760
  H      -1.864701      3.245519     -5.259332
  H      -3.313936      2.914803     -6.234357
  C      -2.039408      4.486254     -7.054419
  H      -2.375040      4.370307     -8.114908
  H      -0.955849      4.750332     -7.105936
  C      -2.811660      5.652103     -6.388736
  H      -2.662492      6.611402     -6.935942
  H      -2.475292      5.809883     -5.336682
  H      -3.908455      5.449574     -6.358087
  C       1.681242     -1.828544      2.136865
  H       1.314544     -0.904723      2.638443
  H       1.323178     -2.686433      2.756305
  C       1.071251     -1.927245      0.712227
  H       1.506753     -1.119972      0.072882
  H      -0.021708     -1.705514      0.773725
  C       1.267996     -3.298080      0.014562
  H       0.791005     -4.096295      0.635853
  H       2.354101     -3.554847     -0.024994
  C       0.685869     -3.343645     -1.420426
  H      -0.389377     -3.044851     -1.396773
  H       1.200399     -2.574396     -2.049534
  C       0.819728     -4.730454     -2.097840
  H       1.894858     -5.034293     -2.113693
  H       0.294934     -5.498246     -1.476858
  C       0.264676     -4.778998     -3.557608
  H       0.506077     -5.780989     -3.988943
  H       0.811776     -4.035360     -4.181535
  C      -1.239449     -4.563779     -3.640094
  H      -1.854749     -5.410929     -3.271420
  C      -1.887978     -3.453736     -4.073780
  H      -2.996473     -3.470533     -4.062937
  C      -1.246181     -2.183728     -4.614911
  H      -0.203843     -2.080698     -4.239239
  H      -1.800968     -1.296648     -4.220691
  C      -1.225014     -2.097185     -6.173849
  H      -0.695184     -2.992575     -6.580276
  H      -0.609760     -1.214169     -6.468757
  C      -2.621198     -1.976550     -6.833595
  H      -3.229543     -2.886661     -6.610559
  H      -3.172788     -1.119988     -6.370766
  C      -2.551166     -1.764536     -8.367669
  H      -1.925642     -0.863081     -8.574014
  H      -2.008603     -2.623764     -8.835535
  C      -3.938750     -1.608140     -9.039003
  H      -4.485685     -0.756118     -8.562315
  H      -4.550181     -2.518182     -8.822206
  C      -3.895812     -1.386335    -10.576494
  H      -3.312765     -2.213712    -11.053589
  H      -4.933643     -1.475847    -10.981857
  C      -3.306050     -0.021222    -11.021676
  H      -3.874257      0.801519    -10.520369
  H      -2.253292      0.076807    -10.661901
  C      -3.340732      0.186250    -12.556045
  H      -2.915906      1.174485    -12.847241
  H      -2.753090     -0.600999    -13.084807
  H      -4.384134      0.138673    -12.947720
138
Coordinates from ORCA-job /wrk/rja7/qm_final_3_replicates/qm_final_1.1/qm/10/freq E -2722.582900696647
  N       0.920674      0.264625     11.595940
  C       0.262142     -0.080017     10.209108
  H       1.059976      0.047445      9.459488
  H      -0.501936      0.712733     10.052294
  C       1.564682     -0.942105     12.301444
  H       0.785720     -1.697172     12.515597
  H       2.333268     -1.357938     11.616198
  H       2.010359     -0.566390     13.247593
  C      -0.136786      0.857740     12.510289
  H      -0.961018      0.124112     12.621590
  H       0.310986      1.070762     13.503194
  H      -0.525425      1.796877     12.064822
  C       2.024986      1.289996     11.319672
  H       2.794071      0.779127     10.706552
  H       2.439963      1.635784     12.289982
  H       1.598021      2.137267     10.746025
  C      -0.386419     -1.474853     10.059077
  H      -1.139343     -1.659141     10.868699
  H      -0.966126     -1.402276      9.100524
  P       1.948331     -2.585274      9.086818
  O       2.382971     -4.020011      8.922398
  O       2.873496     -1.466053      9.626468
  O       0.504939     -2.578760     10.044692
  O       1.198276     -1.974070      7.654626
  C       2.071263     -1.831483      6.519464
  H       1.457077     -1.985424      5.600144
  H       2.871852     -2.610146      6.520064
  C       2.726974     -0.425527      6.475076
  H       3.082917     -0.168124      7.496335
  O       1.683107      0.544048      6.049357
  C       1.311112      1.565956      6.871080
  O       1.787713      1.790323      7.983021
  C       0.238073      2.440052      6.204709
  H      -0.261011      3.007286      7.021092
  H      -0.525118      1.791169      5.718463
  C       3.923725     -0.283760      5.515907
  H       4.724778     -0.996015      5.815301
  H       4.319950      0.755680      5.558975
  O       3.548285     -0.503004      4.118655
  C       3.822084     -1.738068      3.554684
  O       4.414664     -2.638507      4.129003
  C       3.242403     -1.807588      2.137998
  H       3.594110     -0.921298      1.558317
  H       3.654201     -2.721892      1.660069
  C       0.829500      3.455738      5.168337
  H       1.702625      3.969371      5.637711
  H       0.061733      4.250618      5.007243
  C       1.238889      2.878745      3.782946
  H       1.970092      2.047097      3.905084
  H       1.778426      3.686708      3.230384
  C       0.039416      2.407501      2.920170
  H      -0.739617      3.211355      2.914635
  H      -0.448965      1.518154      3.389049
  C       0.403993      2.067709      1.451175
  H       1.130097      1.219593      1.424960
  H       0.938301      2.936611      0.995323
  C      -0.838630      1.714914      0.591291
  H      -1.585725      2.542705      0.680635
  H      -1.339637      0.810772      1.014991
  C      -0.538851      1.469350     -0.915006
  H      -1.492458      1.165026     -1.417385
  H       0.144883      0.596347     -1.025125
  C       0.031071      2.691526     -1.624494
  H      -0.324636      3.670076     -1.239230
  C       0.895344      2.707771     -2.670402
  H       1.197211      3.698098     -3.066301
  C       1.448393      1.498541     -3.410960
  H       1.412905      0.591112     -2.765047
  H       2.525650      1.670547     -3.655652
  C       0.676245      1.192673     -4.736908
  H      -0.396804      1.024267     -4.484435
  H       1.048285      0.227126     -5.158694
  C       0.808080      2.298075     -5.816867
  H       1.890395      2.424214     -6.066610
  H       0.487824      3.277864     -5.390934
  C       0.025085      2.022409     -7.131128
  H       0.396400      1.072249     -7.587961
  H       0.276323      2.822726     -7.867281
  C      -1.522894      1.922553     -6.988500
  H      -1.786870      0.998671     -6.423977
  H      -1.958031      1.777045     -8.007917
  C      -2.220367      3.135788     -6.312770
  H      -1.864265      3.245913     -5.259312
  H      -3.313423      2.915207     -6.234455
  C      -2.038665      4.486462     -7.054551
  H      -2.374296      4.370503     -8.115041
  H      -0.955057      4.750347     -7.106062
  C      -2.810746      5.652464     -6.388945
  H      -2.661451      6.611703     -6.936221
  H      -2.474337      5.810240     -5.336905
  H      -3.907571      5.450106     -6.358262
  C       1.681305     -1.827871      2.136778
  H       1.314667     -0.904061      2.638426
  H       1.323279     -2.685771      2.756226
  C       1.071205     -1.926525      0.712188
  H       1.506787     -1.119329      0.072797
  H      -0.021721     -1.704665      0.773734
  C       1.267781     -3.297409      0.014587
  H       0.790634     -4.095532      0.635880
  H       2.353847     -3.554348     -0.024885
  C       0.685760     -3.342967     -1.420440
  H      -0.389491     -3.044183     -1.396892
  H       1.200343     -2.573702     -2.049485
  C       0.819697     -4.729783     -2.097826
  H       1.894856     -5.033527     -2.113624
  H       0.294939     -5.497630     -1.476884
  C       0.264715     -4.778348     -3.557620
  H       0.506226     -5.780301     -3.988981
  H       0.811804     -4.034641     -4.181475
  C      -1.239412     -4.563187     -3.640137
  H      -1.854697     -5.410335     -3.271434
  C      -1.887970     -3.453187     -4.073886
  H      -2.996464     -3.469998     -4.062999
  C      -1.246231     -2.183187     -4.615104
  H      -0.203893     -2.080087     -4.239453
  H      -1.801033     -1.296097     -4.220916
  C      -1.225082     -2.096739     -6.174045
  H      -0.695175     -2.992107     -6.580420
  H      -0.609947     -1.213671     -6.469044
  C      -2.621320     -1.976361     -6.833772
  H      -3.229510     -2.886517     -6.610524
  H      -3.172997     -1.119778     -6.371083
  C      -2.551395     -1.764663     -8.367890
  H      -1.926026     -0.863171     -8.574544
  H      -2.008739     -2.623940     -8.835561
  C      -3.939034     -1.608613     -9.039224
  H      -4.486023     -0.756455     -8.562847
  H      -4.550358     -2.518633     -8.822029
  C      -3.896161     -1.387408    -10.576805
  H      -3.313140     -2.214965    -11.053612
  H      -4.934013     -1.477075    -10.982085
  C      -3.306430     -0.022455    -11.022523
  H      -3.874709      0.800462    -10.521593
  H      -2.253700      0.075764    -10.662725
  C      -3.341036      0.184365    -12.556984
  H      -2.916308      1.172522    -12.848583
  H      -2.753265     -0.603048    -13.085362
  H      -4.384402      0.136481    -12.948718
138
Coordinates from ORCA-job /wrk/rja7/qm_final_3_replicates/qm_final_1.1/qm/10/freq E -2722.582900715361
  N       0.920336      0.264329     11.595798
  C       0.262003     -0.080334     10.208886
  H       1.059949      0.047109      9.459384
  H      -0.502080      0.712387     10.051957
  C       1.564312     -0.942381     12.301373
  H       0.785327     -1.697452     12.515435
  H       2.332947     -1.358213     11.616183
  H       2.009878     -0.566653     13.247566
  C      -0.137266      0.857394     12.510019
  H      -0.961468      0.123722     12.621245
  H       0.310406      1.070427     13.502967
  H      -0.525918      1.796502     12.064504
  C       2.024629      1.289755     11.319686
  H       2.793819      0.778949     10.706647
  H       2.439473      1.635574     12.290040
  H       1.597677      2.137012     10.746004
  C      -0.386537     -1.475176     10.058768
  H      -1.139506     -1.659487     10.868345
  H      -0.966162     -1.402601      9.100170
  P       1.948350     -2.585579      9.086784
  O       2.383070     -4.020312      8.922456
  O       2.873407     -1.466323      9.626554
  O       0.504833     -2.579073     10.044450
  O       1.198460     -1.974396      7.654496
  C       2.071585     -1.831723      6.519439
  H       1.457538     -1.985691      5.600032
  H       2.872227     -2.610331      6.520135
  C       2.727204     -0.425719      6.475196
  H       3.083041     -0.168397      7.496513
  O       1.683289      0.543795      6.049485
  C       1.311253      1.565716      6.871175
  O       1.787891      1.790166      7.983084
  C       0.238097      2.439683      6.204830
  H      -0.261110      3.006796      7.021218
  H      -0.524957      1.790694      5.718511
  C       3.924022     -0.283766      5.516135
  H       4.725072     -0.996053      5.815454
  H       4.320204      0.755680      5.559428
  O       3.548685     -0.502739      4.118818
  C       3.822271     -1.737782      3.554717
  O       4.414641     -2.638407      4.128959
  C       3.242601     -1.807025      2.138016
  H       3.594169     -0.920565      1.558521
  H       3.654451     -2.721194      1.659871
  C       0.829433      3.455521      5.168536
  H       1.702505      3.969200      5.637950
  H       0.061569      4.250318      5.007500
  C       1.238877      2.878671      3.783092
  H       1.969988      2.046932      3.905190
  H       1.778548      3.686644      3.230680
  C       0.039401      2.407637      2.920206
  H      -0.739513      3.211606      2.914672
  H      -0.449153      1.518349      3.389020
  C       0.403996      2.067831      1.451219
  H       1.130108      1.219729      1.425006
  H       0.938279      2.936741      0.995347
  C      -0.838647      1.715030      0.591355
  H      -1.585790      2.542766      0.680767
  H      -1.339571      0.810822      1.015020
  C      -0.538930      1.469518     -0.914966
  H      -1.492555      1.165150     -1.417283
  H       0.144867      0.596581     -1.025151
  C       0.030847      2.691755     -1.624456
  H      -0.325111      3.670251     -1.239286
  C       0.895284      2.708110     -2.670231
  H       1.196981      3.698475     -3.066164
  C       1.448688      1.498952     -3.410645
  H       1.413280      0.591554     -2.764686
  H       2.525949      1.671169     -3.655174
  C       0.676787      1.192861     -4.736667
  H      -0.396284      1.024386     -4.484332
  H       1.048942      0.227273     -5.158265
  C       0.808672      2.298125     -5.816759
  H       1.890986      2.424130     -6.066572
  H       0.488542      3.277992     -5.390914
  C       0.025561      2.022384     -7.130927
  H       0.396701      1.072103     -7.587650
  H       0.276869      2.822558     -7.867215
  C      -1.522422      1.922785     -6.988178
  H      -1.786458      0.999044     -6.423450
  H      -1.957654      1.777139     -8.007535
  C      -2.219660      3.136251     -6.312620
  H      -1.863455      3.246525     -5.259213
  H      -3.312741      2.915843     -6.234169
  C      -2.037809      4.486764     -7.054652
  H      -2.373655      4.370737     -8.115063
  H      -0.954153      4.750396     -7.106389
  C      -2.809531      5.653012     -6.389055
  H      -2.660150      6.612148     -6.936489
  H      -2.472883      5.810849     -5.337100
  H      -3.906392      5.450890     -6.358116
  C       1.681490     -1.827462      2.136857
  H       1.314788     -0.903724      2.638600
  H       1.323571     -2.685437      2.756262
  C       1.071352     -1.926046      0.712278
  H       1.506898     -1.118804      0.072922
  H      -0.021577     -1.704222      0.773859
  C       1.267957     -3.296884      0.014610
  H       0.790844     -4.095054      0.635873
  H       2.354024     -3.553810     -0.024896
  C       0.685910     -3.342402     -1.420405
  H      -0.389371     -3.043724     -1.396836
  H       1.200404     -2.573044     -2.049407
  C       0.819959     -4.729163     -2.097885
  H       1.895155     -5.032777     -2.113736
  H       0.295311     -5.497126     -1.476997
  C       0.264945     -4.777650     -3.557673
  H       0.506587     -5.779530     -3.989135
  H       0.811936     -4.033806     -4.181446
  C      -1.239206     -4.562660     -3.640101
  H      -1.854381     -5.409832     -3.271273
  C      -1.887908     -3.452758     -4.073891
  H      -2.996399     -3.469669     -4.062902
  C      -1.246337     -2.182744     -4.615278
  H      -0.203962     -2.079536     -4.239756
  H      -1.801151     -1.295670     -4.221063
  C      -1.225378     -2.096369     -6.174219
  H      -0.695378     -2.991675     -6.580609
  H      -0.610426     -1.213218     -6.469355
  C      -2.621726     -1.976266     -6.833788
  H      -3.229744     -2.886470     -6.610271
  H      -3.173444     -1.119662     -6.371187
  C      -2.552050     -1.764854     -8.367953
  H      -1.926876     -0.863296     -8.574916
  H      -2.009334     -2.624146     -8.835528
  C      -3.939813     -1.609151     -9.039129
  H      -4.486811     -0.756882     -8.562963
  H      -4.551016     -2.519156     -8.821530
  C      -3.897171     -1.388446    -10.576790
  H      -3.314180     -2.216130    -11.053415
  H      -4.935072     -1.478285    -10.981902
  C      -3.307538     -0.023607    -11.022996
  H      -3.875903      0.799433    -10.522367
  H      -2.254824      0.074830    -10.663209
  C      -3.342138      0.182663    -12.557533
  H      -2.917558      1.170781    -12.849479
  H      -2.754230     -0.604852    -13.085608
  H      -4.385484      0.134468    -12.949280
138
Coordinates from ORCA-job /wrk/rja7/qm_final_3_replicates/qm_final_1.1/qm/10/freq E -2722.582900725669
  N       0.920298      0.264327     11.595705
  C       0.262063     -0.080277     10.208743
  H       1.060091      0.047112      9.459316
  H      -0.501966      0.712483     10.051746
  C       1.564185     -0.942419     12.301296
  H       0.785141     -1.697465     12.515247
  H       2.332852     -1.358258     11.616149
  H       2.009665     -0.566745     13.247548
  C      -0.137364      0.857408     12.509849
  H      -0.961562      0.123730     12.621056
  H       0.310250      1.070476     13.502816
  H      -0.526001      1.796494     12.064275
  C       2.024640      1.289724     11.319710
  H       2.793854      0.778922     10.706698
  H       2.439440      1.635490     12.290101
  H       1.597764      2.137032     10.746042
  C      -0.386586     -1.475064     10.058551
  H      -1.139613     -1.659310     10.868091
  H      -0.966131     -1.402452      9.099912
  P       1.948287     -2.585685      9.086779
  O       2.382953     -4.020453      8.922565
  O       2.873365     -1.466455      9.626585
  O       0.504690     -2.579039     10.044301
  O       1.198558     -1.974515      7.654414
  C       2.071792     -1.831895      6.519425
  H       1.457817     -1.985856      5.599969
  H       2.872399     -2.610536      6.520212
  C       2.727464     -0.425916      6.475229
  H       3.083272     -0.168656      7.496574
  O       1.683594      0.543635      6.049509
  C       1.311596      1.565592      6.871175
  O       1.788283      1.790092      7.983052
  C       0.238401      2.439523      6.204844
  H      -0.260775      3.006656      7.021236
  H      -0.524659      1.790500      5.718579
  C       3.924327     -0.283965      5.516222
  H       4.725324     -0.996322      5.815516
  H       4.320565      0.755456      5.559621
  O       3.549049     -0.502763      4.118865
  C       3.822373     -1.737829      3.554711
  O       4.414496     -2.638632      4.128930
  C       3.242698     -1.806878      2.138006
  H       3.594213     -0.920334      1.558614
  H       3.654517     -2.720987      1.659721
  C       0.829675      3.455331      5.168479
  H       1.702795      3.969009      5.637799
  H       0.061804      4.250129      5.007481
  C       1.238992      2.878423      3.783017
  H       1.970100      2.046677      3.905089
  H       1.778626      3.686368      3.230530
  C       0.039413      2.407381      2.920270
  H      -0.739525      3.211325      2.914878
  H      -0.449043      1.518071      3.389143
  C       0.403807      2.067632      1.451224
  H       1.130000      1.219607      1.424873
  H       0.937917      2.936612      0.995280
  C      -0.838951      1.714731      0.591566
  H      -1.586220      2.542324      0.681213
  H      -1.339638      0.810380      1.015214
  C      -0.539521      1.469398     -0.914852
  H      -1.493243      1.165007     -1.416972
  H       0.144345      0.596556     -1.025306
  C       0.029945      2.691784     -1.624332
  H      -0.326412      3.670173     -1.239255
  C       0.894533      2.708403     -2.669977
  H       1.195885      3.698865     -3.065932
  C       1.448505      1.499437     -3.410297
  H       1.413276      0.592023     -2.764352
  H       2.525750      1.672032     -3.654625
  C       0.676943      1.193107     -4.736458
  H      -0.396150      1.024459     -4.484333
  H       1.049327      0.227531     -5.157893
  C       0.808857      2.298296     -5.816620
  H       1.891179      2.424280     -6.066403
  H       0.488715      3.278183     -5.390832
  C       0.025769      2.022490     -7.130787
  H       0.396891      1.072169     -7.587443
  H       0.277122      2.822614     -7.867114
  C      -1.522222      1.922963     -6.988074
  H      -1.786295      0.999259     -6.423303
  H      -1.957432      1.777278     -8.007432
  C      -2.219432      3.136495     -6.312590
  H      -1.863233      3.246804     -5.259186
  H      -3.312522      2.916142     -6.234142
  C      -2.037504      4.486969     -7.054677
  H      -2.373362      4.370935     -8.115084
  H      -0.953834      4.750533     -7.106422
  C      -2.809167      5.653276     -6.389108
  H      -2.659759      6.612383     -6.936583
  H      -2.472495      5.811144     -5.337165
  H      -3.906034      5.451192     -6.358131
  C       1.681577     -1.827335      2.136916
  H       1.314886     -0.903603      2.638683
  H       1.323696     -2.685316      2.756331
  C       1.071394     -1.925902      0.712354
  H       1.506939     -1.118677      0.072979
  H      -0.021525     -1.704035      0.773961
  C       1.267921     -3.296746      0.014692
  H       0.790774     -4.094892      0.635959
  H       2.353971     -3.553744     -0.024835
  C       0.685855     -3.342228     -1.420313
  H      -0.389413     -3.043493     -1.396740
  H       1.200372     -2.572892     -2.049325
  C       0.819814     -4.728983     -2.097816
  H       1.894990     -5.032669     -2.113677
  H       0.295118     -5.496929     -1.476949
  C       0.264807     -4.777374     -3.557613
  H       0.506393     -5.779261     -3.989093
  H       0.811862     -4.033549     -4.181347
  C      -1.239325     -4.562287     -3.640034
  H      -1.854553     -5.409390     -3.271137
  C      -1.887959     -3.452355     -4.073863
  H      -2.996450     -3.469195     -4.062864
  C      -1.246310     -2.182403     -4.615310
  H      -0.203928     -2.079227     -4.239796
  H      -1.801071     -1.295279     -4.221132
  C      -1.225348     -2.096099     -6.174252
  H      -0.695314     -2.991406     -6.580596
  H      -0.610419     -1.212945     -6.469441
  C      -2.621699     -1.976096     -6.833837
  H      -3.229678     -2.886299     -6.610211
  H      -3.173438     -1.119460     -6.371330
  C      -2.552046     -1.764859     -8.368028
  H      -1.926974     -0.863257     -8.575103
  H      -2.009262     -2.624154     -8.835517
  C      -3.939839     -1.609383     -9.039201
  H      -4.486893     -0.757073     -8.563173
  H      -4.550966     -2.519396     -8.821425
  C      -3.897261     -1.388951    -10.576906
  H      -3.314219     -2.216677    -11.053400
  H      -4.935165     -1.478944    -10.981973
  C      -3.307741     -0.024149    -11.023380
  H      -3.876213      0.798933    -10.522938
  H      -2.255052      0.074470    -10.663575
  C      -3.342316      0.181807    -12.557959
  H      -2.917845      1.169915    -12.850092
  H      -2.754299     -0.605750    -13.085850
  H      -4.385645      0.133416    -12.949726
138
Coordinates from ORCA-job /wrk/rja7/qm_final_3_replicates/qm_final_1.1/qm/10/freq E -2722.582900731072
  N       0.920188      0.264355     11.595726
  C       0.261990     -0.080266     10.208760
  H       1.060050      0.047087      9.459357
  H      -0.502019      0.712504     10.051714
  C       1.564091     -0.942372     12.301335
  H       0.785047     -1.697425     12.515266
  H       2.332775     -1.358206     11.616202
  H       2.009537     -0.566692     13.247600
  C      -0.137504      0.857426     12.509845
  H      -0.961658      0.123705     12.621100
  H       0.310095      1.070586     13.502799
  H      -0.526193      1.796459     12.064208
  C       2.024513      1.289773     11.319738
  H       2.793750      0.778973     10.706751
  H       2.439287      1.635546     12.290138
  H       1.597647      2.137075     10.746055
  C      -0.386681     -1.475041     10.058573
  H      -1.139712     -1.659257     10.868116
  H      -0.966212     -1.402443      9.099925
  P       1.948199     -2.585700      9.086863
  O       2.382859     -4.020477      8.922703
  O       2.873286     -1.466468      9.626662
  O       0.504585     -2.579022     10.044342
  O       1.198530     -1.974553      7.654468
  C       2.071824     -1.831968      6.519515
  H       1.457887     -1.985951      5.600038
  H       2.872423     -2.610615      6.520364
  C       2.727507     -0.425996      6.475327
  H       3.083304     -0.168757      7.496682
  O       1.683655      0.543569      6.049593
  C       1.311663      1.565539      6.871246
  O       1.788360      1.790072      7.983110
  C       0.238446      2.439438      6.204906
  H      -0.260738      3.006566      7.021297
  H      -0.524600      1.790396      5.718646
  C       3.924392     -0.284041      5.516346
  H       4.725359     -0.996434      5.815638
  H       4.320660      0.755366      5.559789
  O       3.549155     -0.502751      4.118964
  C       3.822347     -1.737836      3.554793
  O       4.414318     -2.638735      4.129021
  C       3.242717     -1.806788      2.138068
  H       3.594149     -0.920154      1.558767
  H       3.654610     -2.720815      1.659690
  C       0.829693      3.455246      5.168526
  H       1.702808      3.968948      5.637831
  H       0.061807      4.250027      5.007523
  C       1.239021      2.878318      3.783073
  H       1.970142      2.046588      3.905166
  H       1.778642      3.686264      3.230571
  C       0.039446      2.407263      2.920326
  H      -0.739479      3.211219      2.914907
  H      -0.449023      1.517977      3.389234
  C       0.403848      2.067478      1.451296
  H       1.130095      1.219499      1.424977
  H       0.937900      2.936476      0.995317
  C      -0.838893      1.714452      0.591669
  H      -1.586286      2.541923      0.681393
  H      -1.339433      0.809996      1.015270
  C      -0.539506      1.469230     -0.914784
  H      -1.493232      1.164783     -1.416860
  H       0.144443      0.596468     -1.025350
  C       0.029780      2.691716     -1.624233
  H      -0.326746      3.670042     -1.239153
  C       0.894393      2.708490     -2.669849
  H       1.195577      3.699010     -3.065791
  C       1.448600      1.499632     -3.410188
  H       1.413478      0.592189     -2.764279
  H       2.525825      1.672410     -3.654466
  C       0.677140      1.193233     -4.736395
  H      -0.395964      1.024562     -4.484335
  H       1.049565      0.227649     -5.157775
  C       0.809082      2.298383     -5.816588
  H       1.891406      2.424308     -6.066391
  H       0.488978      3.278291     -5.390822
  C       0.025962      2.022560     -7.130734
  H       0.397029      1.072198     -7.587347
  H       0.277347      2.822643     -7.867093
  C      -1.522032      1.923116     -6.987990
  H      -1.786147      0.999453     -6.423173
  H      -1.957262      1.777402     -8.007337
  C      -2.219159      3.136722     -6.312550
  H      -1.862911      3.247065     -5.259166
  H      -3.312260      2.916457     -6.234050
  C      -2.037158      4.487145     -7.054717
  H      -2.373081      4.371079     -8.115099
  H      -0.953474      4.750628     -7.106535
  C      -2.808702      5.653549     -6.389175
  H      -2.659249      6.612616     -6.936710
  H      -2.471972      5.811461     -5.337257
  H      -3.905582      5.451543     -6.358134
  C       1.681593     -1.827391      2.136967
  H       1.314807     -0.903732      2.638801
  H       1.323791     -2.685457      2.756307
  C       1.071445     -1.925900      0.712382
  H       1.506901     -1.118566      0.073084
  H      -0.021499     -1.704158      0.773991
  C       1.268121     -3.296657      0.014594
  H       0.791093     -4.094918      0.635803
  H       2.354201     -3.553524     -0.024997
  C       0.686012     -3.342079     -1.420395
  H      -0.389280     -3.043435     -1.396763
  H       1.200439     -2.572659     -2.049379
  C       0.820055     -4.728767     -2.098018
  H       1.895247     -5.032389     -2.113951
  H       0.295432     -5.496794     -1.477189
  C       0.264999     -4.777073     -3.557802
  H       0.506629     -5.778918     -3.989357
  H       0.811988     -4.033171     -4.181501
  C      -1.239147     -4.562081     -3.640149
  H      -1.854301     -5.409210     -3.271185
  C      -1.887873     -3.452197     -4.073968
  H      -2.996363     -3.469108     -4.062920
  C      -1.246319     -2.182222     -4.615471
  H      -0.203924     -2.078984     -4.240010
  H      -1.801111     -1.295124     -4.221278
  C      -1.225449     -2.095939     -6.174415
  H      -0.695364     -2.991209     -6.580773
  H      -0.610600     -1.212745     -6.469654
  C      -2.621844     -1.976053     -6.833921
  H      -3.229765     -2.886266     -6.610175
  H      -3.173589     -1.119404     -6.371443
  C      -2.552309     -1.764937     -8.368133
  H      -1.927318     -0.863302     -8.575311
  H      -2.009505     -2.624225     -8.835609
  C      -3.940163     -1.609604     -9.039211
  H      -4.487218     -0.757271     -8.563220
  H      -4.551237     -2.519620     -8.821305
  C      -3.897705     -1.389306    -10.576939
  H      -3.314617     -2.217027    -11.053388
  H      -4.935622     -1.479416    -10.981946
  C      -3.308302     -0.024500    -11.023557
  H      -3.876881      0.798585    -10.523237
  H      -2.255639      0.074268    -10.663715
  C      -3.342835      0.181272    -12.558161
  H      -2.918463      1.169395    -12.850388
  H      -2.754709     -0.606280    -13.085936
  H      -4.386145      0.132722    -12.949959
138
Coordinates from ORCA-job /wrk/rja7/qm_final_3_replicates/qm_final_1.1/qm/10/freq E -2722.582900733912
  N       0.920193      0.264444     11.595762
  C       0.261995     -0.080165     10.208797
  H       1.060066      0.047153      9.459399
  H      -0.501977      0.712640     10.051739
  C       1.564112     -0.942281     12.301357
  H       0.785079     -1.697350     12.515275
  H       2.332808     -1.358095     11.616222
  H       2.009547     -0.566612     13.247631
  C      -0.137501      0.857496     12.509892
  H      -0.961629      0.123752     12.621172
  H       0.310100      1.070697     13.502837
  H      -0.526221      1.796511     12.064243
  C       2.024507      1.289877     11.319773
  H       2.793741      0.779088     10.706773
  H       2.439291      1.635627     12.290177
  H       1.597639      2.137188     10.746108
  C      -0.386721     -1.474920     10.058620
  H      -1.139774     -1.659096     10.868151
  H      -0.966233     -1.402322      9.099959
  P       1.948121     -2.585681      9.086944
  O       2.382743     -4.020475      8.922856
  O       2.873247     -1.466451      9.626693
  O       0.504511     -2.578932     10.044418
  O       1.198484     -1.974570      7.654528
  C       2.071804     -1.832032      6.519588
  H       1.457878     -1.986048      5.600109
  H       2.872398     -2.610683      6.520479
  C       2.727493     -0.426067      6.475374
  H       3.083278     -0.168807      7.496728
  O       1.683649      0.543492      6.049602
  C       1.311667      1.565487      6.871230
  O       1.788386      1.790063      7.983075
  C       0.238443      2.439367      6.204873
  H      -0.260729      3.006512      7.021260
  H      -0.524612      1.790321      5.718634
  C       3.924401     -0.284130      5.516418
  H       4.725347     -0.996537      5.815733
  H       4.320688      0.755268      5.559871
  O       3.549205     -0.502820      4.119022
  C       3.822318     -1.737930      3.554869
  O       4.414196     -2.638874      4.129124
  C       3.242733     -1.806850      2.138126
  H       3.594139     -0.920180      1.558866
  H       3.654667     -2.720843      1.659720
  C       0.829676      3.455150      5.168466
  H       1.702797      3.968861      5.637749
  H       0.061796      4.249937      5.007455
  C       1.238989      2.878183      3.783027
  H       1.970143      2.046485      3.905134
  H       1.778566      3.686130      3.230482
  C       0.039412      2.407070      2.920313
  H      -0.739543      3.210998      2.914902
  H      -0.449008      1.517771      3.389247
  C       0.403796      2.067300      1.451278
  H       1.130103      1.219370      1.424951
  H       0.937782      2.936332      0.995286
  C      -0.838935      1.714171      0.591685
  H      -1.586433      2.541540      0.681496
  H      -1.339350      0.809626      1.015244
  C      -0.539598      1.469085     -0.914803
  H      -1.493333      1.164618     -1.416851
  H       0.144403      0.596378     -1.025485
  C       0.029556      2.691665     -1.624193
  H      -0.327130      3.669933     -1.239113
  C       0.894212      2.708591     -2.669770
  H       1.195272      3.699167     -3.065670
  C       1.448642      1.499836     -3.410120
  H       1.413638      0.592370     -2.764238
  H       2.525846      1.672795     -3.654358
  C       0.677276      1.193357     -4.736372
  H      -0.395832      1.024618     -4.484369
  H       1.049791      0.227795     -5.157723
  C       0.809203      2.298507     -5.816567
  H       1.891524      2.424439     -6.066372
  H       0.489082      3.278409     -5.390801
  C       0.026086      2.022672     -7.130717
  H       0.397150      1.072298     -7.587309
  H       0.277485      2.822746     -7.867079
  C      -1.521912      1.923245     -6.987985
  H      -1.786054      0.999586     -6.423172
  H      -1.957130      1.777532     -8.007337
  C      -2.219031      3.136860     -6.312553
  H      -1.862796      3.247188     -5.259165
  H      -3.312140      2.916628     -6.234072
  C      -2.036991      4.487283     -7.054717
  H      -2.372910      4.371220     -8.115102
  H      -0.953303      4.750752     -7.106530
  C      -2.808515      5.653711     -6.389191
  H      -2.659029      6.612771     -6.936728
  H      -2.471800      5.811628     -5.337269
  H      -3.905400      5.451727     -6.358170
  C       1.681611     -1.827520      2.137008
  H       1.314781     -0.903897      2.638876
  H       1.323841     -2.685632      2.756302
  C       1.071486     -1.925997      0.712412
  H       1.506903     -1.118612      0.073153
  H      -0.021470     -1.704307      0.774021
  C       1.268223     -3.296713      0.014556
  H       0.791243     -4.095028      0.635731
  H       2.354315     -3.553520     -0.025070
  C       0.686092     -3.342084     -1.420427
  H      -0.389201     -3.043448     -1.396763
  H       1.200502     -2.572642     -2.049397
  C       0.820131     -4.728743     -2.098109
  H       1.895317     -5.032384     -2.114065
  H       0.295501     -5.496785     -1.477304
  C       0.265064     -4.776988     -3.557890
  H       0.506656     -5.778831     -3.989474
  H       0.812066     -4.033088     -4.181579
  C      -1.239077     -4.561956     -3.640221
  H      -1.854242     -5.409071     -3.271244
  C      -1.887787     -3.452060     -4.074036
  H      -2.996276     -3.468956     -4.062978
  C      -1.246220     -2.182092     -4.615544
  H      -0.203813     -2.078879     -4.240110
  H      -1.800991     -1.294991     -4.221331
  C      -1.225400     -2.095806     -6.174490
  H      -0.695303     -2.991064     -6.580861
  H      -0.610580     -1.212599     -6.469749
  C      -2.621821     -1.975969     -6.833945
  H      -3.229718     -2.886182     -6.610135
  H      -3.173561     -1.119314     -6.371474
  C      -2.552364     -1.764917     -8.368169
  H      -1.927419     -0.863261     -8.575404
  H      -2.009544     -2.624197     -8.835641
  C      -3.940259     -1.609678     -9.039185
  H      -4.487320     -0.757340     -8.563207
  H      -4.551289     -2.519704     -8.821201
  C      -3.897886     -1.389461    -10.576927
  H      -3.314763     -2.217172    -11.053351
  H      -4.935813     -1.479659    -10.981890
  C      -3.308589     -0.024645    -11.023650
  H      -3.877229      0.798435    -10.523393
  H      -2.255934      0.074224    -10.663812
  C      -3.343141      0.181007    -12.558268
  H      -2.918843      1.169141    -12.850569
  H      -2.754960     -0.606540    -13.085989
  H      -4.386452      0.132354    -12.950053
138
Coordinates from ORCA-job /wrk/rja7/qm_final_3_replicates/qm_final_1.1/qm/10/freq E -2722.582900735648
  N       0.920223      0.264560     11.595829
  C       0.262004     -0.080055     10.208876
  H       1.060071      0.047227      9.459469
  H      -0.501941      0.712777     10.051812
  C       1.564147     -0.942164     12.301423
  H       0.785122     -1.697233     12.515368
  H       2.332835     -1.357986     11.616282
  H       2.009601     -0.566486     13.247686
  C      -0.137446      0.857626     12.509977
  H      -0.961571      0.123882     12.621289
  H       0.310179      1.070845     13.502907
  H      -0.526174      1.796636     12.064325
  C       2.024542      1.289982     11.319808
  H       2.793759      0.779179     10.706798
  H       2.439349      1.635731     12.290203
  H       1.597670      2.137291     10.746143
  C      -0.386749     -1.474795     10.058734
  H      -1.139810     -1.658937     10.868263
  H      -0.966261     -1.402199      9.100072
  P       1.948048     -2.585636      9.087054
  O       2.382635     -4.020445      8.923019
  O       2.873214     -1.466409      9.626747
  O       0.504456     -2.578831     10.044549
  O       1.198416     -1.974560      7.654628
  C       2.071739     -1.832074      6.519681
  H       1.457809     -1.986123      5.600211
  H       2.872327     -2.610730      6.520603
  C       2.727438     -0.426116      6.475423
  H       3.083233     -0.168827      7.496766
  O       1.683594      0.543440      6.049639
  C       1.311661      1.565474      6.871242
  O       1.788427      1.790088      7.983058
  C       0.238428      2.439349      6.204890
  H      -0.260725      3.006511      7.021280
  H      -0.524645      1.790308      5.718675
  C       3.924345     -0.284204      5.516464
  H       4.725281     -0.996619      5.815790
  H       4.320648      0.755189      5.559903
  O       3.549159     -0.502903      4.119065
  C       3.822236     -1.738033      3.554938
  O       4.414055     -2.638996      4.129229
  C       3.242694     -1.806956      2.138180
  H       3.594074     -0.920262      1.558943
  H       3.654679     -2.720923      1.659769
  C       0.829649      3.455109      5.168459
  H       1.702775      3.968829      5.637727
  H       0.061775      4.249898      5.007437
  C       1.238957      2.878109      3.783035
  H       1.970151      2.046449      3.905157
  H       1.778484      3.686061      3.230447
  C       0.039389      2.406913      2.920353
  H      -0.739610      3.210799      2.914938
  H      -0.448973      1.517593      3.389309
  C       0.403774      2.067145      1.451316
  H       1.130139      1.219263      1.424997
  H       0.937704      2.936204      0.995313
  C      -0.838934      1.713913      0.591738
  H      -1.586524      2.541196      0.681594
  H      -1.339249      0.809302      1.015271
  C      -0.539604      1.468922     -0.914766
  H      -1.493327      1.164406     -1.416809
  H       0.144459      0.596272     -1.025506
  C       0.029436      2.691573     -1.624121
  H      -0.327346      3.669799     -1.239021
  C       0.894092      2.708607     -2.669697
  H       1.195073      3.699220     -3.065563
  C       1.448640      1.499921     -3.410068
  H       1.413706      0.592432     -2.764214
  H       2.525833      1.672984     -3.654281
  C       0.677329      1.193410     -4.736351
  H      -0.395782      1.024646     -4.484386
  H       1.049893      0.227864     -5.157692
  C       0.809266      2.298570     -5.816538
  H       1.891589      2.424505     -6.066334
  H       0.489136      3.278471     -5.390775
  C       0.026166      2.022735     -7.130699
  H       0.397221      1.072349     -7.587271
  H       0.277591      2.822797     -7.867065
  C      -1.521837      1.923335     -6.987991
  H      -1.786012      0.999690     -6.423171
  H      -1.957041      1.777617     -8.007349
  C      -2.218942      3.136969     -6.312586
  H      -1.862728      3.247299     -5.259189
  H      -3.312059      2.916766     -6.234126
  C      -2.036863      4.487380     -7.054764
  H      -2.372759      4.371299     -8.115155
  H      -0.953170      4.750836     -7.106560
  C      -2.808382      5.653835     -6.389284
  H      -2.658853      6.612884     -6.936830
  H      -2.471698      5.811765     -5.337354
  H      -3.905272      5.451878     -6.358300
  C       1.681574     -1.827700      2.137027
  H       1.314689     -0.904123      2.638941
  H       1.323833     -2.685869      2.756259
  C       1.071483     -1.926124      0.712413
  H       1.506850     -1.118660      0.073220
  H      -0.021492     -1.704523      0.774019
  C       1.268334     -3.296774      0.014458
  H       0.791438     -4.095177      0.635585
  H       2.354450     -3.553476     -0.025208
  C       0.686181     -3.342095     -1.420518
  H      -0.389129     -3.043525     -1.396815
  H       1.200537     -2.572588     -2.049454
  C       0.820294     -4.728709     -2.098282
  H       1.895494     -5.032295     -2.114267
  H       0.295709     -5.496810     -1.477509
  C       0.265210     -4.776912     -3.558056
  H       0.506822     -5.778729     -3.989687
  H       0.812181     -4.032970     -4.181724
  C      -1.238938     -4.561916     -3.640362
  H      -1.854072     -5.409060     -3.271397
  C      -1.887685     -3.452032     -4.074148
  H      -2.996174     -3.468961     -4.063071
  C      -1.246163     -2.182035     -4.615639
  H      -0.203750     -2.078807     -4.240225
  H      -1.800952     -1.294959     -4.221393
  C      -1.225384     -2.095720     -6.174586
  H      -0.695271     -2.990957     -6.580983
  H      -0.610598     -1.212490     -6.469845
  C      -2.621829     -1.975921     -6.833996
  H      -3.229702     -2.886140     -6.610146
  H      -3.173570     -1.119270     -6.371517
  C      -2.552437     -1.764898     -8.368226
  H      -1.927514     -0.863237     -8.575505
  H      -2.009616     -2.624176     -8.835701
  C      -3.940361     -1.609700     -9.039194
  H      -4.487418     -0.757362     -8.563214
  H      -4.551366     -2.519732     -8.821169
  C      -3.898040     -1.389515    -10.576942
  H      -3.314884     -2.217207    -11.053359
  H      -4.935970     -1.479773    -10.981883
  C      -3.308820     -0.024679    -11.023706
  H      -3.877516      0.798386    -10.523488
  H      -2.256176      0.074262    -10.663854
  C      -3.343366      0.180915    -12.558333
  H      -2.919126      1.169064    -12.850663
  H      -2.755130     -0.606614    -13.086020
  H      -4.386670      0.132181    -12.950123
138
Coordinates from ORCA-job /wrk/rja7/qm_final_3_replicates/qm_final_1.1/qm/10/freq E -2722.582900736610
  N       0.920241      0.264650     11.595868
  C       0.262009     -0.079965     10.208920
  H       1.060077      0.047295      9.459511
  H      -0.501914      0.712888     10.051854
  C       1.564169     -0.942075     12.301457
  H       0.785151     -1.697147     12.515416
  H       2.332851     -1.357899     11.616310
  H       2.009637     -0.566393     13.247713
  C      -0.137415      0.857716     12.510030
  H      -0.961543      0.123976     12.621343
  H       0.310224      1.070925     13.502955
  H      -0.526144      1.796734     12.064393
  C       2.024560      1.290069     11.319833
  H       2.793767      0.779267     10.706810
  H       2.439383      1.635818     12.290221
  H       1.597677      2.137377     10.746174
  C      -0.386769     -1.474694     10.058794
  H      -1.139845     -1.658816     10.868314
  H      -0.966272     -1.402096      9.100126
  P       1.947999     -2.585601      9.087126
  O       2.382569     -4.020420      8.923154
  O       2.873184     -1.466361      9.626765
  O       0.504416     -2.578748     10.044633
  O       1.198365     -1.974575      7.654684
  C       2.071688     -1.832111      6.519732
  H       1.457760     -1.986198      5.600267
  H       2.872287     -2.610756      6.520679
  C       2.727367     -0.426147      6.475441
  H       3.083159     -0.168827      7.496776
  O       1.683503      0.543384      6.049644
  C       1.311596      1.565447      6.871223
  O       1.788401      1.790098      7.983016
  C       0.238352      2.439314      6.204878
  H      -0.260797      3.006478      7.021268
  H      -0.524724      1.790271      5.718669
  C       3.924275     -0.284233      5.516483
  H       4.725219     -0.996631      5.815825
  H       4.320560      0.755166      5.559910
  O       3.549103     -0.502961      4.119084
  C       3.822186     -1.738105      3.554989
  O       4.413988     -2.639059      4.129312
  C       3.242684     -1.807050      2.138216
  H       3.594048     -0.920343      1.558987
  H       3.654716     -2.721003      1.659818
  C       0.829569      3.455068      5.168441
  H       1.702688      3.968799      5.637709
  H       0.061693      4.249853      5.007405
  C       1.238890      2.878055      3.783028
  H       1.970112      2.046421      3.905162
  H       1.778388      3.686013      3.230421
  C       0.039340      2.406796      2.920356
  H      -0.739696      3.210646      2.914930
  H      -0.448982      1.517457      3.389315
  C       0.403749      2.067033      1.451320
  H       1.130160      1.219188      1.425017
  H       0.937647      2.936113      0.995321
  C      -0.838926      1.713733      0.591727
  H      -1.586584      2.540954      0.681604
  H      -1.339179      0.809073      1.015228
  C      -0.539570      1.468820     -0.914784
  H      -1.493273      1.164273     -1.416848
  H       0.144537      0.596209     -1.025552
  C       0.029407      2.691526     -1.624089
  H      -0.327450      3.669720     -1.238975
  C       0.894090      2.708645     -2.669644
  H       1.195025      3.699285     -3.065473
  C       1.448733      1.500009     -3.410022
  H       1.413865      0.592511     -2.764178
  H       2.525914      1.673157     -3.654226
  C       0.677456      1.193453     -4.736318
  H      -0.395651      1.024640     -4.484369
  H       1.050081      0.227928     -5.157653
  C       0.809361      2.298624     -5.816501
  H       1.891679      2.424583     -6.066308
  H       0.489217      3.278518     -5.390733
  C       0.026255      2.022780     -7.130655
  H       0.397300      1.072384     -7.587215
  H       0.277682      2.822829     -7.867033
  C      -1.521748      1.923396     -6.987940
  H      -1.785933      0.999761     -6.423107
  H      -1.956958      1.777670     -8.007295
  C      -2.218839      3.137043     -6.312546
  H      -1.862638      3.247366     -5.259144
  H      -3.311961      2.916857     -6.234101
  C      -2.036734      4.487450     -7.054726
  H      -2.372619      4.371366     -8.115121
  H      -0.953037      4.750892     -7.106512
  C      -2.808244      5.653918     -6.389261
  H      -2.658687      6.612963     -6.936806
  H      -2.471574      5.811841     -5.337326
  H      -3.905139      5.451984     -6.358297
  C       1.681566     -1.827849      2.137029
  H       1.314641     -0.904308      2.638978
  H       1.323845     -2.686061      2.756214
  C       1.071501     -1.926227      0.712404
  H       1.506838     -1.118708      0.073261
  H      -0.021486     -1.704685      0.774008
  C       1.268427     -3.296828      0.014372
  H       0.791591     -4.095295      0.635464
  H       2.354559     -3.553458     -0.025327
  C       0.686250     -3.342106     -1.420595
  H      -0.389072     -3.043582     -1.396858
  H       1.200565     -2.572547     -2.049502
  C       0.820411     -4.728684     -2.098423
  H       1.895623     -5.032227     -2.114430
  H       0.295863     -5.496834     -1.477680
  C       0.265312     -4.776851     -3.558191
  H       0.506934     -5.778648     -3.989862
  H       0.812261     -4.032877     -4.181842
  C      -1.238841     -4.561870     -3.640473
  H      -1.853958     -5.409033     -3.271523
  C      -1.887608     -3.451988     -4.074226
  H      -2.996096     -3.468931     -4.063127
  C      -1.246116     -2.181970     -4.615705
  H      -0.203696     -2.078739     -4.240314
  H      -1.800910     -1.294910     -4.221429
  C      -1.225376     -2.095631     -6.174653
  H      -0.695249     -2.990850     -6.581072
  H      -0.610625     -1.212379     -6.469916
  C      -2.621846     -1.975871     -6.834019
  H      -3.229689     -2.886100     -6.610131
  H      -3.173593     -1.119226     -6.371535
  C      -2.552518     -1.764877     -8.368255
  H      -1.927622     -0.863208     -8.575587
  H      -2.009692     -2.624155     -8.835726
  C      -3.940472     -1.609726     -9.039178
  H      -4.487531     -0.757388     -8.563202
  H      -4.551445     -2.519768     -8.821104
  C      -3.898204     -1.389584    -10.576934
  H      -3.315029     -2.217266    -11.053343
  H      -4.936142     -1.479893    -10.981846
  C      -3.309049     -0.024738    -11.023750
  H      -3.877780      0.798319    -10.523560
  H      -2.256408      0.074260    -10.663905
  C      -3.343614      0.180798    -12.558384
  H      -2.919427      1.168959    -12.850754
  H      -2.755341     -0.606718    -13.086048
  H      -4.386919      0.131993    -12.950165
138
Coordinates from ORCA-job /wrk/rja7/qm_final_3_replicates/qm_final_1.1/qm/10/freq E -2722.582900737330
  N       0.920262      0.264734     11.595887
  C       0.262017     -0.079891     10.208946
  H       1.060085      0.047345      9.459532
  H      -0.501894      0.712972     10.051874
  C       1.564184     -0.941989     12.301485
  H       0.785164     -1.697053     12.515460
  H       2.332857     -1.357829     11.616337
  H       2.009667     -0.566297     13.247731
  C      -0.137381      0.857820     12.510049
  H      -0.961520      0.124092     12.621366
  H       0.310268      1.071018     13.502972
  H      -0.526099      1.796845     12.064418
  C       2.024589      1.290140     11.319830
  H       2.793787      0.779324     10.706807
  H       2.439424      1.635901     12.290209
  H       1.597702      2.137442     10.746164
  C      -0.386786     -1.474610     10.058843
  H      -1.139870     -1.658709     10.868360
  H      -0.966284     -1.402014      9.100172
  P       1.947955     -2.585584      9.087189
  O       2.382507     -4.020415      8.923270
  O       2.873158     -1.466336      9.626785
  O       0.504378     -2.578682     10.044707
  O       1.198318     -1.974599      7.654734
  C       2.071637     -1.832148      6.519776
  H       1.457711     -1.986262      5.600315
  H       2.872246     -2.610783      6.520741
  C       2.727298     -0.426178      6.475458
  H       3.083094     -0.168836      7.496787
  O       1.683413      0.543333      6.049660
  C       1.311559      1.565440      6.871208
  O       1.788413      1.790128      7.982973
  C       0.238308      2.439306      6.204875
  H      -0.260831      3.006476      7.021267
  H      -0.524775      1.790265      5.718677
  C       3.924199     -0.284260      5.516493
  H       4.725159     -0.996638      5.815846
  H       4.320464      0.755148      5.559900
  O       3.549034     -0.503026      4.119097
  C       3.822141     -1.738181      3.555035
  O       4.413932     -2.639119      4.129394
  C       3.242674     -1.807159      2.138248
  H       3.594037     -0.920454      1.559017
  H       3.654736     -2.721112      1.659876
  C       0.829523      3.455052      5.168430
  H       1.702640      3.968791      5.637696
  H       0.061645      4.249833      5.007381
  C       1.238849      2.878025      3.783026
  H       1.970092      2.046410      3.905170
  H       1.778322      3.685984      3.230398
  C       0.039309      2.406707      2.920372
  H      -0.739765      3.210520      2.914944
  H      -0.448969      1.517349      3.389340
  C       0.403728      2.066946      1.451337
  H       1.130178      1.219134      1.425042
  H       0.937594      2.936045      0.995334
  C      -0.838926      1.713592      0.591738
  H      -1.586635      2.540766      0.681630
  H      -1.339129      0.808895      1.015222
  C      -0.539556      1.468729     -0.914777
  H      -1.493243      1.164146     -1.416852
  H       0.144592      0.596152     -1.025563
  C       0.029362      2.691478     -1.624054
  H      -0.327553      3.669644     -1.238925
  C       0.894061      2.708662     -2.669595
  H       1.194949      3.699325     -3.065405
  C       1.448775      1.500065     -3.409980
  H       1.413956      0.592560     -2.764144
  H       2.525949      1.673276     -3.654176
  C       0.677525      1.193476     -4.736284
  H      -0.395578      1.024622     -4.484345
  H       1.050197      0.227966     -5.157611
  C       0.809405      2.298650     -5.816467
  H       1.891718      2.424624     -6.066286
  H       0.489258      3.278542     -5.390696
  C       0.026285      2.022799     -7.130610
  H       0.397310      1.072388     -7.587157
  H       0.277720      2.822829     -7.867007
  C      -1.521718      1.923448     -6.987881
  H      -1.785914      0.999833     -6.423021
  H      -1.956940      1.777706     -8.007228
  C      -2.218779      3.137124     -6.312510
  H      -1.862584      3.247456     -5.259107
  H      -3.311907      2.916964     -6.234069
  C      -2.036638      4.487513     -7.054712
  H      -2.372510      4.371417     -8.115110
  H      -0.952935      4.750932     -7.106487
  C      -2.808135      5.654008     -6.389278
  H      -2.658547      6.613041     -6.936834
  H      -2.471477      5.811935     -5.337339
  H      -3.905035      5.452101     -6.358327
  C       1.681556     -1.827986      2.137023
  H       1.314605     -0.904468      2.638996
  H       1.323837     -2.686225      2.756171
  C       1.071520     -1.926319      0.712384
  H       1.506840     -1.118754      0.073287
  H      -0.021477     -1.704823      0.773981
  C       1.268510     -3.296879      0.014290
  H       0.791723     -4.095399      0.635351
  H       2.354654     -3.553450     -0.025436
  C       0.686314     -3.342123     -1.420672
  H      -0.389021     -3.043648     -1.396907
  H       1.200587     -2.572512     -2.049550
  C       0.820529     -4.728668     -2.098556
  H       1.895757     -5.032157     -2.114585
  H       0.296026     -5.496868     -1.477837
  C       0.265415     -4.776806     -3.558317
  H       0.507061     -5.778582     -3.990024
  H       0.812334     -4.032797     -4.181952
  C      -1.238745     -4.561861     -3.640572
  H      -1.853838     -5.409049     -3.271638
  C      -1.887544     -3.451982     -4.074285
  H      -2.996032     -3.468949     -4.063165
  C      -1.246089     -2.181937     -4.615748
  H      -0.203666     -2.078691     -4.240369
  H      -1.800898     -1.294897     -4.221447
  C      -1.225373     -2.095574     -6.174695
  H      -0.695231     -2.990776     -6.581132
  H      -0.610649     -1.212302     -6.469955
  C      -2.621859     -1.975842     -6.834036
  H      -3.229675     -2.886084     -6.610128
  H      -3.173615     -1.119207     -6.371545
  C      -2.552570     -1.764861     -8.368276
  H      -1.927696     -0.863185     -8.575642
  H      -2.009738     -2.624137     -8.835744
  C      -3.940542     -1.609746     -9.039172
  H      -4.487610     -0.757414     -8.563194
  H      -4.551488     -2.519800     -8.821071
  C      -3.898307     -1.389622    -10.576931
  H      -3.315116     -2.217292    -11.053340
  H      -4.936248     -1.479964    -10.981827
  C      -3.309197     -0.024762    -11.023768
  H      -3.877956      0.798283    -10.523591
  H      -2.256560      0.074275    -10.663925
  C      -3.343771      0.180750    -12.558406
  H      -2.919624      1.168922    -12.850792
  H      -2.755467     -0.606752    -13.086057
  H      -4.387073      0.131893    -12.950186
