138
Coordinates from ORCA-job /wrk/rja7/qm_final_3_replicates/qm_final_1.1/qm/100/freq E -2722.589724167037
  N          -0.82805598189979      1.95285914372314    -10.02990798509223
  C          -1.96371922266154      2.50650920725826     -9.09302621901789
  H          -1.46681500521455      3.20621365179497     -8.40806070410560
  H          -2.30080253599390      1.62982523095093     -8.49986372480547
  C          -0.61655345761609      2.77131123185241    -11.31395225572466
  H          -1.54627612657705      2.75642250228593    -11.91329879717178
  H          -0.36432962093396      3.80817295171138    -11.00831676055290
  H           0.21204750691022      2.28959683430135    -11.87612585134341
  C          -1.16411053222438      0.52059477049670    -10.40826175067017
  H          -1.21316547070485     -0.09823624798921     -9.48904611929499
  H          -2.14450832732937      0.50867291910786    -10.92750668182832
  H          -0.37907495637272      0.12508872195148    -11.08568844643937
  C           0.47567237137337      1.99573878347371     -9.21989429639994
  H           1.27412621390548      1.49525764928417     -9.80739305830077
  H           0.31640108515878      1.47696660078105     -8.25294301617835
  H           0.72383533192189      3.05938427604297     -9.03357508906293
  C          -3.18211392628552      3.19490874134600     -9.74919185924536
  H          -3.67223410731660      2.51343572919691    -10.49163095650784
  H          -3.90701812320103      3.31126694024710     -8.89927093112059
  P          -2.00038712756542      5.70252486339227     -9.69312871752482
  O          -2.31639896058095      6.96392870481717    -10.45388778084132
  O          -0.56484753833613      5.16289505181238     -9.47517317299606
  O          -2.94506379534221      4.43358411635613    -10.39934883536735
  O          -2.76210173052089      5.67940802628358     -8.13719257169909
  C          -1.98663935659875      6.25796573799524     -7.07445656755404
  H          -2.69560174243256      6.68609694940192     -6.32477124353159
  H          -1.34923078676913      7.10112803088900     -7.44185330562085
  C          -1.08841319554032      5.20849217774064     -6.36828738927799
  H          -0.78889576421741      4.44587027711003     -7.10659928846475
  O          -1.87673718487873      4.57342160047004     -5.28508420006293
  C          -1.78588528993760      3.22516549393705     -5.09895928412687
  O          -1.23325725622969      2.43998268199385     -5.86935951277518
  C          -2.44398202369894      2.82435079685847     -3.77001942434485
  H          -3.49386316457576      3.20476801900450     -3.76510477246808
  H          -1.92433308863732      3.41015770221069     -2.97537128246202
  C           0.19457216970780      5.80104884069229     -5.74225549688062
  H          -0.02917006843307      6.65206175583138     -5.06081719912145
  H           0.86745972106550      6.13269254239432     -6.56427944280208
  O           0.85929399739053      4.80899702959606     -4.89104277393802
  C           1.61840143187676      3.83064385253931     -5.49731876726730
  O           1.90894995115746      3.82248693363877     -6.68580135938555
  C           1.99422165685826      2.71791066240536     -4.50493945995860
  H           1.24978419906028      1.90498082663267     -4.69603127557073
  H           2.97692587502024      2.30758279522957     -4.83366179265303
  C          -2.39703697481111      1.30524871535734     -3.47328337766205
  H          -1.35466000954646      0.93411738583111     -3.61569108344609
  H          -3.01276750199715      0.76852538490226     -4.23271378697022
  C          -2.88790165834833      0.93791298172738     -2.04562799285079
  H          -3.02017414001486     -0.16935627068063     -1.98390210951195
  H          -3.90421637763749      1.37366368142911     -1.87650332339105
  C          -1.93594669356801      1.39115636029310     -0.90667546930883
  H          -1.78542277708216      2.49714971470566     -0.95252779859256
  H          -0.92455869617033      0.94346382589634     -1.07337772424571
  C          -2.43595638421959      1.01469662597189      0.51044129023118
  H          -2.56994648682751     -0.09388922544696      0.57725352414270
  H          -3.45320289865801      1.45136078247435      0.67092280949069
  C          -1.49130600026091      1.48783429617228      1.64366693210286
  H          -1.34709236672805      2.59397608076443      1.56533885219194
  H          -0.47872262755879      1.04037196217922      1.49927135929074
  C          -2.00604260536858      1.13463302702427      3.06997748179506
  H          -2.10917044771517      0.02911157806541      3.16315953911373
  H          -3.04085724888543      1.54880334962917      3.18084667312870
  C          -1.13460188827984      1.70295455152581      4.17784231863152
  H          -1.03863251454839      2.80902937605395      4.16878179826007
  C          -0.46962579227309      1.02493101610017      5.14670165723792
  H           0.10891364234924      1.62361496509376      5.88101524123629
  C          -0.44838598286385     -0.47315896001288      5.39463726851632
  H           0.61460326049009     -0.80957616197755      5.47105002530645
  H          -0.88690679683890     -1.03180154595500      4.53576556048634
  C          -1.19476978198485     -0.88097270184812      6.70169018143725
  H          -2.26861585949389     -0.58523712243378      6.61443921397216
  H          -0.78743656778137     -0.29314914759591      7.56122165903677
  C          -1.08747041911299     -2.39468714980903      7.01010660530122
  H          -0.01057196287199     -2.66208178432371      7.12935545826098
  H          -1.44624944556141     -2.97411923691350      6.12460351261918
  C          -1.88845102703273     -2.84009767836385      8.26117661394127
  H          -2.95963443311465     -2.55628309961783      8.11831390160355
  H          -1.54031139663779     -2.26431892123988      9.15494563362755
  C          -1.80865948700093     -4.36306832495460      8.56449626160758
  H          -2.09837022950923     -4.92647911962520      7.64481987922309
  H          -2.57755173021385     -4.62023280238848      9.33362975613227
  C          -0.42484169355058     -4.84916511718399      9.07392251184517
  H          -0.15495313013705     -4.25863125415605      9.98374536822103
  H           0.36701891709991     -4.62208075339374      8.31922519842375
  C          -0.36362444808964     -6.36290018329430      9.42440129557568
  H          -1.17599301072503     -6.60234928247886     10.15469311480821
  H           0.59480781466116     -6.56752227814150      9.96001222057542
  C          -0.46613209022256     -7.31550091198923      8.20562116892980
  H          -1.43064488197494     -7.20166199262750      7.65946379189020
  H          -0.39146829672579     -8.38162079683146      8.52158154061082
  H           0.35464424622778     -7.12704864235305      7.47407557155771
  C           2.00675942850846      3.06258730762947     -2.99317498007788
  H           1.03439481811881      3.52242368808935     -2.70367620771905
  H           2.78461689851453      3.83739458549445     -2.78937819710560
  C           2.26776639535049      1.81444934038702     -2.11026696783303
  H           3.22600327888434      1.32912137115137     -2.42167264740221
  H           1.46814414797258      1.05658127943899     -2.30568169236430
  C           2.32218277976761      2.12308894315999     -0.59245097807571
  H           1.37622680251538      2.63085978241594     -0.28139914593432
  H           3.14200092323272      2.85733238425918     -0.39545229240967
  C           2.53555274783824      0.86255393185669      0.28519440333295
  H           1.67625138861546      0.16191898854008      0.13634149612663
  H           3.43875549282302      0.31097716447043     -0.07621608679705
  C           2.69661933423212      1.16971508866242      1.79534008969838
  H           3.59350106714820      1.81840355666651      1.94749628762979
  H           1.82362638681675      1.76557443534035      2.15607529999407
  C           2.82974990382296     -0.10916492578242      2.67216211025925
  H           3.65077514389418     -0.75011050298793      2.27600150241894
  H           1.89185854792759     -0.71225981594998      2.55690245972042
  C           3.03262085190989      0.20267354693013      4.14550045308184
  H           2.33758107563704      0.96386576070036      4.55253425674988
  C           3.94406056882117     -0.33248994963740      4.99566766309049
  H           3.92454122527932      0.01948622019306      6.04872049568712
  C           4.99098890620592     -1.39527845290507      4.70503142418496
  H           5.97983859686985     -1.02911081032433      5.07644996132239
  H           5.11062814594748     -1.55659002423440      3.60875902431880
  C           4.69263983966252     -2.76558203966962      5.39282460104918
  H           4.52900154705541     -2.60115404682057      6.48691152390527
  H           5.60194833891341     -3.41049637013456      5.31547549105229
  C           3.48010776032444     -3.52493518490532      4.79587219702927
  H           2.57393649547188     -2.87699247379522      4.84886809999688
  H           3.66374098421096     -3.70592549845233      3.70685987559439
  C           3.20914489382065     -4.88060274275303      5.50133999135765
  H           4.16744108537920     -5.45231104828914      5.56218432264139
  H           2.90413144488089     -4.68952083931652      6.56092268176907
  C           2.14303229059689     -5.78005148076531      4.81635209187145
  H           2.10034411922931     -6.75601865863091      5.35944759259485
  H           2.48077190882143     -6.02683920220070      3.77868579531812
  C           0.71401485689379     -5.17983374026864      4.75875317211548
  H           0.40768012283728     -4.86080438551025      5.78391063750874
  H           0.71581754330341     -4.24892754860622      4.14120204371793
  C          -0.34159996935035     -6.16319836302550      4.18883728138604
  H          -0.02681008872501     -6.48587699805210      3.16557714676582
  H          -0.34875316798959     -7.09277208699974      4.80921682191718
  C          -1.77245484554541     -5.57415541787139      4.12756774148583
  H          -2.49495395845793     -6.29708208861222      3.68334452134606
  H          -2.14738992467369     -5.30934011875086      5.14364706310181
  H          -1.80404529497888     -4.64528286274423      3.51018086975215
