138
Coordinates from ORCA-job /wrk/rja7/qm_final_3_replicates/qm_final_1.1/qm/10/freq E -2722.582900737330
  N           0.92026242548100      0.26473429016473     11.59588689295870
  C           0.26201720786087     -0.07989077859954     10.20894555546916
  H           1.06008532267678      0.04734508068686      9.45953228209920
  H          -0.50189371078874      0.71297210895365     10.05187420237573
  C           1.56418431728319     -0.94198902684168     12.30148509580148
  H           0.78516390927001     -1.69705255181321     12.51546023086950
  H           2.33285655664252     -1.35782895869182     11.61633675283608
  H           2.00966668404822     -0.56629694043985     13.24773105511372
  C          -0.13738122672362      0.85781954450051     12.51004920955648
  H          -0.96152008126487      0.12409192792923     12.62136559906025
  H           0.31026843808475      1.07101795158908     13.50297233768570
  H          -0.52609901365314      1.79684474732648     12.06441775931638
  C           2.02458896709915      1.29013992132522     11.31983024376068
  H           2.79378706468464      0.77932444269092     10.70680711000742
  H           2.43942420922691      1.63590056425334     12.29020889232087
  H           1.59770239195687      2.13744165356679     10.74616361796531
  C          -0.38678578528073     -1.47461005400946     10.05884279814773
  H          -1.13987031681985     -1.65870886986750     10.86836024630472
  H          -0.96628383512151     -1.40201440036674      9.10017179189165
  P           1.94795484640282     -2.58558377261280      9.08718943988290
  O           2.38250706352138     -4.02041459590887      8.92327029363893
  O           2.87315764724094     -1.46633646390192      9.62678466766451
  O           0.50437801634573     -2.57868172530884     10.04470745276771
  O           1.19831780536886     -1.97459889989807      7.65473351394813
  C           2.07163689650453     -1.83214782530563      6.51977640628453
  H           1.45771111472211     -1.98626231725495      5.60031460360529
  H           2.87224573011795     -2.61078266664201      6.52074071819782
  C           2.72729804601507     -0.42617760225768      6.47545783307629
  H           3.08309397798046     -0.16883626440509      7.49678658257202
  O           1.68341343992459      0.54333342301995      6.04966009094072
  C           1.31155903022459      1.56544041812783      6.87120827756059
  O           1.78841339790127      1.79012783816355      7.98297343328966
  C           0.23830800784160      2.43930622945471      6.20487530017168
  H          -0.26083067992286      3.00647646372514      7.02126730617374
  H          -0.52477534381443      1.79026527523897      5.71867667407921
  C           3.92419917985827     -0.28426032679302      5.51649299974540
  H           4.72515850096451     -0.99663757898922      5.81584628406387
  H           4.32046359123988      0.75514766851604      5.55989962844621
  O           3.54903394699151     -0.50302589537951      4.11909704242148
  C           3.82214080901915     -1.73818084359458      3.55503530301954
  O           4.41393164601437     -2.63911867010700      4.12939386169123
  C           3.24267413961693     -1.80715868030394      2.13824822428776
  H           3.59403693647054     -0.92045350675837      1.55901651313707
  H           3.65473576208913     -2.72111225127330      1.65987623941172
  C           0.82952327074819      3.45505242787577      5.16843006487048
  H           1.70263962427628      3.96879084676362      5.63769562863939
  H           0.06164496872609      4.24983305317848      5.00738090965263
  C           1.23884945816841      2.87802492923174      3.78302598815225
  H           1.97009237372582      2.04640983077544      3.90516961287002
  H           1.77832214143033      3.68598420185344      3.23039808779553
  C           0.03930918510252      2.40670690008434      2.92037208867021
  H          -0.73976501324162      3.21052031853582      2.91494446733407
  H          -0.44896943011431      1.51734902769444      3.38934013563880
  C           0.40372849479678      2.06694587722880      1.45133657429886
  H           1.13017763237883      1.21913399826762      1.42504216879549
  H           0.93759421568672      2.93604519032153      0.99533358898493
  C          -0.83892620069492      1.71359187291849      0.59173829249695
  H          -1.58663546950335      2.54076562873768      0.68163013726959
  H          -1.33912921672000      0.80889476821474      1.01522174494488
  C          -0.53955620381657      1.46872854162986     -0.91477689960308
  H          -1.49324250108263      1.16414633841195     -1.41685194259483
  H           0.14459194203454      0.59615244332112     -1.02556327129685
  C           0.02936153331469      2.69147750907905     -1.62405406966946
  H          -0.32755342529696      3.66964416491516     -1.23892526765112
  C           0.89406062131752      2.70866182890100     -2.66959548916295
  H           1.19494936030741      3.69932479644415     -3.06540468452474
  C           1.44877511648280      1.50006493232530     -3.40998046921070
  H           1.41395582086311      0.59255981616439     -2.76414386985643
  H           2.52594883611682      1.67327574283873     -3.65417560102092
  C           0.67752519604994      1.19347593237165     -4.73628362683104
  H          -0.39557828670245      1.02462240774651     -4.48434525598469
  H           1.05019725264579      0.22796586719535     -5.15761099713047
  C           0.80940529848166      2.29865006354285     -5.81646650824435
  H           1.89171819008322      2.42462432216365     -6.06628577965322
  H           0.48925762572597      3.27854234842977     -5.39069632742163
  C           0.02628548390033      2.02279909386820     -7.13061011654863
  H           0.39730989072622      1.07238798688605     -7.58715730648889
  H           0.27771972030436      2.82282921479568     -7.86700677620484
  C          -1.52171755965422      1.92344824735507     -6.98788132100728
  H          -1.78591395060367      0.99983275896160     -6.42302116668763
  H          -1.95694045229256      1.77770611397752     -8.00722762704375
  C          -2.21877925487529      3.13712430460435     -6.31251035196493
  H          -1.86258355892324      3.24745586990846     -5.25910733318615
  H          -3.31190736474782      2.91696365723489     -6.23406945317718
  C          -2.03663833291628      4.48751349629915     -7.05471217130393
  H          -2.37250965625863      4.37141674227254     -8.11511033789052
  H          -0.95293509261871      4.75093198535622     -7.10648730659039
  C          -2.80813479931159      5.65400786274884     -6.38927762128424
  H          -2.65854707031528      6.61304098354358     -6.93683439557338
  H          -2.47147661203217      5.81193496542667     -5.33733907338492
  H          -3.90503540246085      5.45210058962926     -6.35832711855337
  C           1.68155638539539     -1.82798598951557      2.13702336887902
  H           1.31460488044528     -0.90446781395022      2.63899604754646
  H           1.32383731347215     -2.68622475257330      2.75617143862241
  C           1.07151953953472     -1.92631924122839      0.71238402992766
  H           1.50684017297141     -1.11875430445833      0.07328698656053
  H          -0.02147659389704     -1.70482272986688      0.77398123863010
  C           1.26850975211013     -3.29687908739311      0.01428983026789
  H           0.79172314242235     -4.09539867939223      0.63535124358722
  H           2.35465390115277     -3.55345047905030     -0.02543622919131
  C           0.68631401129566     -3.34212286485123     -1.42067235977081
  H          -0.38902065178992     -3.04364812099838     -1.39690723517485
  H           1.20058706173463     -2.57251243174243     -2.04954976870604
  C           0.82052939020951     -4.72866834808785     -2.09855612377281
  H           1.89575680180153     -5.03215743271100     -2.11458475930973
  H           0.29602572516435     -5.49686836091780     -1.47783734579582
  C           0.26541486039796     -4.77680599380430     -3.55831724169067
  H           0.50706091187859     -5.77858199087165     -3.99002434168563
  H           0.81233403231297     -4.03279663388201     -4.18195229919246
  C          -1.23874522834112     -4.56186096106197     -3.64057161731924
  H          -1.85383820455648     -5.40904878445151     -3.27163818877206
  C          -1.88754384516062     -3.45198161753448     -4.07428535703729
  H          -2.99603163340300     -3.46894865365256     -4.06316492527772
  C          -1.24608948435499     -2.18193668281350     -4.61574774815328
  H          -0.20366635092835     -2.07869124119558     -4.24036904704467
  H          -1.80089770227640     -1.29489735610296     -4.22144661416395
  C          -1.22537294384611     -2.09557394840238     -6.17469512781470
  H          -0.69523109155963     -2.99077615362948     -6.58113244276037
  H          -0.61064936877671     -1.21230228843273     -6.46995464749031
  C          -2.62185868203006     -1.97584248055704     -6.83403629645106
  H          -3.22967486491228     -2.88608431672947     -6.61012825335424
  H          -3.17361458454296     -1.11920674544232     -6.37154540987631
  C          -2.55256989628031     -1.76486131120721     -8.36827556504597
  H          -1.92769603245570     -0.86318526641439     -8.57564203832002
  H          -2.00973781085484     -2.62413666101827     -8.83574411640715
  C          -3.94054185497233     -1.60974587462982     -9.03917154233924
  H          -4.48761011362980     -0.75741407405274     -8.56319428855445
  H          -4.55148759544279     -2.51980011257812     -8.82107094235362
  C          -3.89830700044339     -1.38962201011792    -10.57693086736404
  H          -3.31511580303495     -2.21729219488515    -11.05333965628109
  H          -4.93624841008899     -1.47996382744152    -10.98182657573464
  C          -3.30919681027028     -0.02476184891418    -11.02376831379750
  H          -3.87795630478144      0.79828263575403    -10.52359086387448
  H          -2.25655980477965      0.07427514982819    -10.66392474751516
  C          -3.34377096261840      0.18074999955808    -12.55840596694100
  H          -2.91962350529374      1.16892245225041    -12.85079217983424
  H          -2.75546679468006     -0.60675168785771    -13.08605740568194
  H          -4.38707338480961      0.13189323508832    -12.95018605145783
