138
Coordinates from ORCA-job /wrk/rja7/qm_final_3_replicates/qm_final_1.1/qm/3/freq E -2722.590515301505
  N           1.53227955438541     -1.32673868375145      9.07726282908741
  C           2.66734574388461     -1.70810481617350      8.05936532181565
  H           2.14554621395437     -2.01745603416879      7.13100621856485
  H           3.21138445364274     -2.56298677066917      8.52033306919838
  C           0.95287838413042     -2.63161710485776      9.60884360891142
  H           0.12478085698083     -2.40511372486632     10.31220264148405
  H           0.57077030189556     -3.22274975477923      8.75193522609118
  H           1.74671878383031     -3.20156648792127     10.13433801116997
  C           0.38411195106443     -0.53829810807168      8.40698597916774
  H           0.11332966666321     -1.04618937689402      7.46179167768194
  H          -0.46242743909745     -0.51706056053529      9.12594501693288
  H           0.72014412046948      0.48682519772673      8.16400840875737
  C           2.08133741086175     -0.50307420696979     10.23693293716547
  H           1.26844252471890     -0.35301113177733     10.97813044022856
  H           2.42304278184417      0.47236534135191      9.84011465563767
  H           2.92234666266295     -1.05273936679892     10.70834296888631
  C           3.66091064018758     -0.56315253659524      7.72731935926623
  H           4.36066824072172     -0.39419804895533      8.58400768370255
  H           4.28408094632699     -0.95130322760527      6.87902344042472
  P           2.17826103689524      0.81416659143203      5.90204378584707
  O           1.27305032760131      2.01081345751358      6.14221709072023
  O           1.68558781816132     -0.59149544581361      5.51409194273426
  O           3.02448612005941      0.66574320099951      7.43718482902617
  O           3.56089547563026      1.20186703424841      4.99971529829455
  C           3.67152323178655      0.77712654599921      3.62494798409009
  H           3.23217245719763     -0.23807640202311      3.48541270542133
  H           4.75836230491912      0.72470891344786      3.38272176971922
  C           2.99334815457638      1.80583168864042      2.68677028102855
  H           3.33530823368344      2.82764320745461      2.97680700252580
  O           1.55677293953025      1.69158299724515      2.93510428105802
  C           0.79190426546173      2.84061547213597      3.00045971575050
  O           1.19928733557274      3.94689538349733      2.66992853972139
  C          -0.60943571016249      2.51095242586743      3.51946874817426
  H          -0.58652831195402      2.73370650443432      4.61300670790366
  H          -0.75773929783353      1.41233548097293      3.44617953425944
  C           3.29358085923154      1.65392032849856      1.17611911611861
  H           4.39330919045511      1.58792939969511      1.01330890650727
  H           2.89027822354760      2.53384741767175      0.63218132051296
  O           2.62186506308884      0.50300544586261      0.56841891929946
  C           3.27745750406090     -0.70636884116893      0.54151700332329
  O           4.41102536846483     -0.88541390733962      0.96656341995604
  C           2.38046576852712     -1.77272891839058     -0.10554885065100
  H           1.42884556478907     -1.81410496110390      0.47846766278058
  H           2.08272312220620     -1.39086264843528     -1.10959450405315
  C          -1.72147463825035      3.30725847822308      2.79100192649441
  H          -1.64020394046344      3.13090698320455      1.69292858970731
  H          -1.53826544217578      4.39723774464319      2.93202693934115
  C          -3.16190216218538      2.96257229977761      3.26441750404732
  H          -3.87925634613589      3.56519379926228      2.65502415527778
  H          -3.29554958362559      3.30364674768486      4.32029616783511
  C          -3.56301980365240      1.46031336195412      3.17204481072878
  H          -4.65222306015394      1.36987539522467      3.40782523553248
  H          -3.03859946649094      0.87731709851460      3.96811672585216
  C          -3.27887689688729      0.79892531547450      1.79871723498361
  H          -2.17911586749107      0.76123617543188      1.62152986440327
  H          -3.68905654777884      1.43657718790778      0.97900491397241
  C          -3.85171808993441     -0.63573087358248      1.66350470406927
  H          -4.96784408343009     -0.58999389377928      1.60717666562851
  H          -3.61625269727687     -1.22358944748210      2.58424039337533
  C          -3.29494564850055     -1.41280173890801      0.42842942547205
  H          -3.78775139471945     -2.41700730619790      0.39208276579964
  H          -2.20860255925121     -1.60748203086862      0.57980444647428
  C          -3.53171596931476     -0.69322883784857     -0.88901163153275
  H          -4.59429503595625     -0.44970003764501     -1.10143848575405
  C          -2.60688839779478     -0.30379575578063     -1.80162195002991
  H          -2.97461318233056      0.23472945912359     -2.69955685535723
  C          -1.10081635455025     -0.51419224917410     -1.77085650454935
  H          -0.83206011566713     -1.25102796745293     -2.56934643994537
  H          -0.77642042304694     -0.97436684157333     -0.80997237716526
  C          -0.28953304998718      0.79278372376904     -2.02382118513097
  H          -0.63882506312597      1.25090381808897     -2.98149648202579
  H           0.78285376839125      0.52735747287396     -2.18843653724010
  C          -0.37746554463902      1.81958862942606     -0.86396995492873
  H           0.02720503058570      1.33834479493459      0.05627002597318
  H          -1.44939778190398      2.04535765632131     -0.64810560708132
  C           0.38178215393599      3.14970228041959     -1.13145802967695
  H           1.40197498019173      2.91851151455022     -1.52874264993006
  H           0.54349937840512      3.68468210926817     -0.16605707196503
  C          -0.35066762004740      4.10660110199850     -2.11175101718117
  H          -1.30701969790491      4.43100339912710     -1.63516713291214
  H          -0.64536827849482      3.55543624049599     -3.03723229251233
  C           0.49421269184565      5.34167089708761     -2.51797938661087
  H           1.41751004967862      4.98425472999950     -3.03738535654501
  H           0.84919163566387      5.87072580020459     -1.59848624699762
  C          -0.23957448962543      6.35594850883958     -3.44078701351257
  H          -0.65149608621038      5.81383518326366     -4.32697959294660
  H           0.50918894486279      7.07737834925233     -3.84945211864282
  C          -1.37203190212724      7.15329618196685     -2.74499054453580
  H          -1.83602963455401      7.89020911485383     -3.44085509777168
  H          -0.98149004404298      7.72047587175961     -1.86714244157926
  H          -2.18794182196270      6.49131102332501     -2.37367425065088
  C           3.03892715541594     -3.16916273612649     -0.19690426019525
  H           3.29715426980655     -3.51450609295598      0.83123922101706
  H           4.01244862575208     -3.08140107777448     -0.73551673465390
  C           2.15170827163525     -4.23475828242471     -0.89780028114294
  H           1.18410173791684     -4.34244387820120     -0.34647135224016
  H           2.65954643472432     -5.22629567514726     -0.81512630643797
  C           1.85965411078328     -3.94515946397953     -2.39439533928789
  H           2.82551876918763     -3.74353997000425     -2.92190506648497
  H           1.26172908053105     -3.00656496838666     -2.49055420189902
  C           1.10501618533932     -5.08587018469909     -3.12256102854272
  H           1.69595801125538     -6.03307997629855     -3.04821076086268
  H           0.13815483609632     -5.28480520277054     -2.59980697464048
  C           0.83161227408559     -4.76672587228967     -4.61385750030982
  H           0.25879548704793     -3.81167568001266     -4.68449953254541
  H           1.80406531141006     -4.57686909189036     -5.13153052284457
  C           0.06422076494187     -5.88308711531927     -5.39074436233212
  H           0.68403915592033     -6.81112725377691     -5.38991112271053
  H          -0.01615898248485     -5.57048010226074     -6.45903278447263
  C          -1.32205184706512     -6.20877382223482     -4.83392616916334
  H          -1.40127348234048     -7.12845963267139     -4.22052252181519
  C          -2.44774131785913     -5.47319492357650     -5.01235471942204
  H          -3.38467099735963     -5.83145434779215     -4.53672373378356
  C          -2.55925377916268     -4.15367559304557     -5.75703410933610
  H          -3.36522370073778     -4.22415577195768     -6.53064017459723
  H          -1.61890956345123     -3.93540300191166     -6.30868832843300
  C          -2.90135802469764     -2.96565806034501     -4.80232901963701
  H          -2.20247950200567     -2.98163104974200     -3.93188289880153
  H          -3.91766337660065     -3.13294663724932     -4.37131631974639
  C          -2.84752670561285     -1.56428503571383     -5.46948040539980
  H          -3.48359587297743     -1.55714019078699     -6.38941960398242
  H          -3.31174694890063     -0.82633978516524     -4.77336828267066
  C          -1.41576736894174     -1.08044451570945     -5.82629295537476
  H          -0.76176273059799     -1.17594740330872     -4.92536412469663
  H          -0.96528218884288     -1.75053416026589     -6.59803233626405
  C          -1.36001186317207      0.38305586630718     -6.33536433221404
  H          -1.80217443403823      1.05300478990253     -5.55891921568131
  H          -2.01425979387170      0.48774962040428     -7.23666863758371
  C           0.07556791486593      0.85630995592331     -6.68586346307370
  H           0.71962475441564      0.78200643242731     -5.77387411715112
  H           0.51578121911360      0.14599823116278     -7.42802670919880
  C           0.16285460526928      2.29813864961923     -7.26069139561848
  H           1.19821902342774      2.47055587043162     -7.64239588731938
  H          -0.50616063915377      2.37347009011159     -8.15358812231060
  C          -0.19157601347075      3.41787139049697     -6.24974263288020
  H          -0.08370068256022      4.42768958682898     -6.70847037066756
  H          -1.23878499322588      3.33611891316597     -5.87853197477746
  H           0.47882805369379      3.38690472202304     -5.35894947231320
