138
Coordinates from ORCA-job /wrk/rja7/qm_final_3_replicates/qm_final_1.1/qm/5/freq E -2722.597182511712
  N           3.27807502023061      0.54640962913295      6.89541375592205
  C           2.20052329999790      0.43992363847645      8.03514008818177
  H           1.21504741765199      0.46879110155411      7.53937196102448
  H           2.31961641731553      1.36728382339145      8.63733248214563
  C           2.61303112580463      1.23500369833068      5.69473786755389
  H           2.22373017015507      2.21991391716618      6.02588525600327
  H           3.36808047654844      1.36367133135619      4.89315053557306
  H           1.78074375907883      0.58936449665343      5.35029044961463
  C           3.82971956001211     -0.81012028862787      6.42497201126614
  H           2.96852467109887     -1.41807406466753      6.07780035532355
  H           4.54689414517579     -0.60076058346328      5.60336697777519
  H           4.34985799134669     -1.30158389178001      7.26961279497551
  C           4.43816905119694      1.39298393395996      7.39115986000642
  H           4.07031568257280      2.40805107095757      7.64714068926721
  H           5.20555988411107      1.46563658699514      6.59277018224820
  H           4.88000406273378      0.91488350637954      8.29007837312720
  C           2.25710184081948     -0.78539585494006      8.98584669066310
  H           3.27845876075628     -0.88894512722909      9.43381566646302
  H           1.57090678563783     -0.49342939346747      9.82526600574989
  P           0.53681197749946     -2.22497829724384      7.38150477287992
  O           0.02832628213278     -3.64567021272551      7.48904815617878
  O           0.95684538214342     -1.54216374809508      6.06142785337681
  O           1.89858022052721     -2.04341516134960      8.43959118300430
  O          -0.49110655975630     -1.12407797423272      8.22678343008886
  C          -1.91598533139481     -1.33083639106649      8.23943680504635
  H          -2.32902735057841     -0.68888936630502      9.05628429314976
  H          -2.16831188488010     -2.39127705665406      8.47480297248943
  C          -2.59520137426646     -0.93225096973965      6.89507971768104
  H          -3.70192369485947     -0.99500408307941      7.02165837388763
  O          -2.17283546239234     -1.84754712832816      5.84654587345710
  C          -2.82945995730637     -3.06298951429810      5.72185498583944
  O          -3.86635564116558     -3.32967567192953      6.31136135363236
  C          -2.03843775985425     -4.01398323540065      4.81591197350517
  H          -2.76242101763047     -4.73233106754738      4.36664974021042
  H          -1.39595908007065     -4.58890458873158      5.52725430948440
  C          -2.16181813369484      0.48051693123654      6.44711215001325
  H          -1.05833509170695      0.54657955817166      6.38694602205817
  H          -2.54212170571629      1.23470338890127      7.17639685744339
  O          -2.74331437892299      0.78635047757345      5.14067035595130
  C          -1.89942326828418      1.14560841427398      4.11817339861325
  O          -0.69785819571357      1.36183018164308      4.24361175286698
  C          -2.68296597896801      1.27616912269302      2.80225791691585
  H          -3.56189852686558      0.59307510460998      2.83625514415447
  H          -3.10557239566721      2.31231410857293      2.77186455849977
  C          -1.12456866868863     -3.34275651982789      3.75950024294607
  H          -0.44063125349871     -2.64409660042598      4.28682791990541
  H          -1.74292985329692     -2.72191524754536      3.06748412278802
  C          -0.26505652656067     -4.35648523390788      2.94512395694631
  H          -0.85421910303562     -4.78066115845420      2.09413728216176
  H           0.00049165801674     -5.22397903443635      3.59600083706919
  C           1.05766528698363     -3.72513088697166      2.42440568206681
  H           1.68746596610111     -4.50683377333008      1.93343361204854
  H           1.63249690067307     -3.37818517447845      3.31585886939370
  C           0.85919811754095     -2.54177021959990      1.43654542277006
  H           0.02912548142648     -1.89185594301050      1.79633932059296
  H           0.52923417879626     -2.94262630531597      0.44768365637351
  C           2.11942284805953     -1.65207441182510      1.24376006766705
  H           1.99674956201213     -1.01234810251359      0.33754401502988
  H           3.01158113312499     -2.29653664744833      1.04562755925097
  C           2.39935537271440     -0.72514550176295      2.47161133265932
  H           2.45501638157386     -1.35578273306149      3.38993622280260
  H           1.52690769568051     -0.05016619827984      2.61980246681604
  C           3.68438241425728      0.07047850737297      2.33299506291036
  H           4.62040443955866     -0.52757459883676      2.36481962119951
  C           3.79981907500135      1.40989827598543      2.13204869265928
  H           4.82167949042853      1.82313699881495      2.01127672260330
  C           2.64746755907965      2.40519183298907      1.99334123601136
  H           3.02191186670987      3.43114762650617      2.22635617405311
  H           1.84354483571926      2.18700081363862      2.73470695449779
  C           2.00273711230386      2.41729793945820      0.56879332492364
  H           1.16633727761094      3.15861335907182      0.55942160757643
  H           1.53076138582504      1.42384652087849      0.38500157491203
  C           2.99199059029962      2.72665680620603     -0.58209539122524
  H           3.83460519492315      1.99394645480017     -0.54682442590544
  H           3.45687959590451      3.73165080813213     -0.42062909736085
  C           2.34428777438878      2.67064267983333     -1.98993472175281
  H           1.58455852891940      3.48490067762248     -2.09321112965862
  H           1.77488229004070      1.71435037415633     -2.08842151094058
  C           3.36932724041573      2.76318077907774     -3.14950663793353
  H           4.13098516476087      1.95439119948834     -3.01935154893478
  H           3.93631119549759      3.72481860915732     -3.07509323190494
  C           2.73681689715354      2.64217246939441     -4.55939365819714
  H           1.99877881814369      3.46926216029680     -4.71047775958723
  H           2.14651895638261      1.69533556858321     -4.62043259971644
  C           3.77906945313309      2.66973337557486     -5.70817994690880
  H           4.52335712297550      1.85190973393889     -5.54325770359192
  H           4.36160828345032      3.62279803454014     -5.65585887327596
  C           3.15256610575241      2.52032479675523     -7.11657391615020
  H           3.92602456615965      2.55977688821514     -7.91782784212762
  H           2.41575579563451      3.33278885286488     -7.32087920476262
  H           2.61192758597558      1.55079000697723     -7.21563316690313
  C          -1.81531320689116      1.01741451384598      1.54619316309779
  H          -1.39563100043956     -0.01294158560747      1.60794067298335
  H          -0.93734888202031      1.70362723623811      1.55639852488804
  C          -2.60671737117021      1.19807727604648      0.22457545846905
  H          -3.02835132773724      2.23287014401314      0.19753540692072
  H          -3.49047173435169      0.51226005531654      0.22279488137692
  C          -1.77170658718959      0.95872452040669     -1.06453123672678
  H          -0.86803390188894      1.61669951639780     -1.04973388027950
  H          -2.37401389475462      1.29393539031415     -1.94163186944515
  C          -1.32575696562682     -0.51516544924049     -1.27352661176243
  H          -0.75306314282767     -0.85920186458934     -0.38295321217771
  H          -2.23243931197879     -1.16920692667004     -1.31810024535088
  C          -0.44862819826466     -0.75160092659290     -2.53237223817918
  H           0.43176394694207     -0.06477014322872     -2.50351465992757
  H          -0.02533884653831     -1.78479117358615     -2.49481895827091
  C          -1.18921020662312     -0.56576561853172     -3.89125374755583
  H          -1.67054245001631      0.43659729363326     -3.93273980001078
  H          -2.02723712839134     -1.30805538582882     -3.93644518927417
  C          -0.27182624151785     -0.77049329057197     -5.08500699975011
  H           0.28312511199464     -1.73217211093473     -5.08843969862714
  C          -0.04915618229176      0.08868138534770     -6.11185371311046
  H           0.66130216363928     -0.23357111116198     -6.89917816223114
  C          -0.71960850592414      1.43708771336500     -6.34006663373563
  H           0.02485465381183      2.14421932315941     -6.77820654792422
  H          -1.04085906352641      1.88485659853648     -5.37198871145049
  C          -1.95554710987373      1.35913751466995     -7.29451543540027
  H          -2.42005092081189      2.37379361693519     -7.36606089132117
  H          -2.72113373141474      0.69671798518365     -6.82628249975640
  C          -1.61532315580347      0.85640377013914     -8.72252261260516
  H          -0.79675211787301      1.49443402551314     -9.13826673632454
  H          -1.19577885456154     -0.17702003812683     -8.66375551441694
  C          -2.80887620049001      0.86199119338074     -9.71626231516573
  H          -3.23083384816218      1.89610148470579     -9.78440715925679
  H          -2.42380110091344      0.62504559328992    -10.73833844720180
  C          -3.94683064385822     -0.13526021006232     -9.37081984910652
  H          -4.38954770045481      0.12063288046021     -8.37760157136751
  H          -3.50633603505713     -1.15529384723456     -9.25484965395296
  C          -5.07833817278160     -0.16274224358249    -10.43108473065037
  H          -5.47308812930049      0.87471630056549    -10.56204307173665
  H          -4.64839596877368     -0.45009101351581    -11.42360605880801
  C          -6.26416885567296     -1.11015387440724    -10.09501787081713
  H          -6.70258624380077     -0.81330106492958     -9.10988298109067
  H          -7.07343067541993     -0.94935438975862    -10.84770660111335
  C          -5.89562263577221     -2.61563994869553    -10.06369905938811
  H          -6.79387542844409     -3.24929520250388     -9.88127669310556
  H          -5.44670969735170     -2.94009733068830    -11.03253509552552
  H          -5.15795748870722     -2.84891879184014     -9.26197829094405
