138
Coordinates from ORCA-job /wrk/rja7/qm_final_3_replicates/qm_final_1.1/qm/1/freq E -2722.341691950808
  N       1.579000     -4.971000     10.313000
  C       2.037000     -4.137000      9.154000
  H       2.126000     -4.717000      8.247000
  H       3.006000     -3.701000      9.346000
  C       0.133000     -5.389000     10.118000
  H      -0.118000     -5.978000      9.248000
  H      -0.175000     -6.071000     10.896000
  H      -0.579000     -4.579000     10.171000
  C       1.721000     -4.296000     11.625000
  H       2.752000     -4.170000     11.922000
  H       1.266000     -3.317000     11.659000
  H       1.211000     -4.896000     12.365000
  C       2.419000     -6.225000     10.337000
  H       3.457000     -6.147000     10.623000
  H       2.511000     -6.582000      9.322000
  H       1.941000     -6.986000     10.936000
  C       1.165000     -2.888000      8.813000
  H       1.512000     -2.471000      7.844000
  H       0.111000     -3.212000      8.679000
  P       2.370000     -0.934000     10.211000
  O       3.669000     -1.673000     10.279000
  O       1.994000     -0.188000     11.425000
  O       1.211000     -1.944000      9.903000
  O       2.406000      0.107000      8.974000
  C       1.184000      0.895000      8.700000
  H       1.489000      1.961000      8.637000
  H       0.422000      0.831000      9.506000
  C       0.470000      0.436000      7.388000
  H       0.356000     -0.669000      7.346000
  O       1.389000      0.989000      6.392000
  C       1.879000      0.117000      5.542000
  O       1.941000     -1.116000      5.644000
  C       2.298000      0.925000      4.282000
  H       3.352000      1.166000      4.536000
  H       1.602000      1.782000      4.159000
  C      -0.937000      1.141000      7.231000
  H      -0.890000      2.186000      7.606000
  H      -1.517000      0.460000      7.890000
  O      -1.339000      1.061000      5.831000
  C      -2.575000      1.023000      5.522000
  O      -3.510000      1.136000      6.327000
  C      -2.764000      0.594000      3.987000
  H      -2.034000      1.258000      3.477000
  H      -2.562000     -0.498000      3.968000
  C       2.281000      0.102000      2.896000
  H       1.229000     -0.231000      2.769000
  H       2.934000     -0.789000      3.009000
  C       2.712000      0.922000      1.706000
  H       2.890000      0.352000      0.769000
  H       3.638000      1.482000      1.958000
  C       1.706000      1.989000      1.274000
  H       1.502000      2.635000      2.155000
  H       0.840000      1.405000      0.894000
  C       2.145000      2.960000      0.160000
  H       2.949000      3.603000      0.579000
  H       1.250000      3.608000      0.045000
  C       2.658000      2.392000     -1.199000
  H       1.828000      1.726000     -1.517000
  H       3.516000      1.722000     -0.976000
  C       2.852000      3.496000     -2.228000
  H       3.686000      4.122000     -1.845000
  H       1.878000      4.024000     -2.319000
  C       3.372000      2.942000     -3.540000
  H       3.981000      2.033000     -3.427000
  C       3.037000      3.399000     -4.752000
  H       3.483000      2.896000     -5.623000
  C       2.139000      4.582000     -5.052000
  H       2.645000      5.283000     -5.749000
  H       1.817000      5.146000     -4.150000
  C       0.690000      4.313000     -5.609000
  H       0.262000      5.312000     -5.840000
  H       0.056000      3.803000     -4.853000
  C       0.579000      3.573000     -6.956000
  H       1.121000      2.619000     -6.782000
  H       1.019000      4.139000     -7.805000
  C      -0.879000      3.371000     -7.376000
  H      -1.465000      4.314000     -7.417000
  H      -1.313000      2.657000     -6.643000
  C      -0.983000      2.781000     -8.776000
  H      -0.490000      1.807000     -8.986000
  H      -0.459000      3.519000     -9.420000
  C      -2.437000      2.655000     -9.269000
  H      -2.510000      2.205000    -10.283000
  H      -2.889000      3.668000     -9.326000
  C      -3.324000      1.816000     -8.343000
  H      -3.104000      1.956000     -7.263000
  H      -3.070000      0.740000     -8.461000
  C      -4.826000      2.078000     -8.636000
  H      -5.499000      1.406000     -8.062000
  H      -5.124000      1.951000     -9.699000
  H      -5.127000      3.127000     -8.429000
  C      -4.128000      0.839000      3.413000
  H      -4.445000      1.901000      3.337000
  H      -4.975000      0.549000      4.071000
  C      -4.328000      0.373000      2.007000
  H      -5.439000      0.341000      1.998000
  H      -3.986000     -0.660000      1.785000
  C      -4.113000      1.398000      0.791000
  H      -4.083000      2.455000      1.130000
  H      -5.035000      1.377000      0.172000
  C      -2.896000      0.959000     -0.019000
  H      -1.892000      1.207000      0.387000
  H      -2.951000     -0.144000     -0.136000
  C      -2.885000      1.629000     -1.430000
  H      -3.725000      1.247000     -2.050000
  H      -3.010000      2.729000     -1.332000
  C      -1.601000      1.294000     -2.162000
  H      -0.647000      1.411000     -1.606000
  H      -1.492000      2.009000     -3.005000
  C      -1.507000     -0.086000     -2.687000
  H      -2.112000     -0.808000     -2.119000
  C      -0.921000     -0.450000     -3.860000
  H      -0.864000     -1.511000     -4.146000
  C      -0.124000      0.542000     -4.727000
  H       0.603000      1.109000     -4.108000
  H      -0.775000      1.241000     -5.294000
  C       0.719000     -0.160000     -5.783000
  H       1.362000     -0.905000     -5.268000
  H       1.400000      0.533000     -6.321000
  C      -0.139000     -0.629000     -6.937000
  H      -1.015000     -1.096000     -6.438000
  H      -0.636000      0.253000     -7.396000
  C       0.446000     -1.460000     -7.962000
  H      -0.312000     -1.655000     -8.751000
  H       1.305000     -0.949000     -8.447000
  C       0.943000     -2.857000     -7.520000
  H       1.899000     -2.872000     -6.954000
  H       1.183000     -3.351000     -8.486000
  C      -0.073000     -3.751000     -6.788000
  H      -0.335000     -3.193000     -5.864000
  H      -1.092000     -3.957000     -7.179000
  C       0.557000     -5.135000     -6.346000
  H       0.980000     -5.499000     -7.307000
  H       1.486000     -5.107000     -5.738000
  C      -0.441000     -6.044000     -5.802000
  H      -0.786000     -5.893000     -4.757000
  H      -1.238000     -6.067000     -6.576000
  H      -0.061000     -7.087000     -5.773000
138
Coordinates from ORCA-job /wrk/rja7/qm_final_3_replicates/qm_final_1.1/qm/1/freq E -2722.414385842545
  N       1.639952     -4.982013     10.302734
  C       2.096245     -4.099018      9.164859
  H       2.255892     -4.672388      8.248947
  H       3.044464     -3.613817      9.416971
  C       0.230610     -5.482504     10.055162
  H       0.066801     -6.075309      9.152301
  H      -0.058938     -6.196626     10.829899
  H      -0.528524     -4.700702     10.090011
  C       1.696350     -4.303678     11.636231
  H       2.720974     -4.119274     11.961803
  H       1.177587     -3.344636     11.648120
  H       1.194613     -4.945657     12.364311
  C       2.552806     -6.190024     10.344109
  H       3.577694     -6.022572     10.679577
  H       2.702583     -6.537931      9.319627
  H       2.098442     -6.991194     10.928953
  C       1.173165     -2.894379      8.805882
  H       1.549707     -2.443293      7.861147
  H       0.137498     -3.253702      8.614805
  P       2.285794     -0.943435     10.291230
  O       3.596919     -1.690368     10.355975
  O       1.844400     -0.221198     11.518397
  O       1.130944     -1.986100      9.917645
  O       2.332568      0.114033      9.042011
  C       1.124117      0.890511      8.748442
  H       1.427077      1.958028      8.685951
  H       0.355216      0.823735      9.551692
  C       0.439298      0.434106      7.420741
  H       0.327571     -0.668439      7.377592
  O       1.354286      0.972585      6.401046
  C       1.855908      0.102552      5.524276
  O       1.917354     -1.125767      5.627268
  C       2.292955      0.907355      4.267706
  H       3.348012      1.157415      4.519731
  H       1.604507      1.768102      4.141439
  C      -0.957962      1.140224      7.252859
  H      -0.912168      2.188260      7.618822
  H      -1.573557      0.481158      7.903362
  O      -1.342697      1.059342      5.848852
  C      -2.606728      1.037117      5.521009
  O      -3.544736      1.169003      6.313584
  C      -2.790729      0.625132      3.991010
  H      -2.043573      1.268581      3.474862
  H      -2.604604     -0.470819      3.961147
  C       2.282594      0.077639      2.900621
  H       1.231097     -0.261495      2.762523
  H       2.934275     -0.814181      3.023463
  C       2.725601      0.908101      1.709039
  H       2.918027      0.329535      0.778263
  H       3.653362      1.467984      1.970581
  C       1.702152      1.977564      1.277343
  H       1.482359      2.616256      2.161000
  H       0.832208      1.396046      0.890542
  C       2.151266      2.966254      0.174105
  H       2.953249      3.609553      0.605358
  H       1.259959      3.620995      0.045680
  C       2.665114      2.404255     -1.186780
  H       1.836069      1.741754     -1.523765
  H       3.523453      1.729791     -0.974303
  C       2.881437      3.522935     -2.209903
  H       3.718144      4.144142     -1.814952
  H       1.917445      4.066479     -2.301433
  C       3.383728      2.979762     -3.539593
  H       3.983693      2.058649     -3.446386
  C       3.047723      3.457445     -4.753553
  H       3.479492      2.953676     -5.635637
  C       2.167939      4.657758     -5.040001
  H       2.681251      5.358226     -5.735256
  H       1.873781      5.220640     -4.126858
  C       0.719090      4.392770     -5.600811
  H       0.289840      5.395456     -5.826272
  H       0.083927      3.883557     -4.842394
  C       0.615859      3.631093     -6.944016
  H       1.158218      2.676346     -6.769339
  H       1.066102      4.194474     -7.792247
  C      -0.847373      3.399552     -7.361989
  H      -1.440568      4.339683     -7.406180
  H      -1.276196      2.693540     -6.617915
  C      -0.956572      2.779005     -8.760472
  H      -0.447382      1.804979     -8.937552
  H      -0.440579      3.504678     -9.427901
  C      -2.414823      2.622676     -9.257364
  H      -2.466490      2.150681    -10.264150
  H      -2.878624      3.631667     -9.343038
  C      -3.310964      1.779462     -8.327869
  H      -3.108713      1.946136     -7.246743
  H      -3.037906      0.703011     -8.428151
  C      -4.813790      1.997841     -8.638350
  H      -5.475673      1.318224     -8.057365
  H      -5.088944      1.841748     -9.706155
  H      -5.140059      3.044178     -8.444943
  C      -4.166613      0.904634      3.430831
  H      -4.445205      1.983365      3.375224
  H      -5.005364      0.622063      4.106664
  C      -4.410170      0.429675      2.010432
  H      -5.524978      0.422351      2.001560
  H      -4.098566     -0.614333      1.790126
  C      -4.127353      1.431787      0.794937
  H      -4.052148      2.485533      1.144221
  H      -5.042051      1.449464      0.162358
  C      -2.915723      0.965128     -0.021584
  H      -1.912463      1.178590      0.410653
  H      -3.000770     -0.135279     -0.154124
  C      -2.865659      1.646824     -1.430896
  H      -3.714190      1.294815     -2.060434
  H      -2.960940      2.749963     -1.320027
  C      -1.579414      1.293645     -2.173425
  H      -0.631763      1.390396     -1.596255
  H      -1.448300      2.020950     -3.006882
  C      -1.519395     -0.094482     -2.729336
  H      -2.145546     -0.819926     -2.181545
  C      -0.933054     -0.452458     -3.901332
  H      -0.908467     -1.512369     -4.204889
  C      -0.099835      0.524679     -4.746167
  H       0.635373      1.062810     -4.108187
  H      -0.732205      1.256130     -5.295103
  C       0.729670     -0.191729     -5.821191
  H       1.352025     -0.966810     -5.321544
  H       1.435194      0.499273     -6.336677
  C      -0.144047     -0.654340     -6.987418
  H      -1.034229     -1.120428     -6.503197
  H      -0.625216      0.238132     -7.447141
  C       0.453933     -1.510163     -8.027739
  H      -0.298230     -1.697511     -8.827484
  H       1.325157     -1.007637     -8.507277
  C       0.934630     -2.911903     -7.567457
  H       1.884386     -2.923195     -6.988534
  H       1.184312     -3.430000     -8.522657
  C      -0.103262     -3.769501     -6.821278
  H      -0.367462     -3.188475     -5.906520
  H      -1.118039     -3.952988     -7.238149
  C       0.477651     -5.158017     -6.349172
  H       0.906485     -5.564000     -7.295809
  H       1.398736     -5.124802     -5.723768
  C      -0.564726     -6.051497     -5.787195
  H      -0.914169     -5.851498     -4.750721
  H      -1.371145     -6.092409     -6.553492
  H      -0.202747     -7.103373     -5.722378
138
Coordinates from ORCA-job /wrk/rja7/qm_final_3_replicates/qm_final_1.1/qm/1/freq E -2722.466404755146
  N       1.732395     -4.996189     10.285123
  C       2.178284     -4.048235      9.179617
  H       2.422985     -4.603358      8.260569
  H       3.087341     -3.509652      9.504007
  C       0.375886     -5.592051      9.969582
  H       0.322673     -6.169043      9.033966
  H       0.112500     -6.344510     10.729772
  H      -0.434907     -4.852450      9.984746
  C       1.682086     -4.334544     11.642433
  H       2.687824     -4.081759     12.003185
  H       1.089506     -3.411391     11.630842
  H       1.198264     -5.031566     12.344369
  C       2.731991     -6.138356     10.344134
  H       3.721456     -5.867464     10.738938
  H       2.951083     -6.459617      9.314489
  H       2.314402     -6.986788     10.903727
  C       1.196777     -2.898769      8.797769
  H       1.605147     -2.406660      7.885173
  H       0.191433     -3.303489      8.537179
  P       2.173197     -0.932553     10.372071
  O       3.505611     -1.670683     10.447965
  O       1.640573     -0.238160     11.599102
  O       1.038260     -2.026535      9.922462
  O       2.231528      0.139062      9.105891
  C       1.031161      0.890609      8.781323
  H       1.320764      1.963448      8.718956
  H       0.250832      0.813931      9.575672
  C       0.386124      0.434238      7.437676
  H       0.286682     -0.668092      7.390161
  O       1.297992      0.967188      6.408075
  C       1.818367      0.100768      5.513150
  O       1.880521     -1.122248      5.621594
  C       2.274585      0.904377      4.265393
  H       3.327322      1.169749      4.519311
  H       1.590983      1.767541      4.136202
  C      -1.005447      1.130692      7.250074
  H      -0.969943      2.181901      7.609439
  H      -1.659010      0.491328      7.884607
  O      -1.366137      1.050482      5.840863
  C      -2.654590      1.040536      5.495924
  O      -3.590274      1.185194      6.279515
  C      -2.828177      0.650350      3.972320
  H      -2.067277      1.275695      3.452590
  H      -2.651883     -0.447820      3.926401
  C       2.279981      0.068421      2.916952
  H       1.232755     -0.282561      2.761874
  H       2.933690     -0.820853      3.052602
  C       2.736816      0.908347      1.722960
  H       2.950369      0.317678      0.803385
  H       3.661823      1.471524      1.996190
  C       1.695796      1.972382      1.282356
  H       1.452959      2.605714      2.164349
  H       0.826817      1.390893      0.887885
  C       2.156482      2.972914      0.187684
  H       2.952701      3.619742      0.630122
  H       1.269950      3.632610      0.037107
  C       2.673179      2.408723     -1.169850
  H       1.846983      1.748735     -1.525418
  H       3.532507      1.731851     -0.964650
  C       2.916036      3.534916     -2.191434
  H       3.753296      4.152593     -1.785725
  H       1.963467      4.096216     -2.289727
  C       3.401523      2.995102     -3.533048
  H       3.991048      2.062807     -3.455667
  C       3.067370      3.487437     -4.748766
  H       3.484643      2.979861     -5.638659
  C       2.206968      4.704820     -5.024225
  H       2.728586      5.403409     -5.717769
  H       1.944274      5.266322     -4.099972
  C       0.759189      4.446497     -5.590719
  H       0.330582      5.453060     -5.808925
  H       0.121135      3.938281     -4.831381
  C       0.663476      3.670810     -6.932281
  H       1.202484      2.711712     -6.765403
  H       1.126355      4.235774     -7.774647
  C      -0.804288      3.419646     -7.347875
  H      -1.399558      4.360157     -7.386592
  H      -1.231789      2.717986     -6.597960
  C      -0.921492      2.782961     -8.748053
  H      -0.400083      1.809939     -8.898448
  H      -0.412286      3.497223     -9.435406
  C      -2.384019      2.608219     -9.241347
  H      -2.421221      2.122127    -10.243240
  H      -2.854684      3.614674     -9.346299
  C      -3.283952      1.761918     -8.306254
  H      -3.089390      1.951048     -7.225668
  H      -2.997857      0.685617     -8.395879
  C      -4.787906      1.945157     -8.621228
  H      -5.436158      1.259287     -8.030341
  H      -5.046348      1.765316     -9.691141
  H      -5.132790      2.988480     -8.434388
  C      -4.213928      0.961911      3.425526
  H      -4.452625      2.053966      3.394089
  H      -5.042695      0.679552      4.115675
  C      -4.497963      0.485254      1.994978
  H      -5.614430      0.499916      1.984846
  H      -4.213694     -0.567859      1.775320
  C      -4.143550      1.463083      0.788211
  H      -4.024492      2.510054      1.151128
  H      -5.044540      1.520854      0.136301
  C      -2.934552      0.970253     -0.027810
  H      -1.937223      1.146821      0.438118
  H      -3.048818     -0.126455     -0.179545
  C      -2.840678      1.666013     -1.429591
  H      -3.694611      1.346626     -2.071619
  H      -2.906200      2.770851     -1.303176
  C      -1.551653      1.295226     -2.177964
  H      -0.615004      1.369157     -1.574907
  H      -1.394099      2.034433     -2.998760
  C      -1.531149     -0.095820     -2.766180
  H      -2.182519     -0.821056     -2.242561
  C      -0.942684     -0.449450     -3.936205
  H      -0.957402     -1.506529     -4.256729
  C      -0.066467      0.504243     -4.760090
  H       0.678635      1.009075     -4.104424
  H      -0.673769      1.271100     -5.291412
  C       0.742875     -0.231596     -5.851350
  H       1.337734     -1.040427     -5.369045
  H       1.476034      0.450150     -6.343883
  C      -0.150023     -0.680809     -7.023432
  H      -1.054969     -1.139698     -6.555017
  H      -0.608308      0.223411     -7.484566
  C       0.454131     -1.563425     -8.074310
  H      -0.292911     -1.737833     -8.883545
  H       1.338506     -1.073395     -8.547049
  C       0.909606     -2.971427     -7.595529
  H       1.852741     -2.981655     -7.003426
  H       1.166357     -3.514902     -8.537641
  C      -0.154559     -3.787980     -6.839282
  H      -0.420471     -3.185823     -5.935131
  H      -1.161628     -3.941895     -7.289756
  C       0.367271     -5.181538     -6.340082
  H       0.800345     -5.633336     -7.267595
  H       1.275965     -5.148326     -5.693597
  C      -0.723794     -6.047733     -5.768543
  H      -1.077999     -5.794167     -4.744663
  H      -1.537215     -6.098182     -6.528219
  H      -0.385888     -7.107231     -5.667997
138
Coordinates from ORCA-job /wrk/rja7/qm_final_3_replicates/qm_final_1.1/qm/1/freq E -2722.514745514368
  N       1.927275     -5.005784     10.253720
  C       2.329941     -3.969860      9.191661
  H       2.708749     -4.490535      8.287479
  H       3.151791     -3.347586      9.617335
  C       0.677676     -5.756716      9.842426
  H       0.799937     -6.289695      8.879185
  H       0.466506     -6.553428     10.584983
  H      -0.207420     -5.097324      9.811949
  C       1.706508     -4.372882     11.624674
  H       2.662569     -3.998079     12.031109
  H       0.999656     -3.527869     11.557840
  H       1.276405     -5.145694     12.293588
  C       3.063867     -6.014765     10.363215
  H       3.959478     -5.577124     10.842219
  H       3.388119     -6.294042      9.341281
  H       2.726201     -6.921269     10.899524
  C       1.252896     -2.929974      8.763084
  H       1.693620     -2.370594      7.903630
  H       0.317229     -3.418755      8.397934
  P       1.952028     -0.936724     10.467548
  O       3.324338     -1.621900     10.592034
  O       1.250805     -0.305146     11.660361
  O       0.893721     -2.117848      9.884375
  O       2.034983      0.156975      9.187270
  C       0.840055      0.864524      8.809485
  H       1.099077      1.948108      8.752948
  H       0.036811      0.762630      9.581059
  C       0.266809      0.412439      7.438385
  H       0.194225     -0.691034      7.377479
  O       1.178644      0.947192      6.409907
  C       1.728790      0.090218      5.499400
  O       1.789632     -1.128807      5.610943
  C       2.224770      0.900140      4.277295
  H       3.269675      1.189743      4.544048
  H       1.551912      1.771200      4.148334
  C      -1.122956      1.080770      7.211255
  H      -1.114898      2.135882      7.564922
  H      -1.832341      0.466062      7.810927
  O      -1.442491      1.008848      5.792095
  C      -2.755175      1.015426      5.425793
  O      -3.686214      1.170171      6.203331
  C      -2.911037      0.683634      3.905061
  H      -2.130705      1.288017      3.388974
  H      -2.744133     -0.414567      3.814507
  C       2.260798      0.066853      2.946761
  H       1.223218     -0.300611      2.757493
  H       2.915642     -0.819769      3.098117
  C       2.742297      0.919166      1.753710
  H       2.989991      0.306942      0.856315
  H       3.662733      1.482974      2.046595
  C       1.684805      1.971944      1.291520
  H       1.402473      2.597237      2.167870
  H       0.817622      1.394145      0.886297
  C       2.166366      2.982579      0.208338
  H       2.954986      3.633021      0.663509
  H       1.291680      3.651721      0.020901
  C       2.685663      2.407233     -1.141224
  H       1.864749      1.753487     -1.525947
  H       3.545103      1.726352     -0.943968
  C       2.977291      3.533144     -2.164566
  H       3.814409      4.145925     -1.746112
  H       2.046732      4.127925     -2.276742
  C       3.439342      2.988689     -3.516465
  H       4.011763      2.041672     -3.455434
  C       3.114846      3.493983     -4.734709
  H       3.510231      2.973831     -5.629929
  C       2.288087      4.737483     -5.002735
  H       2.827418      5.425419     -5.696272
  H       2.077521      5.301874     -4.066605
  C       0.842846      4.496073     -5.579369
  H       0.418214      5.508021     -5.788116
  H       0.199805      3.995804     -4.816641
  C       0.751681      3.704234     -6.917179
  H       1.280491      2.735364     -6.768333
  H       1.235978      4.269522     -7.749013
  C      -0.722396      3.439343     -7.326712
  H      -1.312002      4.385565     -7.349633
  H      -1.152682      2.747137     -6.567451
  C      -0.862926      2.790891     -8.729528
  H      -0.331502      1.817746     -8.844558
  H      -0.362073      3.483961     -9.447718
  C      -2.334492      2.602695     -9.204076
  H      -2.360376      2.103091    -10.200994
  H      -2.808788      3.607295     -9.329663
  C      -3.234001      1.755790     -8.257516
  H      -3.042538      1.975942     -7.180466
  H      -2.936696      0.679886     -8.336969
  C      -4.740056      1.901694     -8.570119
  H      -5.369307      1.211829     -7.962078
  H      -4.980077      1.691777     -9.640115
  H      -5.102244      2.941749     -8.389176
  C      -4.306345      1.045289      3.379434
  H      -4.486032      2.150767      3.398184
  H      -5.117117      0.742150      4.082886
  C      -4.643475      0.592136      1.935210
  H      -5.759894      0.635943      1.915061
  H      -4.391055     -0.470202      1.712428
  C      -4.176935      1.535757      0.755149
  H      -3.996349      2.566389      1.144032
  H      -5.044089      1.656922      0.064334
  C      -2.966656      1.003047     -0.045500
  H      -1.989443      1.116137      0.483640
  H      -3.125065     -0.084918     -0.230541
  C      -2.793914      1.723995     -1.425834
  H      -3.651560      1.464170     -2.091720
  H      -2.810946      2.828344     -1.270930
  C      -1.502768      1.319871     -2.174860
  H      -0.590071      1.349588     -1.527849
  H      -1.295094      2.074413     -2.972084
  C      -1.551364     -0.065642     -2.807608
  H      -2.247009     -0.778984     -2.321150
  C      -0.955305     -0.424873     -3.970498
  H      -1.043387     -1.473379     -4.313367
  C      -0.002594      0.473593     -4.766751
  H       0.758842      0.921659     -4.087140
  H      -0.556714      1.298565     -5.273935
  C       0.764011     -0.302428     -5.874849
  H       1.300924     -1.164010     -5.413541
  H       1.547397      0.347483     -6.334214
  C      -0.158425     -0.719319     -7.049546
  H      -1.088672     -1.153388     -6.605739
  H      -0.565440      0.204684     -7.519379
  C       0.441217     -1.645154     -8.105368
  H      -0.297765     -1.791788     -8.928704
  H       1.347950     -1.181184     -8.565087
  C       0.845986     -3.064215     -7.601480
  H       1.778371     -3.073703     -6.989611
  H       1.108470     -3.646113     -8.521233
  C      -0.257007     -3.817916     -6.833557
  H      -0.524164     -3.191995     -5.943439
  H      -1.245144     -3.924555     -7.341192
  C       0.176737     -5.220965     -6.311445
  H       0.605285     -5.739564     -7.209129
  H       1.064885     -5.191127     -5.634496
  C      -0.978127     -6.032968     -5.725362
  H      -1.329178     -5.697318     -4.723291
  H      -1.806071     -6.083484     -6.469945
  H      -0.680855     -7.100316     -5.574850
138
Coordinates from ORCA-job /wrk/rja7/qm_final_3_replicates/qm_final_1.1/qm/1/freq E -2722.545914266126
  N       2.009530     -5.014152     10.237409
  C       2.358882     -3.982780      9.132991
  H       2.736208     -4.543978      8.247042
  H       3.173065     -3.340492      9.555328
  C       0.769591     -5.814158      9.884651
  H       0.918264     -6.334785      8.914052
  H       0.603895     -6.589660     10.665414
  H      -0.116080     -5.149506      9.852308
  C       1.800245     -4.332629     11.601482
  H       2.761268     -3.894615     11.934506
  H       1.054194     -3.522899     11.494905
  H       1.436288     -5.104527     12.316058
  C       3.190601     -5.976504     10.354167
  H       4.052684     -5.442400     10.805059
  H       3.493328     -6.304611      9.336455
  H       2.899198     -6.859706     10.960186
  C       1.243473     -2.990617      8.703354
  H       1.683692     -2.422496      7.847616
  H       0.335294     -3.514417      8.314721
  P       1.832974     -0.956007     10.459336
  O       3.222988     -1.616338     10.601221
  O       1.036799     -0.349696     11.611323
  O       0.792171     -2.179284      9.796538
  O       1.938963      0.136984      9.154724
  C       0.758067      0.848680      8.769857
  H       1.018385      1.934110      8.701269
  H      -0.046192      0.750826      9.542425
  C       0.207536      0.404767      7.394201
  H       0.138549     -0.700047      7.332610
  O       1.116217      0.909372      6.353453
  C       1.663003      0.042456      5.436312
  O       1.692062     -1.176194      5.551664
  C       2.220193      0.846178      4.246061
  H       3.260049      1.145335      4.525525
  H       1.583285      1.746322      4.128876
  C      -1.177483      1.057062      7.140525
  H      -1.179927      2.124808      7.461545
  H      -1.938706      0.496858      7.730271
  O      -1.486945      0.965929      5.717360
  C      -2.822641      0.995840      5.356423
  O      -3.734414      1.174005      6.147403
  C      -2.987016      0.733076      3.838145
  H      -2.191427      1.307331      3.311440
  H      -2.826746     -0.361192      3.688681
  C       2.266058      0.029479      2.922639
  H       1.236232     -0.344303      2.703309
  H       2.913089     -0.864069      3.069898
  C       2.761170      0.899158      1.734788
  H       3.026530      0.266180      0.856731
  H       3.687583      1.448743      2.037192
  C       1.692429      1.946674      1.277143
  H       1.377688      2.549110      2.159156
  H       0.814864      1.383320      0.875415
  C       2.180841      2.977421      0.213833
  H       2.973231      3.619488      0.675320
  H       1.322229      3.664457      0.010486
  C       2.684424      2.405811     -1.139351
  H       1.869926      1.764841     -1.559812
  H       3.548445      1.721492     -0.969157
  C       3.024227      3.535285     -2.153458
  H       3.859729      4.143681     -1.723161
  H       2.122034      4.174426     -2.265163
  C       3.456443      2.997515     -3.518311
  H       4.030040      2.048202     -3.480824
  C       3.131961      3.515358     -4.732966
  H       3.502368      2.986877     -5.635068
  C       2.325007      4.777295     -4.987068
  H       2.872700      5.453026     -5.688513
  H       2.182313      5.345919     -4.041022
  C       0.880023      4.542945     -5.557729
  H       0.439531      5.553633     -5.742007
  H       0.250319      4.040618     -4.783730
  C       0.784015      3.744831     -6.892797
  H       1.315686      2.771521     -6.780625
  H       1.278095      4.318369     -7.714268
  C      -0.694932      3.461055     -7.284825
  H      -1.284156      4.409438     -7.275836
  H      -1.119285      2.778241     -6.511971
  C      -0.868948      2.808579     -8.687649
  H      -0.317970      1.842102     -8.767225
  H      -0.390185      3.479763     -9.442699
  C      -2.350583      2.591188     -9.123063
  H      -2.366799      2.090446    -10.120818
  H      -2.843359      3.586689     -9.257768
  C      -3.222871      1.723887     -8.163891
  H      -3.038694      1.982932     -7.093563
  H      -2.893314      0.656779     -8.238004
  C      -4.734111      1.806365     -8.473261
  H      -5.329585      1.103631     -7.845791
  H      -4.950780      1.560573     -9.540836
  H      -5.131609      2.835262     -8.299771
  C      -4.394726      1.140608      3.348066
  H      -4.517710      2.251564      3.419459
  H      -5.171582      0.790179      4.066754
  C      -4.787938      0.717303      1.899002
  H      -5.902273      0.780071      1.865133
  H      -4.550083     -0.352921      1.687250
  C      -4.220233      1.613527      0.741511
  H      -3.990590      2.630055      1.144863
  H      -5.041781      1.780034      0.003233
  C      -2.998290      1.045756     -0.026855
  H      -2.058482      1.105064      0.577114
  H      -3.183679     -0.035117     -0.235968
  C      -2.748782      1.785647     -1.380150
  H      -3.609401      1.586084     -2.064431
  H      -2.725495      2.886590     -1.197419
  C      -1.457627      1.357108     -2.133561
  H      -0.573285      1.358144     -1.445144
  H      -1.213190      2.121679     -2.910778
  C      -1.559143     -0.019754     -2.796431
  H      -2.274458     -0.728258     -2.330208
  C      -0.950871     -0.391904     -3.948716
  H      -1.108099     -1.428394     -4.307302
  C       0.048236      0.455735     -4.740828
  H       0.820895      0.871666     -4.052214
  H      -0.470096      1.325110     -5.216624
  C       0.770974     -0.343736     -5.870051
  H       1.269637     -1.240229     -5.430893
  H       1.584839      0.284907     -6.305093
  C      -0.176542     -0.747897     -7.035736
  H      -1.112505     -1.189052     -6.614315
  H      -0.553008      0.184255     -7.514372
  C       0.440675     -1.684249     -8.102753
  H      -0.289088     -1.819154     -8.936927
  H       1.346130     -1.204477     -8.549837
  C       0.852617     -3.101900     -7.595313
  H       1.773684     -3.069983     -6.964602
  H       1.144332     -3.699368     -8.496404
  C      -0.252864     -3.854421     -6.826595
  H      -0.548514     -3.244635     -5.934780
  H      -1.204973     -3.944548     -7.405544
  C       0.159035     -5.263278     -6.332040
  H       0.581692     -5.819532     -7.210493
  H       1.027076     -5.208146     -5.629732
  C      -1.011049     -6.062357     -5.717031
  H      -1.349589     -5.658794     -4.734999
  H      -1.868774     -6.121751     -6.426768
  H      -0.714517     -7.123714     -5.529279
138
Coordinates from ORCA-job /wrk/rja7/qm_final_3_replicates/qm_final_1.1/qm/1/freq E -2722.559234850006
  N       2.286619     -4.984339     10.213032
  C       2.632745     -3.906763      9.137774
  H       3.197490     -4.430509      8.333238
  H       3.283296     -3.166529      9.662917
  C       1.244471     -5.968288      9.704362
  H       1.617533     -6.433516      8.766860
  H       1.087671     -6.755253     10.473070
  H       0.292733     -5.429449      9.528006
  C       1.768239     -4.339144     11.518877
  H       2.574220     -3.711233     11.943932
  H       0.905099     -3.696053     11.268927
  H       1.474528     -5.162710     12.206505
  C       3.578538     -5.739805     10.529104
  H       4.257308     -5.049057     11.069472
  H       4.061411     -6.056136      9.580292
  H       3.340469     -6.629882     11.148282
  C       1.456691     -3.094753      8.542847
  H       1.936678     -2.456495      7.759213
  H       0.709097     -3.742206      8.020834
  P       1.558165     -1.062274     10.400744
  O       2.984087     -1.578736     10.681768
  O       0.546672     -0.612513     11.445490
  O       0.735519     -2.354548      9.531612
  O       1.709770      0.091573      9.147773
  C       0.536705      0.818003      8.761874
  H       0.796714      1.906038      8.719861
  H      -0.282072      0.704334      9.515674
  C       0.020336      0.402496      7.366935
  H      -0.063380     -0.701713      7.294222
  O       0.959510      0.881565      6.346829
  C       1.483318     -0.001924      5.432317
  O       1.418698     -1.222032      5.521339
  C       2.134201      0.779960      4.280153
  H       3.179367      1.032080      4.585841
  H       1.574762      1.733502      4.177831
  C      -1.347932      1.064078      7.074978
  H      -1.345901      2.141301      7.368923
  H      -2.149027      0.551978      7.654668
  O      -1.637215      0.951691      5.645358
  C      -2.973661      1.015591      5.274916
  O      -3.883157      1.203570      6.067230
  C      -3.131803      0.809532      3.753142
  H      -2.316649      1.361916      3.231435
  H      -2.974162     -0.278915      3.555216
  C       2.160473     -0.011803      2.945245
  H       1.123597     -0.346265      2.700419
  H       2.762908     -0.937805      3.083538
  C       2.702437      0.843447      1.761893
  H       2.953124      0.180712      0.901406
  H       3.656002      1.341285      2.068395
  C       1.682367      1.928320      1.293524
  H       1.360733      2.530247      2.174331
  H       0.776265      1.411886      0.893042
  C       2.223061      2.938948      0.239420
  H       3.052433      3.533729      0.697868
  H       1.411752      3.679144      0.027682
  C       2.688426      2.337313     -1.112135
  H       1.849897      1.743524     -1.552531
  H       3.521282      1.612018     -0.950926
  C       3.117428      3.435345     -2.129204
  H       3.981805      4.001610     -1.697648
  H       2.275264      4.154239     -2.241752
  C       3.505931      2.867832     -3.492778
  H       4.053622      1.903023     -3.455360
  C       3.206162      3.387801     -4.712156
  H       3.542970      2.826362     -5.607140
  C       2.459968      4.686051     -4.982611
  H       3.038470      5.311988     -5.706497
  H       2.389727      5.283402     -4.046439
  C       1.004318      4.507149     -5.535308
  H       0.582479      5.529424     -5.697386
  H       0.374102      4.023396     -4.749535
  C       0.868524      3.718959     -6.869647
  H       1.369414      2.725999     -6.786614
  H       1.389090      4.279574     -7.684384
  C      -0.620157      3.487394     -7.256486
  H      -1.171987      4.458852     -7.226189
  H      -1.072526      2.830718     -6.476534
  C      -0.829871      2.843549     -8.657045
  H      -0.301041      1.862112     -8.710714
  H      -0.335323      3.483177     -9.428265
  C      -2.319180      2.659721     -9.077668
  H      -2.339820      2.181264    -10.086993
  H      -2.793117      3.665514     -9.201941
  C      -3.199969      1.788705     -8.132473
  H      -3.036533      2.064278     -7.063505
  H      -2.867738      0.723245     -8.206090
  C      -4.707761      1.867032     -8.468792
  H      -5.309069      1.168978     -7.841916
  H      -4.897457      1.606935     -9.537542
  H      -5.107309      2.896427     -8.306703
  C      -4.537193      1.249098      3.268824
  H      -4.634359      2.357752      3.379019
  H      -5.300674      0.846474      3.973093
  C      -4.926446      0.856627      1.811413
  H      -6.037667      0.923308      1.747581
  H      -4.683817     -0.216966      1.614948
  C      -4.304076      1.732452      0.672769
  H      -4.070170      2.748545      1.075929
  H      -5.086921      1.902578     -0.106222
  C      -3.052576      1.154579     -0.042444
  H      -2.154212      1.198164      0.621820
  H      -3.232493      0.073506     -0.258201
  C      -2.741958      1.895638     -1.374892
  H      -3.599036      1.737849     -2.075015
  H      -2.690075      2.994439     -1.183094
  C      -1.447082      1.434693     -2.107593
  H      -0.588898      1.429651     -1.386851
  H      -1.172425      2.188328     -2.883931
  C      -1.574004      0.052795     -2.752340
  H      -2.291908     -0.644693     -2.275121
  C      -0.949662     -0.359957     -3.882038
  H      -1.154235     -1.392338     -4.230039
  C       0.070747      0.439765     -4.693420
  H       0.856859      0.848939     -4.015460
  H      -0.424868      1.329694     -5.158420
  C       0.751483     -0.389295     -5.825112
  H       1.218267     -1.303533     -5.386654
  H       1.588390      0.208991     -6.257690
  C      -0.217546     -0.778233     -6.976310
  H      -1.156605     -1.213892     -6.559984
  H      -0.562099      0.158928     -7.468368
  C       0.389030     -1.726028     -8.048497
  H      -0.344787     -1.840940     -8.882651
  H       1.294521     -1.246944     -8.495914
  C       0.786344     -3.147611     -7.545120
  H       1.699555     -3.101610     -6.902781
  H       1.086939     -3.754853     -8.435043
  C      -0.331586     -3.890781     -6.780138
  H      -0.632208     -3.298304     -5.881062
  H      -1.258683     -3.949560     -7.404196
  C       0.052535     -5.316513     -6.319668
  H       0.437094     -5.901175     -7.194171
  H       0.918891     -5.262056     -5.614661
  C      -1.122879     -6.074459     -5.654240
  H      -1.423757     -5.610664     -4.686246
  H      -2.014183     -6.112700     -6.323307
  H      -0.848439     -7.134879     -5.439032
138
Coordinates from ORCA-job /wrk/rja7/qm_final_3_replicates/qm_final_1.1/qm/1/freq E -2722.562642734965
  N       2.319980     -5.030185     10.174714
  C       2.796033     -3.900841      9.191566
  H       3.391135     -4.428541      8.411726
  H       3.438220     -3.231232      9.807527
  C       1.301049     -5.947692      9.511977
  H       1.744445     -6.349263      8.575802
  H       1.054032     -6.773177     10.212033
  H       0.390692     -5.358153      9.286462
  C       1.692403     -4.457580     11.469722
  H       2.449722     -3.830408     11.977086
  H       0.836407     -3.821390     11.180827
  H       1.374260     -5.323123     12.090957
  C       3.559119     -5.837339     10.562741
  H       4.210620     -5.182743     11.175840
  H       4.095250     -6.156930      9.644893
  H       3.241012     -6.725842     11.147872
  C       1.702202     -3.020379      8.535557
  H       2.265397     -2.353404      7.833985
  H       1.021463     -3.633091      7.894533
  P       1.496497     -0.936871     10.387972
  O       2.929898     -1.303578     10.805570
  O       0.349674     -0.590878     11.318786
  O       0.858011     -2.294670      9.435730
  O       1.664909      0.225327      9.145144
  C       0.490496      0.945988      8.743238
  H       0.749263      2.033830      8.683662
  H      -0.327737      0.839542      9.496823
  C      -0.021580      0.500795      7.356094
  H      -0.107266     -0.605954      7.314074
  O       0.918669      0.943820      6.321338
  C       1.418745      0.033799      5.422050
  O       1.315314     -1.183309      5.522820
  C       2.127888      0.776141      4.279698
  H       3.175252      1.005728      4.597619
  H       1.623592      1.761260      4.171497
  C      -1.387410      1.148337      7.041118
  H      -1.378522      2.243122      7.265800
  H      -2.196297      0.692121      7.654909
  O      -1.687579      0.963889      5.617977
  C      -3.024039      1.032741      5.251960
  O      -3.930146      1.238666      6.045132
  C      -3.189467      0.823462      3.734824
  H      -2.373115      1.359600      3.197676
  H      -3.014934     -0.261956      3.527181
  C       2.139044     -0.016528      2.948188
  H       1.100782     -0.348250      2.704804
  H       2.729469     -0.951178      3.083807
  C       2.684545      0.822241      1.753180
  H       2.925228      0.133489      0.909829
  H       3.651930      1.301644      2.046212
  C       1.681113      1.912201      1.276689
  H       1.348523      2.512923      2.155709
  H       0.758646      1.412308      0.887275
  C       2.237650      2.911225      0.224311
  H       3.090549      3.478521      0.674005
  H       1.451840      3.678824      0.013731
  C       2.676839      2.295507     -1.127074
  H       1.827903      1.726507     -1.578523
  H       3.494893      1.550964     -0.973892
  C       3.158089      3.374319     -2.141251
  H       4.038821      3.913467     -1.705951
  H       2.360583      4.145304     -2.249829
  C       3.518898      2.797946     -3.504509
  H       4.069315      1.834159     -3.473409
  C       3.224607      3.322431     -4.721485
  H       3.540880      2.749651     -5.616731
  C       2.502741      4.636859     -4.988611
  H       3.084204      5.231131     -5.737461
  H       2.491962      5.251771     -4.060938
  C       1.035293      4.483853     -5.503137
  H       0.605264      5.508381     -5.625602
  H       0.426477      3.988624     -4.706521
  C       0.866636      3.722069     -6.844527
  H       1.360434      2.722513     -6.797653
  H       1.392543      4.287894     -7.653210
  C      -0.626584      3.519863     -7.220014
  H      -1.159747      4.501924     -7.164968
  H      -1.091011      2.875105     -6.436156
  C      -0.860196      2.891750     -8.620537
  H      -0.340985      1.903494     -8.666299
  H      -0.361428      3.520061     -9.398722
  C      -2.354496      2.723649     -9.023659
  H      -2.382979      2.286395    -10.052037
  H      -2.827954      3.733672     -9.112483
  C      -3.220974      1.820929     -8.099009
  H      -3.085526      2.105977     -7.028382
  H      -2.858891      0.766597     -8.177660
  C      -4.726194      1.861775     -8.461711
  H      -5.318691      1.152362     -7.839211
  H      -4.887286      1.589534     -9.531766
  H      -5.151551      2.881827     -8.309216
  C      -4.603403      1.246634      3.252213
  H      -4.708515      2.352663      3.368393
  H      -5.343855      0.800681      3.954301
  C      -4.981946      0.843579      1.796663
  H      -6.092620      0.888161      1.715197
  H      -4.715501     -0.230317      1.630893
  C      -4.356633      1.704953      0.650602
  H      -4.157906      2.737747      1.030616
  H      -5.120029      1.830736     -0.155290
  C      -3.065899      1.153517     -0.019543
  H      -2.199331      1.223237      0.683122
  H      -3.204880      0.064177     -0.224888
  C      -2.735027      1.895499     -1.343404
  H      -3.589593      1.749662     -2.049811
  H      -2.684747      2.994300     -1.148718
  C      -1.430590      1.438396     -2.064361
  H      -0.586795      1.459753     -1.326879
  H      -1.159941      2.185311     -2.848079
  C      -1.539185      0.048203     -2.687312
  H      -2.224706     -0.663745     -2.185667
  C      -0.898781     -0.378945     -3.802714
  H      -1.102962     -1.416493     -4.136627
  C       0.098403      0.420089     -4.641081
  H       0.892601      0.846288     -3.982392
  H      -0.411988      1.312184     -5.088738
  C       0.755085     -0.406401     -5.785313
  H       1.223720     -1.323349     -5.353617
  H       1.591630      0.188675     -6.223057
  C      -0.230835     -0.791922     -6.921366
  H      -1.157451     -1.248406     -6.501570
  H      -0.576324      0.146258     -7.411735
  C       0.371438     -1.724882     -8.013113
  H      -0.373870     -1.830678     -8.838989
  H       1.261301     -1.224286     -8.468535
  C       0.787348     -3.147513     -7.533948
  H       1.693439     -3.084429     -6.882235
  H       1.106157     -3.741792     -8.425150
  C      -0.328760     -3.918915     -6.787972
  H      -0.639418     -3.362650     -5.871402
  H      -1.236977     -3.955469     -7.442138
  C       0.058664     -5.359690     -6.379770
  H       0.407440     -5.942161     -7.267817
  H       0.934449     -5.307834     -5.685534
  C      -1.099122     -6.111245     -5.672223
  H      -1.366889     -5.618759     -4.708339
  H      -2.020508     -6.132953     -6.301021
  H      -0.825453     -7.169192     -5.450756
138
Coordinates from ORCA-job /wrk/rja7/qm_final_3_replicates/qm_final_1.1/qm/1/freq E -2722.564937891649
  N       2.367901     -4.926691     10.187360
  C       2.759634     -3.967012      9.008746
  H       3.259929     -4.612222      8.253099
  H       3.468617     -3.236915      9.454338
  C       1.281985     -5.906346      9.760452
  H       1.624237     -6.456906      8.859922
  H       1.085843     -6.611072     10.593495
  H       0.362915     -5.336459      9.525532
  C       1.863943     -4.139812     11.418085
  H       2.651124     -3.425125     11.725244
  H       0.967813     -3.566101     11.117674
  H       1.634758     -4.881946     12.211037
  C       3.625849     -5.692594     10.589462
  H       4.356992     -4.971177     11.003216
  H       4.051274     -6.196313      9.698726
  H       3.357742     -6.444736     11.359814
  C       1.602252     -3.170915      8.361649
  H       2.091542     -2.510924      7.599831
  H       0.928373     -3.848111      7.781642
  P       1.398779     -1.142572     10.276364
  O       2.806190     -1.539856     10.731214
  O       0.231662     -0.812924     11.180046
  O       0.763653     -2.458806      9.269389
  O       1.620407      0.046428      9.075480
  C       0.479770      0.836508      8.698161
  H       0.792120      1.910741      8.662573
  H      -0.338719      0.747431      9.452125
  C      -0.059143      0.433293      7.307861
  H      -0.187063     -0.669689      7.255998
  O       0.899733      0.860296      6.281786
  C       1.361883     -0.050150      5.369402
  O       1.206580     -1.264761      5.438537
  C       2.118783      0.682679      4.250268
  H       3.172520      0.854992      4.583502
  H       1.672061      1.698407      4.162236
  C      -1.400888      1.133402      7.005006
  H      -1.341581      2.231470      7.205206
  H      -2.212598      0.723016      7.646267
  O      -1.730385      0.932416      5.589227
  C      -3.058382      1.050115      5.233916
  O      -3.955957      1.284653      6.030657
  C      -3.244356      0.835798      3.718535
  H      -2.419943      1.350602      3.172066
  H      -3.085545     -0.252618      3.511909
  C       2.099744     -0.073272      2.897099
  H       1.051883     -0.374710      2.656287
  H       2.665949     -1.026788      3.003313
  C       2.657879      0.771802      1.715289
  H       2.869007      0.088918      0.859024
  H       3.644241      1.212966      2.005071
  C       1.692224      1.900165      1.264099
  H       1.378672      2.493819      2.155711
  H       0.748562      1.438042      0.877038
  C       2.271300      2.891476      0.220203
  H       3.154583      3.414730      0.664056
  H       1.514857      3.693059      0.032040
  C       2.676817      2.272447     -1.139991
  H       1.806559      1.735431     -1.588431
  H       3.471164      1.500724     -0.996520
  C       3.191555      3.335980     -2.151618
  H       4.092307      3.842377     -1.717086
  H       2.428516      4.142907     -2.253089
  C       3.533479      2.748112     -3.511892
  H       4.081697      1.783467     -3.477157
  C       3.244253      3.268475     -4.730618
  H       3.550206      2.682885     -5.620756
  C       2.540040      4.590870     -5.009240
  H       3.120536      5.153340     -5.782972
  H       2.560460      5.229020     -4.097251
  C       1.061817      4.457494     -5.490892
  H       0.632426      5.484523     -5.591546
  H       0.467044      3.957206     -4.686830
  C       0.862956      3.713037     -6.834957
  H       1.342805      2.705954     -6.798805
  H       1.394035      4.272216     -7.645271
  C      -0.633659      3.549209     -7.204242
  H      -1.143229      4.544009     -7.146391
  H      -1.114630      2.921571     -6.416181
  C      -0.886313      2.925820     -8.599969
  H      -0.391397      1.924506     -8.645759
  H      -0.375937      3.541734     -9.380862
  C      -2.385059      2.788867     -8.989486
  H      -2.435276      2.384442    -10.030550
  H      -2.846421      3.806936     -9.043156
  C      -3.245207      1.875097     -8.074681
  H      -3.122992      2.163827     -7.003081
  H      -2.870468      0.825823     -8.152294
  C      -4.748792      1.904569     -8.450630
  H      -5.342185      1.196933     -7.827154
  H      -4.901903      1.623112     -9.519128
  H      -5.180880      2.923163     -8.310778
  C      -4.653680      1.272847      3.238773
  H      -4.753639      2.378341      3.355736
  H      -5.393973      0.821588      3.937196
  C      -5.025862      0.872910      1.784763
  H      -6.135931      0.925091      1.698680
  H      -4.766971     -0.204244      1.629583
  C      -4.405765      1.729415      0.631577
  H      -4.236882      2.774127      0.992625
  H      -5.159506      1.821309     -0.186982
  C      -3.089244      1.194565     -0.000693
  H      -2.242405      1.286665      0.722248
  H      -3.201589      0.100303     -0.194697
  C      -2.737727      1.931720     -1.321296
  H      -3.584048      1.792969     -2.038906
  H      -2.685025      3.030666     -1.128021
  C      -1.422229      1.469472     -2.015686
  H      -0.588535      1.516129     -1.268332
  H      -1.149774      2.202782     -2.811369
  C      -1.503057      0.068315     -2.606830
  H      -2.160564     -0.650525     -2.079502
  C      -0.849889     -0.370796     -3.710465
  H      -1.030532     -1.419346     -4.022423
  C       0.114600      0.439323     -4.575461
  H       0.914727      0.887654     -3.938673
  H      -0.419140      1.320225     -5.017467
  C       0.760417     -0.382218     -5.724816
  H       1.244489     -1.290927     -5.292701
  H       1.585310      0.215733     -6.180369
  C      -0.238262     -0.775341     -6.843149
  H      -1.146336     -1.250472     -6.405033
  H      -0.604095      0.158890     -7.327315
  C       0.351352     -1.691752     -7.950357
  H      -0.413115     -1.804323     -8.757839
  H       1.218478     -1.171131     -8.426301
  C       0.804446     -3.108803     -7.493276
  H       1.711878     -3.031120     -6.845196
  H       1.133476     -3.681194     -8.394261
  C      -0.289525     -3.925495     -6.758341
  H      -0.599286     -3.403844     -5.822598
  H      -1.202311     -3.961950     -7.405879
  C       0.137159     -5.370457     -6.395917
  H       0.458275     -5.925885     -7.309540
  H       1.036076     -5.318268     -5.732088
  C      -0.977791     -6.152159     -5.659230
  H      -1.224208     -5.670559     -4.684092
  H      -1.919881     -6.176122     -6.256964
  H      -0.679437     -7.205890     -5.455139
138
Coordinates from ORCA-job /wrk/rja7/qm_final_3_replicates/qm_final_1.1/qm/1/freq E -2722.569278228339
  N       2.260410     -4.961264     10.171308
  C       2.791807     -3.880720      9.164482
  H       3.438673     -4.440875      8.454347
  H       3.385190     -3.166718      9.774339
  C       1.336512     -5.944037      9.465064
  H       1.864488     -6.386982      8.595577
  H       1.044623     -6.741186     10.178457
  H       0.434652     -5.403628      9.119704
  C       1.498001     -4.337416     11.358432
  H       2.155133     -3.597805     11.854206
  H       0.610681     -3.808355     10.966128
  H       1.212073     -5.168311     12.036883
  C       3.473846     -5.702914     10.721160
  H       4.090130     -4.992722     11.306604
  H       4.068385     -6.109875      9.879065
  H       3.127915     -6.530207     11.374671
  C       1.723773     -3.079759      8.386032
  H       2.306822     -2.404337      7.708301
  H       1.122447     -3.738967      7.712079
  P       1.451575     -1.060978     10.238171
  O       2.860408     -1.469806     10.674614
  O       0.286862     -0.754047     11.154109
  O       0.827133     -2.365771      9.218819
  O       1.664083      0.138870      9.050108
  C       0.528006      0.936996      8.678324
  H       0.852166      2.006811      8.633068
  H      -0.286404      0.857575      9.438066
  C      -0.023902      0.521174      7.296898
  H      -0.158996     -0.581324      7.260563
  O       0.939475      0.933404      6.267604
  C       1.402899      0.007597      5.372835
  O       1.239617     -1.205004      5.456659
  C       2.155800      0.719487      4.236989
  H       3.210730      0.887962      4.568049
  H       1.713045      1.734702      4.128367
  C      -1.359058      1.231809      6.989596
  H      -1.279760      2.334144      7.153678
  H      -2.162988      0.848190      7.656808
  O      -1.707252      0.989949      5.585815
  C      -3.033149      1.111876      5.236782
  O      -3.924937      1.379280      6.029700
  C      -3.231938      0.846951      3.730227
  H      -2.412767      1.349786      3.164766
  H      -3.073061     -0.247352      3.559637
  C       2.132912     -0.059719      2.896400
  H       1.084807     -0.371412      2.668373
  H       2.706838     -1.007166      3.014921
  C       2.683914      0.768607      1.701780
  H       2.893928      0.077608      0.851767
  H       3.669092      1.218570      1.982214
  C       1.715703      1.888768      1.237757
  H       1.401217      2.492161      2.122464
  H       0.775655      1.416370      0.854656
  C       2.291139      2.870114      0.182505
  H       3.175475      3.397136      0.620087
  H       1.532132      3.668192     -0.008584
  C       2.697838      2.240575     -1.173247
  H       1.826371      1.697401     -1.611709
  H       3.492537      1.471116     -1.021625
  C       3.206511      3.299060     -2.192737
  H       4.110666      3.803438     -1.762686
  H       2.442113      4.103772     -2.295795
  C       3.546320      2.703626     -3.549981
  H       4.099924      1.742268     -3.510861
  C       3.249190      3.217060     -4.769959
  H       3.553283      2.629029     -5.659095
  C       2.542728      4.537872     -5.049733
  H       3.108694      5.088779     -5.841942
  H       2.578541      5.187559     -4.146423
  C       1.052762      4.407888     -5.496143
  H       0.621676      5.435919     -5.576808
  H       0.476943      3.898270     -4.684661
  C       0.819746      3.678298     -6.843005
  H       1.290672      2.666613     -6.820353
  H       1.338723      4.238687     -7.660323
  C      -0.685304      3.537460     -7.183721
  H      -1.180120      4.538377     -7.109643
  H      -1.160101      2.908816     -6.392662
  C      -0.974852      2.932950     -8.580092
  H      -0.497457      1.925055     -8.655073
  H      -0.473786      3.555964     -9.361686
  C      -2.484271      2.821959     -8.933509
  H      -2.573251      2.451902     -9.984616
  H      -2.937530      3.845178     -8.938015
  C      -3.323081      1.889269     -8.018648
  H      -3.179564      2.158943     -6.944458
  H      -2.945698      0.842830     -8.120325
  C      -4.834335      1.921447     -8.361009
  H      -5.414211      1.206272     -7.733438
  H      -5.013362      1.653389     -9.428994
  H      -5.263878      2.938108     -8.200571
  C      -4.644046      1.263873      3.245772
  H      -4.754001      2.370768      3.339808
  H      -5.384226      0.827798      3.953984
  C      -5.013609      0.837331      1.798936
  H      -6.124392      0.887855      1.714704
  H      -4.755245     -0.241501      1.657054
  C      -4.402728      1.682847      0.634146
  H      -4.265706      2.738800      0.975124
  H      -5.150705      1.738024     -0.192819
  C      -3.066196      1.165707      0.031154
  H      -2.230485      1.284752      0.764088
  H      -3.154563      0.067302     -0.150722
  C      -2.705910      1.896294     -1.291944
  H      -3.541701      1.747684     -2.019654
  H      -2.662580      2.996283     -1.102736
  C      -1.378273      1.442063     -1.966655
  H      -0.548945      1.511666     -1.216410
  H      -1.110248      2.168292     -2.770676
  C      -1.429271      0.033543     -2.541725
  H      -2.064636     -0.695122     -2.000760
  C      -0.777676     -0.398249     -3.649400
  H      -0.929950     -1.454236     -3.950854
  C       0.150154      0.434396     -4.533240
  H       0.961236      0.889687     -3.915630
  H      -0.408763      1.308159     -4.956257
  C       0.777245     -0.369264     -5.704979
  H       1.282287     -1.275411     -5.291973
  H       1.582724      0.240175     -6.180055
  C      -0.247741     -0.760789     -6.799311
  H      -1.134558     -1.252507     -6.335866
  H      -0.643373      0.174465     -7.257908
  C       0.314810     -1.656513     -7.935245
  H      -0.475902     -1.773564     -8.716277
  H       1.157205     -1.119346     -8.436605
  C       0.804907     -3.071759     -7.511936
  H       1.726685     -2.992479     -6.885095
  H       1.122055     -3.620034     -8.432290
  C      -0.256026     -3.925340     -6.770041
  H      -0.543442     -3.430977     -5.812119
  H      -1.190865     -3.962771     -7.384446
  C       0.206841     -5.371497     -6.455520
  H       0.498822     -5.891767     -7.399728
  H       1.134783     -5.327811     -5.832648
  C      -0.867420     -6.194648     -5.705495
  H      -1.090814     -5.749648     -4.707493
  H      -1.826403     -6.221113     -6.275525
  H      -0.543754     -7.247995     -5.541621
138
Coordinates from ORCA-job /wrk/rja7/qm_final_3_replicates/qm_final_1.1/qm/1/freq E -2722.570973219650
  N       2.294013     -4.928744     10.153315
  C       2.796846     -3.852222      9.124418
  H       3.416327     -4.421150      8.395014
  H       3.414693     -3.143114      9.714128
  C       1.340434     -5.909156      9.485156
  H       1.834674     -6.353702      8.596476
  H       1.073319     -6.705262     10.210333
  H       0.428094     -5.365114      9.174841
  C       1.588636     -4.299702     11.372706
  H       2.266684     -3.547485     11.819857
  H       0.675300     -3.783425     11.026494
  H       1.351779     -5.125590     12.076651
  C       3.524918     -5.672695     10.655412
  H       4.174196     -4.956028     11.196431
  H       4.073401     -6.099857      9.791343
  H       3.205064     -6.485210     11.340794
  C       1.712110     -3.043189      8.372095
  H       2.282630     -2.358623      7.691708
  H       1.114587     -3.702825      7.695251
  P       1.382092     -1.026832     10.243252
  O       2.791315     -1.404127     10.706749
  O       0.193299     -0.750485     11.138959
  O       0.801293     -2.344439      9.209376
  O       1.590026      0.181222      9.063314
  C       0.447898      0.965050      8.678785
  H       0.764260      2.036636      8.630483
  H      -0.370515      0.880442      9.434172
  C      -0.090555      0.539293      7.293819
  H      -0.225406     -0.563076      7.263848
  O       0.882736      0.943149      6.268969
  C       1.356100      0.012104      5.384054
  O       1.182270     -1.198694      5.468134
  C       2.131057      0.714176      4.256226
  H       3.183545      0.870276      4.601188
  H       1.703511      1.734686      4.139668
  C      -1.418572      1.249909      6.964832
  H      -1.330985      2.355232      7.101153
  H      -2.229243      0.888683      7.636550
  O      -1.760556      0.977494      5.565758
  C      -3.082165      1.108954      5.205090
  O      -3.974896      1.409627      5.984946
  C      -3.273219      0.820907      3.702598
  H      -2.452140      1.316985      3.133903
  H      -3.109348     -0.275165      3.549261
  C       2.115858     -0.068825      2.917527
  H       1.068138     -0.373883      2.679766
  H       2.680982     -1.020351      3.046030
  C       2.689571      0.746339      1.723073
  H       2.899559      0.045811      0.880822
  H       3.678166      1.184525      2.010603
  C       1.742306      1.877134      1.238563
  H       1.427100      2.493475      2.113975
  H       0.799031      1.416520      0.850412
  C       2.340025      2.837442      0.176025
  H       3.235452      3.350219      0.608416
  H       1.597841      3.649103     -0.023366
  C       2.730234      2.185663     -1.174604
  H       1.845952      1.657247     -1.605447
  H       3.508268      1.400651     -1.016817
  C       3.260545      3.221827     -2.206930
  H       4.183023      3.701866     -1.787601
  H       2.519637      4.047944     -2.309371
  C       3.570611      2.607076     -3.563142
  H       4.096794      1.630353     -3.522315
  C       3.277267      3.119138     -4.785294
  H       3.557549      2.515553     -5.672022
  C       2.605122      4.456787     -5.071012
  H       3.172154      4.977473     -5.882524
  H       2.678429      5.118309     -4.178635
  C       1.104123      4.364393     -5.489477
  H       0.696533      5.402593     -5.562116
  H       0.530997      3.868380     -4.667790
  C       0.830313      3.638560     -6.831572
  H       1.266435      2.611347     -6.810352
  H       1.360325      4.178426     -7.655745
  C      -0.682482      3.548894     -7.156675
  H      -1.140037      4.566700     -7.074254
  H      -1.172079      2.935937     -6.362371
  C      -1.009147      2.962139     -8.553290
  H      -0.566255      1.939537     -8.640949
  H      -0.498334      3.574601     -9.337111
  C      -2.526158      2.900876     -8.886875
  H      -2.642050      2.563564     -9.946481
  H      -2.952387      3.935258     -8.855038
  C      -3.373648      1.964477     -7.983732
  H      -3.223976      2.218599     -6.906929
  H      -3.007460      0.915132     -8.100623
  C      -4.885672      2.018117     -8.318954
  H      -5.471757      1.305767     -7.693858
  H      -5.072493      1.760321     -9.388182
  H      -5.301239      3.039047     -8.148358
  C      -4.684554      1.225709      3.205443
  H      -4.802338      2.332349      3.294476
  H      -5.426285      0.788127      3.911246
  C      -5.042078      0.788009      1.757861
  H      -6.152497      0.834132      1.664608
  H      -4.779015     -0.290999      1.624512
  C      -4.425637      1.627359      0.593565
  H      -4.329490      2.693378      0.917374
  H      -5.153461      1.643327     -0.253073
  C      -3.059026      1.140681      0.034534
  H      -2.249122      1.289189      0.790504
  H      -3.113148      0.038577     -0.138055
  C      -2.679550      1.867329     -1.284727
  H      -3.497584      1.704900     -2.029503
  H      -2.653204      2.968745     -1.100055
  C      -1.331369      1.429047     -1.928940
  H      -0.517206      1.528455     -1.165652
  H      -1.064335      2.149023     -2.738653
  C      -1.342418      0.011118     -2.483748
  H      -1.949522     -0.730075     -1.927299
  C      -0.692965     -0.413937     -3.595297
  H      -0.814538     -1.478463     -3.880835
  C       0.194037      0.435985     -4.503683
  H       1.022875      0.893848     -3.912489
  H      -0.389814      1.307688     -4.895401
  C       0.783254     -0.350827     -5.706259
  H       1.309874     -1.257298     -5.321595
  H       1.565640      0.269436     -6.205613
  C      -0.283545     -0.744368     -6.759947
  H      -1.141970     -1.253602     -6.262154
  H      -0.711554      0.190262     -7.190520
  C       0.239558     -1.623330     -7.928754
  H      -0.584704     -1.745744     -8.673667
  H       1.050979     -1.071082     -8.464197
  C       0.767005     -3.034773     -7.540252
  H       1.709373     -2.947491     -6.946094
  H       1.058667     -3.568722     -8.477539
  C      -0.252261     -3.911965     -6.767988
  H      -0.500787     -3.438013     -5.788407
  H      -1.212601     -3.945817     -7.341730
  C       0.237017     -5.359300     -6.504925
  H       0.482800     -5.856581     -7.474780
  H       1.196658     -5.320672     -5.931706
  C      -0.791334     -6.210594     -5.720862
  H      -0.973139     -5.786389     -4.705285
  H      -1.776151     -6.239250     -6.244768
  H      -0.447203     -7.262356     -5.591581
138
Coordinates from ORCA-job /wrk/rja7/qm_final_3_replicates/qm_final_1.1/qm/1/freq E -2722.572223979832
  N       2.305450     -4.880198     10.168991
  C       2.801722     -3.825408      9.115421
  H       3.421211     -4.405502      8.393717
  H       3.416680     -3.101838      9.689611
  C       1.355073     -5.877750      9.525565
  H       1.849099     -6.342153      8.646644
  H       1.093025     -6.658744     10.269421
  H       0.439441     -5.344002      9.206503
  C       1.605280     -4.224851     11.376749
  H       2.273929     -3.440312     11.781783
  H       0.672842     -3.741477     11.033832
  H       1.401964     -5.030062     12.114975
  C       3.541104     -5.606349     10.682392
  H       4.199636     -4.868889     11.183516
  H       4.076509     -6.068728      9.827720
  H       3.232233     -6.390375     11.405393
  C       1.706840     -3.041794      8.349821
  H       2.269896     -2.359200      7.660983
  H       1.125665     -3.721805      7.678763
  P       1.321244     -1.029436     10.219802
  O       2.726027     -1.393612     10.708931
  O       0.112227     -0.774830     11.096745
  O       0.775170     -2.353118      9.173354
  O       1.535049      0.185964      9.051021
  C       0.394599      0.968154      8.658444
  H       0.714369      2.038232      8.608850
  H      -0.426425      0.883777      9.411316
  C      -0.138782      0.539474      7.271514
  H      -0.279381     -0.562128      7.245047
  O       0.844180      0.935070      6.250562
  C       1.323267     -0.000106      5.373120
  O       1.142919     -1.209694      5.457895
  C       2.124428      0.692728      4.257698
  H       3.174738      0.826392      4.618727
  H       1.717355      1.720728      4.135774
  C      -1.456428      1.258793      6.927398
  H      -1.352443      2.365209      7.038910
  H      -2.272286      0.921373      7.605422
  O      -1.798005      0.960688      5.534372
  C      -3.113509      1.112176      5.163978
  O      -4.003656      1.448816      5.932172
  C      -3.303215      0.791101      3.668122
  H      -2.481311      1.277643      3.092055
  H      -3.137061     -0.307590      3.539243
  C       2.111628     -0.089473      2.918665
  H       1.061770     -0.379203      2.671663
  H       2.661979     -1.049001      3.052441
  C       2.711068      0.713865      1.729188
  H       2.909457      0.009585      0.887252
  H       3.707563      1.130275      2.022051
  C       1.792659      1.866919      1.239568
  H       1.493278      2.495594      2.111688
  H       0.838640      1.427838      0.853407
  C       2.410078      2.803731      0.166663
  H       3.323964      3.293712      0.586989
  H       1.688462      3.634075     -0.031031
  C       2.767494      2.131635     -1.184031
  H       1.863099      1.625689     -1.599077
  H       3.524020      1.325709     -1.027910
  C       3.315738      3.145895     -2.229896
  H       4.262080      3.591741     -1.826115
  H       2.602091      3.996247     -2.323669
  C       3.584882      2.516262     -3.588621
  H       4.073680      1.520101     -3.552733
  C       3.294545      3.034703     -4.809177
  H       3.542880      2.418199     -5.696597
  C       2.661445      4.391448     -5.093317
  H       3.226407      4.882676     -5.924033
  H       2.773961      5.060362     -4.210535
  C       1.149961      4.341888     -5.481427
  H       0.770178      5.390713     -5.550476
  H       0.578715      3.863357     -4.648334
  C       0.833975      3.614841     -6.814452
  H       1.232915      2.573376     -6.785885
  H       1.374227      4.127908     -7.649038
  C      -0.684550      3.576019     -7.123838
  H      -1.102199      4.610867     -7.044495
  H      -1.189947      2.986787     -6.321436
  C      -1.045577      2.995640     -8.515358
  H      -0.643230      1.956646     -8.607192
  H      -0.521044      3.589287     -9.304492
  C      -2.567406      2.987019     -8.832007
  H      -2.709670      2.675352     -9.896302
  H      -2.962268      4.032404     -8.771382
  C      -3.426522      2.057224     -7.933310
  H      -3.273102      2.306796     -6.856186
  H      -3.070482      1.003955     -8.052637
  C      -4.938056      2.128497     -8.265346
  H      -5.532078      1.426918     -7.635561
  H      -5.130910      1.868264     -9.332913
  H      -5.340067      3.155645     -8.098574
  C      -4.713972      1.183395      3.160744
  H      -4.839776      2.290014      3.240281
  H      -5.457559      0.750776      3.867954
  C      -5.064703      0.729395      1.715688
  H      -6.175191      0.773345      1.618816
  H      -4.800284     -0.350397      1.590562
  C      -4.449346      1.560403      0.547404
  H      -4.397196      2.636201      0.848717
  H      -5.158986      1.531526     -0.314421
  C      -3.055574      1.107612      0.030219
  H      -2.270049      1.289360      0.804400
  H      -3.074025      0.002553     -0.129604
  C      -2.660476      1.828944     -1.286869
  H      -3.458352      1.648833     -2.049175
  H      -2.653878      2.931831     -1.108849
  C      -1.289757      1.412238     -1.895787
  H      -0.493508      1.548433     -1.119940
  H      -1.025938      2.124912     -2.712544
  C      -1.249022     -0.015061     -2.424760
  H      -1.811097     -0.772191     -1.842926
  C      -0.607616     -0.430037     -3.544827
  H      -0.681326     -1.504958     -3.807439
  C       0.215989      0.444129     -4.488948
  H       1.064369      0.913628     -3.936931
  H      -0.405404      1.305303     -4.842875
  C       0.759591     -0.322070     -5.725475
  H       1.320068     -1.221807     -5.374332
  H       1.505256      0.315372     -6.258090
  C      -0.355701     -0.732049     -6.722449
  H      -1.169065     -1.266829     -6.177395
  H      -0.832774      0.195327     -7.117461
  C       0.120802     -1.591179     -7.925477
  H      -0.742239     -1.735288     -8.621348
  H       0.884900     -1.016741     -8.505655
  C       0.708467     -2.988024     -7.574384
  H       1.674578     -2.877013     -7.024017
  H       0.971167     -3.506649     -8.528871
  C      -0.245343     -3.899871     -6.760102
  H      -0.451168     -3.442447     -5.761999
  H      -1.235375     -3.952036     -7.279059
  C       0.295125     -5.336586     -6.545244
  H       0.490395     -5.811103     -7.538408
  H       1.289334     -5.283625     -6.035852
  C      -0.662380     -6.228950     -5.718153
  H      -0.800170     -5.826126     -4.686820
  H      -1.672967     -6.281441     -6.187956
  H      -0.280228     -7.271404     -5.623814
138
Coordinates from ORCA-job /wrk/rja7/qm_final_3_replicates/qm_final_1.1/qm/1/freq E -2722.573197833984
  N       2.328547     -4.849959     10.125639
  C       2.812987     -3.800993      9.059891
  H       3.426944     -4.383742      8.335391
  H       3.430498     -3.072308      9.624428
  C       1.369063     -5.848239      9.499642
  H       1.850508     -6.319926      8.617273
  H       1.117140     -6.624645     10.252020
  H       0.449508     -5.314011      9.192458
  C       1.645565     -4.190429     11.341232
  H       2.306257     -3.382899     11.713877
  H       0.692500     -3.732423     11.019871
  H       1.480792     -4.988281     12.097196
  C       3.571032     -5.574508     10.624611
  H       4.246916     -4.829975     11.091698
  H       4.082215     -6.060395      9.767845
  H       3.276744     -6.339489     11.373815
  C       1.705381     -3.033056      8.295653
  H       2.258309     -2.340502      7.608585
  H       1.139190     -3.722707      7.621486
  P       1.276782     -1.036738     10.172257
  O       2.682429     -1.386528     10.673276
  O       0.055207     -0.804417     11.040383
  O       0.758414     -2.366221      9.116940
  O       1.485595      0.187472      9.014185
  C       0.339566      0.959731      8.617918
  H       0.652904      2.031631      8.569696
  H      -0.481661      0.865880      9.369325
  C      -0.187835      0.529504      7.228850
  H      -0.323477     -0.572875      7.199900
  O       0.799522      0.931253      6.212096
  C       1.301172     -0.001055      5.343767
  O       1.129850     -1.211958      5.427515
  C       2.116914      0.695699      4.240876
  H       3.162011      0.823509      4.618808
  H       1.714280      1.724841      4.114884
  C      -1.505052      1.246839      6.881092
  H      -1.393299      2.354282      6.972235
  H      -2.319265      0.925157      7.568824
  O      -1.856459      0.927933      5.495693
  C      -3.165854      1.116334      5.120967
  O      -4.042874      1.505218      5.879709
  C      -3.363145      0.772702      3.631276
  H      -2.533314      1.238161      3.050481
  H      -3.213386     -0.330161      3.520858
  C       2.122881     -0.085094      2.900241
  H       1.076635     -0.376266      2.639423
  H       2.673811     -1.043446      3.040341
  C       2.738615      0.718318      1.719166
  H       2.944251      0.014747      0.878380
  H       3.732498      1.133207      2.022887
  C       1.826363      1.873130      1.221409
  H       1.520329      2.500843      2.091733
  H       0.876165      1.434170      0.826787
  C       2.448262      2.811890      0.151823
  H       3.361953      3.300655      0.573999
  H       1.726756      3.642777     -0.044295
  C       2.805032      2.146077     -1.203067
  H       1.899339      1.641592     -1.617955
  H       3.562624      1.340337     -1.051502
  C       3.353493      3.170637     -2.240935
  H       4.303724      3.604576     -1.833447
  H       2.642924      4.024760     -2.321208
  C       3.621868      2.560759     -3.609620
  H       4.106190      1.562002     -3.590833
  C       3.334001      3.099076     -4.822441
  H       3.583075      2.496021     -5.718637
  C       2.690712      4.454667     -5.086087
  H       3.237794      4.955112     -5.923052
  H       2.810894      5.118034     -4.200147
  C       1.173841      4.392396     -5.452445
  H       0.778046      5.436386     -5.498391
  H       0.623077      3.891033     -4.619601
  C       0.849310      3.678946     -6.791461
  H       1.263384      2.644237     -6.780480
  H       1.370130      4.210604     -7.626720
  C      -0.673435      3.616744     -7.077260
  H      -1.103564      4.645359     -6.985597
  H      -1.157225      3.014584     -6.270048
  C      -1.047671      3.040610     -8.468048
  H      -0.644006      2.003145     -8.571862
  H      -0.534795      3.641888     -9.259324
  C      -2.573423      3.029047     -8.767029
  H      -2.729208      2.745799     -9.837233
  H      -2.974503      4.069185     -8.670234
  C      -3.411386      2.069948     -7.879392
  H      -3.267528      2.317285     -6.800433
  H      -3.025226      1.028002     -8.003519
  C      -4.923248      2.102032     -8.213843
  H      -5.500665      1.388482     -7.582076
  H      -5.107840      1.832914     -9.280669
  H      -5.351243      3.119477     -8.051525
  C      -4.765299      1.181597      3.114944
  H      -4.877566      2.289968      3.191036
  H      -5.519200      0.764116      3.820736
  C      -5.117938      0.725970      1.669871
  H      -6.226638      0.797117      1.566559
  H      -4.879297     -0.360507      1.550008
  C      -4.477241      1.534298      0.500535
  H      -4.449273      2.617912      0.776245
  H      -5.160898      1.472247     -0.380655
  C      -3.063594      1.087786      0.034251
  H      -2.305589      1.279644      0.833068
  H      -3.070031     -0.018272     -0.118919
  C      -2.624482      1.803410     -1.271787
  H      -3.398448      1.629401     -2.059610
  H      -2.613712      2.906061     -1.091925
  C      -1.235411      1.379921     -1.834095
  H      -0.463658      1.528281     -1.035692
  H      -0.947721      2.082591     -2.650885
  C      -1.174151     -0.055310     -2.339374
  H      -1.710695     -0.812721     -1.734180
  C      -0.532184     -0.482584     -3.455119
  H      -0.578288     -1.566380     -3.686797
  C       0.284095      0.379159     -4.417714
  H       1.156235      0.826012     -3.885073
  H      -0.326832      1.255253     -4.754814
  C       0.785406     -0.395100     -5.667147
  H       1.320182     -1.315016     -5.329312
  H       1.545810      0.221418     -6.202441
  C      -0.355334     -0.764655     -6.652764
  H      -1.168763     -1.290141     -6.098906
  H      -0.819915      0.179481     -7.024305
  C       0.086679     -1.615809     -7.874998
  H      -0.788757     -1.740828     -8.559218
  H       0.850779     -1.047312     -8.461010
  C       0.660120     -3.023760     -7.547272
  H       1.628982     -2.929771     -6.998435
  H       0.913515     -3.532831     -8.509399
  C      -0.298873     -3.934056     -6.737894
  H      -0.491990     -3.484762     -5.732990
  H      -1.294115     -3.968860     -7.248195
  C       0.228134     -5.378243     -6.545614
  H       0.399272     -5.842680     -7.548534
  H       1.232101     -5.343503     -6.054483
  C      -0.727029     -6.270811     -5.716194
  H      -0.852617     -5.877412     -4.679551
  H      -1.741984     -6.314444     -6.177073
  H      -0.349908     -7.316263     -5.634075
138
Coordinates from ORCA-job /wrk/rja7/qm_final_3_replicates/qm_final_1.1/qm/1/freq E -2722.574134086979
  N       2.363825     -4.762706     10.101431
  C       2.863860     -3.694390      9.059770
  H       3.498124     -4.264198      8.343071
  H       3.461595     -2.967989      9.647394
  C       1.414702     -5.749622      9.443069
  H       1.908629     -6.207730      8.560102
  H       1.154014     -6.537687     10.180202
  H       0.499538     -5.208486      9.134600
  C       1.657088     -4.131129     11.319518
  H       2.283044     -3.295149     11.691044
  H       0.685670     -3.709122     11.001618
  H       1.523394     -4.936806     12.073333
  C       3.600888     -5.494111     10.605932
  H       4.281716     -4.750319     11.067736
  H       4.108679     -5.991883      9.754021
  H       3.302367     -6.249846     11.362892
  C       1.761891     -2.941060      8.273471
  H       2.318603     -2.215842      7.624379
  H       1.245792     -3.631924      7.561229
  P       1.211372     -0.980026     10.145527
  O       2.618126     -1.283912     10.676969
  O      -0.040004     -0.797255     10.984946
  O       0.767532     -2.323733      9.070125
  O       1.406700      0.256086      9.001177
  C       0.247472      1.000980      8.589498
  H       0.543052      2.077182      8.526129
  H      -0.573460      0.899635      9.339630
  C      -0.266676      0.540651      7.205527
  H      -0.391023     -0.563912      7.194026
  O       0.725700      0.930462      6.187255
  C       1.252323     -0.019405      5.353409
  O       1.078530     -1.228429      5.458055
  C       2.092287      0.652378      4.253604
  H       3.137246      0.752185      4.640272
  H       1.720253      1.691814      4.118240
  C      -1.585860      1.241819      6.835346
  H      -1.471266      2.351766      6.884309
  H      -2.401155      0.948951      7.534693
  O      -1.939027      0.875894      5.461952
  C      -3.237176      1.102287      5.067270
  O      -4.104077      1.552989      5.803353
  C      -3.430983      0.713014      3.588666
  H      -2.608911      1.178742      2.998999
  H      -3.257832     -0.388810      3.506826
  C       2.087955     -0.140539      2.919753
  H       1.036149     -0.395351      2.645850
  H       2.600503     -1.117292      3.077479
  C       2.752122      0.623960      1.739400
  H       2.929921     -0.096759      0.906699
  H       3.762573      0.992722      2.047760
  C       1.900433      1.817305      1.224405
  H       1.632699      2.476310      2.083999
  H       0.925409      1.423863      0.841320
  C       2.562560      2.698165      0.131531
  H       3.511104      3.138408      0.529245
  H       1.889468      3.567493     -0.070782
  C       2.850639      1.985505     -1.215173
  H       1.907100      1.524694     -1.597134
  H       3.566124      1.142025     -1.063309
  C       3.438435      2.956956     -2.283180
  H       4.429230      3.324378     -1.908365
  H       2.789378      3.859616     -2.353170
  C       3.627767      2.315984     -3.650251
  H       4.044789      1.287345     -3.633735
  C       3.352299      2.861727     -4.862162
  H       3.545887      2.235527     -5.755900
  C       2.785892      4.250262     -5.128701
  H       3.334540      4.702929     -5.991409
  H       2.973912      4.919144     -4.258897
  C       1.256993      4.270214     -5.450024
  H       0.916422      5.333864     -5.482547
  H       0.704792      3.795796     -4.603141
  C       0.858688      3.574045     -6.777696
  H       1.192810      2.510868     -6.762983
  H       1.407449      4.057588     -7.624120
  C      -0.668136      3.625121     -7.045677
  H      -1.014055      4.686360     -6.968829
  H      -1.191870      3.077578     -6.225228
  C      -1.094083      3.055072     -8.423067
  H      -0.776181      1.986121     -8.507647
  H      -0.537168      3.599449     -9.224638
  C      -2.617550      3.159625     -8.717017
  H      -2.798277      2.907849     -9.790877
  H      -2.940258      4.224281     -8.597582
  C      -3.516596      2.250381     -7.836998
  H      -3.378502      2.505452     -6.758757
  H      -3.177185      1.190475     -7.942426
  C      -5.019604      2.351468     -8.195155
  H      -5.641736      1.685898     -7.553542
  H      -5.202953      2.063829     -9.257379
  H      -5.396564      3.393380     -8.064616
  C      -4.837320      1.085593      3.057787
  H      -4.975915      2.191526      3.124410
  H      -5.585920      0.657112      3.763257
  C      -5.175266      0.606230      1.615797
  H      -6.284703      0.659397      1.508470
  H      -4.919862     -0.477735      1.506980
  C      -4.547824      1.409808      0.436727
  H      -4.618192      2.503353      0.661080
  H      -5.186900      1.252043     -0.466177
  C      -3.086600      1.057928      0.039742
  H      -2.378610      1.321717      0.862263
  H      -3.007863     -0.048776     -0.086297
  C      -2.640405      1.776480     -1.261948
  H      -3.367365      1.543701     -2.078569
  H      -2.706039      2.879879     -1.098033
  C      -1.200380      1.439825     -1.757617
  H      -0.475030      1.677078     -0.936605
  H      -0.934375      2.133059     -2.588941
  C      -1.008530     -0.004699     -2.199145
  H      -1.426704     -0.781626     -1.528849
  C      -0.368090     -0.424515     -3.319376
  H      -0.302908     -1.519533     -3.488257
  C       0.324105      0.455715     -4.360173
  H       1.230131      0.929921     -3.914121
  H      -0.339971      1.311351     -4.640759
  C       0.729964     -0.310875     -5.648615
  H       1.317117     -1.213859     -5.356182
  H       1.424120      0.322467     -6.249898
  C      -0.484925     -0.720143     -6.525775
  H      -1.212967     -1.290619     -5.902200
  H      -1.025349      0.208229     -6.831583
  C      -0.121661     -1.528218     -7.802892
  H      -1.050803     -1.693564     -8.402796
  H       0.548082     -0.907792     -8.448425
  C       0.562094     -2.904472     -7.561241
  H       1.558720     -2.758461     -7.077062
  H       0.780988     -3.369181     -8.553577
  C      -0.273394     -3.900458     -6.715769
  H      -0.423880     -3.492869     -5.685912
  H      -1.297964     -3.990383     -7.156792
  C       0.364345     -5.308651     -6.611403
  H       0.484728     -5.733345     -7.639301
  H       1.399123     -5.215365     -6.198579
  C      -0.458217     -6.291273     -5.742318
  H      -0.543092     -5.930694     -4.689687
  H      -1.496073     -6.407569     -6.134332
  H       0.005698     -7.304181     -5.712244
138
Coordinates from ORCA-job /wrk/rja7/qm_final_3_replicates/qm_final_1.1/qm/1/freq E -2722.575388885318
  N       2.210894     -4.781586     10.067287
  C       2.817990     -3.743775      9.052189
  H       3.430141     -4.351187      8.347284
  H       3.448324     -3.067706      9.664398
  C       1.191633     -5.673942      9.376567
  H       1.660213     -6.160695      8.495379
  H       0.850430     -6.446969     10.096720
  H       0.333098     -5.050400      9.061563
  C       1.537699     -4.107290     11.282196
  H       2.212851     -3.313313     11.660689
  H       0.600324     -3.620112     10.955342
  H       1.340942     -4.903030     12.032345
  C       3.371662     -5.623603     10.581079
  H       4.111769     -4.946151     11.053536
  H       3.841439     -6.162005      9.732306
  H       2.998794     -6.352050     11.331616
  C       1.790376     -2.911902      8.245478
  H       2.409474     -2.202038      7.637427
  H       1.266550     -3.556644      7.496828
  P       1.281971     -0.929375     10.096798
  O       2.689029     -1.261511     10.612034
  O       0.042855     -0.718212     10.948349
  O       0.802997     -2.264530      9.025730
  O       1.490788      0.302034      8.951265
  C       0.336637      1.055557      8.538199
  H       0.644737      2.126876      8.456344
  H      -0.477547      0.973634      9.297797
  C      -0.198175      0.582855      7.165995
  H      -0.330364     -0.520682      7.166569
  O       0.780730      0.953076      6.127996
  C       1.292510     -0.011020      5.301645
  O       1.104347     -1.216986      5.416571
  C       2.152760      0.640486      4.205998
  H       3.201362      0.697537      4.591694
  H       1.818092      1.693455      4.080664
  C      -1.514973      1.288698      6.802668
  H      -1.386150      2.398162      6.817361
  H      -2.320685      1.027640      7.525500
  O      -1.893434      0.885078      5.447111
  C      -3.183226      1.153379      5.051126
  O      -4.026594      1.661548      5.776667
  C      -3.401176      0.709666      3.592228
  H      -2.593548      1.164562      2.973771
  H      -3.216064     -0.392000      3.543613
  C       2.120445     -0.140152      2.865236
  H       1.060628     -0.355346      2.587066
  H       2.598186     -1.135524      3.015028
  C       2.812465      0.614023      1.694810
  H       2.959324     -0.100463      0.850689
  H       3.837248      0.936939      2.006860
  C       2.007398      1.847047      1.199011
  H       1.779369      2.511653      2.065645
  H       1.011350      1.498768      0.824542
  C       2.695523      2.706625      0.106521
  H       3.670932      3.095012      0.493018
  H       2.062438      3.610192     -0.074123
  C       2.926058      1.999670     -1.253991
  H       1.958930      1.575191     -1.615832
  H       3.616912      1.131057     -1.131661
  C       3.517674      2.967715     -2.322279
  H       4.530504      3.293876     -1.969105
  H       2.899524      3.893801     -2.357829
  C       3.650569      2.348634     -3.704941
  H       4.051512      1.313748     -3.722889
  C       3.347622      2.923087     -4.896015
  H       3.511861      2.314790     -5.807810
  C       2.773197      4.316458     -5.117093
  H       3.298211      4.789491     -5.983482
  H       2.979909      4.968421     -4.238754
  C       1.236461      4.331416     -5.404064
  H       0.886206      5.392568     -5.409218
  H       0.705430      3.834636     -4.556054
  C       0.823701      3.653081     -6.735664
  H       1.161662      2.589870     -6.737831
  H       1.363988      4.148182     -7.580735
  C      -0.704108      3.697370     -6.998262
  H      -1.058260      4.756598     -6.929131
  H      -1.226337      3.150953     -6.177605
  C      -1.114487      3.111083     -8.372212
  H      -0.777576      2.046680     -8.443140
  H      -0.557734      3.656810     -9.171672
  C      -2.636945      3.183202     -8.679731
  H      -2.801802      2.935749     -9.756887
  H      -2.985947      4.239019     -8.554088
  C      -3.520791      2.246525     -7.813122
  H      -3.415710      2.516093     -6.734721
  H      -3.139107      1.199305     -7.901686
  C      -5.018570      2.289718     -8.203050
  H      -5.630373      1.613531     -7.562571
  H      -5.170351      1.978830     -9.263732
  H      -5.434013      3.319633     -8.096766
  C      -4.818597      1.052644      3.072820
  H      -4.970049      2.158217      3.110500
  H      -5.551506      0.635023      3.801409
  C      -5.175201      0.527031      1.652149
  H      -6.287087      0.562987      1.564847
  H      -4.907583     -0.556134      1.566720
  C      -4.586230      1.306159      0.439126
  H      -4.729921      2.403201      0.604254
  H      -5.204303      1.060132     -0.458914
  C      -3.103203      1.026590      0.068476
  H      -2.418134      1.364054      0.882881
  H      -2.958637     -0.077743     -0.013724
  C      -2.685657      1.723027     -1.254147
  H      -3.383574      1.417695     -2.071884
  H      -2.822451      2.825301     -1.129910
  C      -1.217780      1.463369     -1.714651
  H      -0.525482      1.785538     -0.895281
  H      -0.984749      2.136116     -2.571545
  C      -0.917449      0.018843     -2.087087
  H      -1.230914     -0.751095     -1.354534
  C      -0.289495     -0.406812     -3.211724
  H      -0.129073     -1.499767     -3.324283
  C       0.270500      0.468780     -4.331592
  H       1.188478      0.993094     -3.975453
  H      -0.448898      1.286290     -4.578299
  C       0.606708     -0.314465     -5.629467
  H       1.257849     -1.181180     -5.363153
  H       1.222820      0.332850     -6.298515
  C      -0.654214     -0.800124     -6.394957
  H      -1.285773     -1.414604     -5.710110
  H      -1.276220      0.093747     -6.644081
  C      -0.360139     -1.575381     -7.709481
  H      -1.328745     -1.805176     -8.218309
  H       0.195135     -0.902166     -8.408282
  C       0.446219     -2.896970     -7.555375
  H       1.463993     -2.678398     -7.148872
  H       0.621113     -3.324239     -8.572936
  C      -0.234124     -3.974167     -6.671368
  H      -0.339728     -3.597696     -5.624314
  H      -1.277692     -4.147395     -7.036716
  C       0.530041     -5.322373     -6.647852
  H       0.611240     -5.717128     -7.691198
  H       1.579940     -5.144050     -6.307721
  C      -0.136264     -6.390486     -5.746778
  H      -0.185729     -6.053851     -4.684115
  H      -1.181638     -6.602345     -6.073804
  H       0.423593     -7.354039     -5.766348
138
Coordinates from ORCA-job /wrk/rja7/qm_final_3_replicates/qm_final_1.1/qm/1/freq E -2722.576599350998
  N       2.126563     -4.759807      9.999181
  C       2.827181     -3.719675      9.051712
  H       3.467900     -4.326077      8.371797
  H       3.435313     -3.074508      9.717005
  C       1.088330     -5.567711      9.232229
  H       1.566920     -6.048696      8.353875
  H       0.671529     -6.346790      9.904848
  H       0.280141     -4.886284      8.903978
  C       1.442265     -4.091186     11.211873
  H       2.134695     -3.338662     11.640027
  H       0.540033     -3.554525     10.867073
  H       1.182153     -4.897308     11.929904
  C       3.215132     -5.687755     10.522951
  H       3.977117     -5.076739     11.047402
  H       3.684268     -6.221883      9.671525
  H       2.769987     -6.418848     11.229039
  C       1.870282     -2.842713      8.206380
  H       2.538227     -2.118195      7.672804
  H       1.390066     -3.450059      7.400442
  P       1.286452     -0.890916     10.049155
  O       2.689848     -1.215916     10.577655
  O       0.033676     -0.701810     10.885533
  O       0.843608     -2.215049      8.953733
  O       1.493762      0.355909      8.921364
  C       0.330534      1.089898      8.495190
  H       0.624822      2.163607      8.398981
  H      -0.483658      1.009722      9.254987
  C      -0.200909      0.590739      7.130710
  H      -0.314335     -0.514229      7.143347
  O       0.765673      0.965973      6.082517
  C       1.298943     -0.001574      5.273631
  O       1.124137     -1.208394      5.400260
  C       2.162410      0.646291      4.177397
  H       3.212454      0.689189      4.560897
  H       1.836864      1.701574      4.053235
  C      -1.533730      1.267531      6.768880
  H      -1.424978      2.379207      6.762729
  H      -2.325206      1.006519      7.507640
  O      -1.919675      0.825607      5.428284
  C      -3.197829      1.125759      5.015709
  O      -4.021266      1.702086      5.711910
  C      -3.411950      0.653896      3.566169
  H      -2.604695      1.106915      2.947402
  H      -3.218132     -0.446346      3.535982
  C       2.123690     -0.135112      2.835738
  H       1.061744     -0.320562      2.545183
  H       2.571398     -1.142670      2.995628
  C       2.849487      0.596353      1.670974
  H       2.980612     -0.121479      0.826987
  H       3.881016      0.884566      1.993755
  C       2.094091      1.857640      1.168020
  H       1.895118      2.534649      2.032248
  H       1.087584      1.548139      0.792303
  C       2.816672      2.685133      0.073729
  H       3.820302      3.007442      0.448533
  H       2.239702      3.629679     -0.084157
  C       2.973611      1.987964     -1.303189
  H       1.973525      1.626027     -1.645425
  H       3.615552      1.078802     -1.213177
  C       3.596700      2.941214     -2.367229
  H       4.633100      3.202606     -2.029442
  H       3.031951      3.901321     -2.370458
  C       3.675280      2.348884     -3.765451
  H       4.048200      1.304712     -3.816254
  C       3.355660      2.955979     -4.935899
  H       3.484538      2.364575     -5.864310
  C       2.790100      4.358970     -5.114354
  H       3.300170      4.850545     -5.979278
  H       3.015194      4.990859     -4.226088
  C       1.247627      4.382576     -5.372669
  H       0.898820      5.444263     -5.350539
  H       0.731686      3.868409     -4.526082
  C       0.814959      3.731050     -6.710630
  H       1.161866      2.670453     -6.740154
  H       1.336948      4.246407     -7.555123
  C      -0.715616      3.758886     -6.955828
  H      -1.085850      4.813139     -6.896168
  H      -1.223808      3.211518     -6.126623
  C      -1.120676      3.146495     -8.320408
  H      -0.764489      2.086917     -8.372084
  H      -0.570437      3.687295     -9.127816
  C      -2.643262      3.185568     -8.631061
  H      -2.802025      2.916320     -9.703715
  H      -3.012201      4.236823     -8.523644
  C      -3.512329      2.251148     -7.747048
  H      -3.410354      2.543172     -6.674254
  H      -3.115652      1.208316     -7.815172
  C      -5.011291      2.268523     -8.134650
  H      -5.614265      1.600560     -7.477316
  H      -5.163302      1.932416     -9.187601
  H      -5.437966      3.295659     -8.050189
  C      -4.824332      0.982711      3.027930
  H      -4.983875      2.087531      3.047150
  H      -5.564749      0.571918      3.753243
  C      -5.163128      0.434617      1.612061
  H      -6.275137      0.453525      1.518619
  H      -4.877774     -0.644883      1.538889
  C      -4.588868      1.207017      0.388278
  H      -4.817406      2.296086      0.503176
  H      -5.158197      0.880324     -0.516563
  C      -3.079634      1.018139      0.071365
  H      -2.442040      1.433115      0.886839
  H      -2.858420     -0.076091      0.035869
  C      -2.668518      1.694233     -1.264654
  H      -3.303267      1.297771     -2.094265
  H      -2.902936      2.784745     -1.191706
  C      -1.165215      1.540607     -1.660981
  H      -0.530646      1.957116     -0.837271
  H      -0.956550      2.188096     -2.542163
  C      -0.729421      0.112180     -1.944833
  H      -0.933939     -0.627370     -1.145258
  C      -0.114228     -0.333993     -3.068566
  H       0.152008     -1.411021     -3.113409
  C       0.294937      0.500361     -4.279097
  H       1.230429      1.061624     -4.044132
  H      -0.468672      1.285849     -4.488848
  C       0.526846     -0.331068     -5.569650
  H       1.229123     -1.167471     -5.334983
  H       1.057502      0.303342     -6.320196
  C      -0.785076     -0.875697     -6.193634
  H      -1.309480     -1.518900     -5.446466
  H      -1.471093     -0.011489     -6.367083
  C      -0.607883     -1.624519     -7.542851
  H      -1.617255     -1.898120     -7.936337
  H      -0.174581     -0.915027     -8.290349
  C       0.274158     -2.904536     -7.509777
  H       1.317230     -2.643108     -7.206785
  H       0.360415     -3.298009     -8.552297
  C      -0.255226     -4.036007     -6.592197
  H      -0.274789     -3.688559     -5.530386
  H      -1.319514     -4.261194     -6.854988
  C       0.578882     -5.340255     -6.680870
  H       0.585383     -5.701963     -7.738736
  H       1.645053     -5.113311     -6.432177
  C       0.056858     -6.466697     -5.757397
  H       0.077257     -6.158484     -4.685397
  H      -0.996902     -6.737354     -6.004798
  H       0.670372     -7.392690     -5.850272
138
Coordinates from ORCA-job /wrk/rja7/qm_final_3_replicates/qm_final_1.1/qm/1/freq E -2722.577722070770
  N       2.045757     -4.721532      9.950219
  C       2.830915     -3.678767      9.076690
  H       3.513679     -4.280768      8.434474
  H       3.398509     -3.056441      9.797056
  C       1.004510     -5.453879      9.112069
  H       1.499927     -5.922714      8.236761
  H       0.527126     -6.238349      9.736590
  H       0.240062     -4.727013      8.775809
  C       1.343714     -4.064536     11.160172
  H       2.048832     -3.361625     11.646190
  H       0.479814     -3.479333     10.799700
  H       1.021014     -4.882259     11.837967
  C       3.064467     -5.722085     10.479828
  H       3.830429     -5.173738     11.063962
  H       3.546002     -6.241648      9.626369
  H       2.549091     -6.458314     11.129615
  C       1.950878     -2.764048      8.186285
  H       2.662012     -2.022583      7.740381
  H       1.531155     -3.334402      7.323197
  P       1.255153     -0.855825     10.021057
  O       2.645432     -1.172868     10.583695
  O      -0.025974     -0.703639     10.820669
  O       0.872026     -2.161105      8.884480
  O       1.468822      0.415373      8.920053
  C       0.297946      1.118335      8.462276
  H       0.569178      2.197076      8.357406
  H      -0.528084      1.032533      9.208709
  C      -0.203326      0.588322      7.097530
  H      -0.279872     -0.519203      7.120421
  O       0.756512      0.988694      6.053059
  C       1.334925      0.033174      5.261123
  O       1.193225     -1.177561      5.390211
  C       2.189756      0.700218      4.169469
  H       3.240693      0.748395      4.549724
  H       1.853238      1.752478      4.052448
  C      -1.558891      1.211571      6.721435
  H      -1.495430      2.326507      6.701108
  H      -2.340053      0.931944      7.464906
  O      -1.927959      0.726723      5.391359
  C      -3.192367      1.044154      4.947696
  O      -4.009698      1.664590      5.611618
  C      -3.396174      0.533800      3.510111
  H      -2.585914      0.980118      2.886628
  H      -3.194558     -0.564986      3.502398
  C       2.157432     -0.075274      2.824025
  H       1.096267     -0.239825      2.515355
  H       2.582892     -1.091087      2.991672
  C       2.915334      0.642083      1.670979
  H       3.038275     -0.075741      0.825546
  H       3.950022      0.899521      2.009181
  C       2.206261      1.926826      1.161591
  H       2.034816      2.616385      2.021923
  H       1.189552      1.653108      0.786738
  C       2.965815      2.718536      0.063350
  H       3.994979      2.964974      0.426210
  H       2.454773      3.704225     -0.069935
  C       3.054222      2.035228     -1.328789
  H       2.029890      1.743208     -1.658580
  H       3.637006      1.084498     -1.266599
  C       3.712801      2.965024     -2.392582
  H       4.763055      3.177194     -2.063043
  H       3.193910      3.950412     -2.385166
  C       3.754127      2.382071     -3.796366
  H       4.118736      1.335567     -3.861542
  C       3.404175      2.994454     -4.956388
  H       3.505500      2.405763     -5.889901
  C       2.828509      4.395334     -5.118513
  H       3.318551      4.896317     -5.989688
  H       3.066254      5.024283     -4.231620
  C       1.279609      4.411342     -5.346295
  H       0.927531      5.471859     -5.310689
  H       0.782900      3.890703     -4.491508
  C       0.822875      3.769981     -6.681598
  H       1.175652      2.711742     -6.730227
  H       1.323871      4.296353     -7.532184
  C      -0.711469      3.787339     -6.904183
  H      -1.090184      4.838564     -6.849653
  H      -1.203879      3.242824     -6.062844
  C      -1.129221      3.155567     -8.258771
  H      -0.764658      2.097974     -8.296450
  H      -0.589846      3.687189     -9.080896
  C      -2.653677      3.181199     -8.558882
  H      -2.817358      2.884523     -9.623697
  H      -3.026426      4.233358     -8.476254
  C      -3.517051      2.268174     -7.647176
  H      -3.395034      2.574719     -6.580750
  H      -3.133434      1.220279     -7.706306
  C      -5.022131      2.298191     -8.010478
  H      -5.621944      1.645998     -7.334575
  H      -5.196865      1.951076     -9.056312
  H      -5.434629      3.331388     -7.931664
  C      -4.807276      0.846937      2.957402
  H      -4.972630      1.950965      2.960477
  H      -5.552197      0.441659      3.681422
  C      -5.134042      0.280253      1.546659
  H      -6.246132      0.274124      1.449444
  H      -4.822424     -0.792588      1.482363
  C      -4.581441      1.054845      0.316519
  H      -4.867717      2.132510      0.405217
  H      -5.118512      0.679012     -0.589323
  C      -3.060419      0.938271      0.033614
  H      -2.463941      1.403401      0.853290
  H      -2.781387     -0.143296      0.025201
  C      -2.652624      1.609655     -1.305314
  H      -3.226766      1.149674     -2.146253
  H      -2.961721      2.683240     -1.271214
  C      -1.129340      1.545950     -1.638243
  H      -0.557208      2.009746     -0.795788
  H      -0.926001      2.192356     -2.520545
  C      -0.593522      0.144557     -1.878902
  H      -0.722397     -0.573069     -1.043887
  C       0.015153     -0.304413     -3.005593
  H       0.360361     -1.359320     -3.018079
  C       0.320955      0.502158     -4.261667
  H       1.271336      1.067847     -4.111570
  H      -0.460642      1.279428     -4.428920
  C       0.463209     -0.353312     -5.550142
  H       1.195417     -1.175967     -5.358052
  H       0.925475      0.274296     -6.351000
  C      -0.882623     -0.924237     -6.062863
  H      -1.324675     -1.588933     -5.281278
  H      -1.604213     -0.078073     -6.167424
  C      -0.809566     -1.653568     -7.431772
  H      -1.845472     -1.944019     -7.733084
  H      -0.462244     -0.924344     -8.205020
  C       0.093313     -2.916346     -7.495875
  H       1.157143     -2.637549     -7.300006
  H       0.077946     -3.306428     -8.543398
  C      -0.321800     -4.054941     -6.530355
  H      -0.240233     -3.705565     -5.472408
  H      -1.403579     -4.297094     -6.683841
  C       0.518484     -5.347865     -6.699809
  H       0.429724     -5.710977     -7.753073
  H       1.600622     -5.105347     -6.555073
  C       0.106844     -6.478862     -5.727464
  H       0.219206     -6.162778     -4.663600
  H      -0.959029     -6.773415     -5.876573
  H       0.728297     -7.392789     -5.872591
138
Coordinates from ORCA-job /wrk/rja7/qm_final_3_replicates/qm_final_1.1/qm/1/freq E -2722.578637446907
  N       2.015279     -4.689067      9.901881
  C       2.764360     -3.669374      8.971763
  H       3.413953     -4.285999      8.308991
  H       3.371214     -3.040358      9.653223
  C       0.889979     -5.392373      9.152855
  H       1.303125     -5.871661      8.241134
  H       0.447685     -6.164247      9.817335
  H       0.120962     -4.644300      8.879233
  C       1.430072     -4.009490     11.161184
  H       2.193350     -3.333034     11.591802
  H       0.556845     -3.401212     10.868479
  H       1.139616     -4.817415     11.865309
  C       3.039593     -5.721006     10.353410
  H       3.859675     -5.198159     10.885863
  H       3.444621     -6.248257      9.465428
  H       2.546756     -6.445789     11.033479
  C       1.852129     -2.753185      8.113322
  H       2.548206     -2.019701      7.632705
  H       1.382053     -3.320842      7.276104
  P       1.277199     -0.837746      9.979984
  O       2.687447     -1.179089     10.467931
  O       0.041142     -0.670435     10.844868
  O       0.814673     -2.135701      8.864751
  O       1.445365      0.432278      8.865871
  C       0.252137      1.099970      8.414783
  H       0.495834      2.184070      8.299254
  H      -0.564618      1.001552      9.169910
  C      -0.249043      0.549125      7.057496
  H      -0.292406     -0.559995      7.085679
  O       0.690278      0.977219      6.004510
  C       1.305502      0.042185      5.214697
  O       1.215441     -1.172554      5.349737
  C       2.149435      0.738869      4.131849
  H       3.197764      0.809346      4.515984
  H       1.788215      1.783554      4.019655
  C      -1.627856      1.127249      6.691929
  H      -1.608494      2.243731      6.679529
  H      -2.393914      0.814655      7.438611
  O      -1.986323      0.631959      5.363190
  C      -3.235602      0.976368      4.894143
  O      -4.051144      1.617765      5.540023
  C      -3.430664      0.446022      3.462971
  H      -2.609851      0.878385      2.844857
  H      -3.235686     -0.653801      3.467552
  C       2.143644     -0.028255      2.781542
  H       1.088353     -0.194104      2.452881
  H       2.568249     -1.043729      2.953441
  C       2.923606      0.693160      1.645083
  H       3.057366     -0.021909      0.798731
  H       3.954131      0.940562      2.003587
  C       2.239506      1.988214      1.128781
  H       2.075454      2.683277      1.986127
  H       1.221766      1.732990      0.746264
  C       3.025038      2.758588      0.032893
  H       4.062061      2.963706      0.399269
  H       2.553796      3.764306     -0.097648
  C       3.089623      2.075051     -1.359852
  H       2.055715      1.826090     -1.697021
  H       3.630473      1.099420     -1.297137
  C       3.794229      2.975284     -2.420129
  H       4.844538      3.162022     -2.074922
  H       3.303394      3.974787     -2.431903
  C       3.841896      2.380408     -3.818348
  H       4.223931      1.339211     -3.872999
  C       3.470530      2.971895     -4.983523
  H       3.570934      2.373710     -5.911216
  C       2.878696      4.363906     -5.158502
  H       3.354029      4.862322     -6.039351
  H       3.120449      5.003993     -4.280606
  C       1.327185      4.365739     -5.363631
  H       0.968884      5.423860     -5.317525
  H       0.849698      3.840473     -4.501751
  C       0.847624      3.734621     -6.695341
  H       1.200926      2.677888     -6.766402
  H       1.328334      4.272965     -7.550359
  C      -0.691497      3.751848     -6.882631
  H      -1.069470      4.801385     -6.801992
  H      -1.162360      3.194519     -6.036339
  C      -1.147034      3.145030     -8.238472
  H      -0.781323      2.089369     -8.304016
  H      -0.634671      3.692797     -9.068604
  C      -2.678590      3.173598     -8.494173
  H      -2.871008      2.880007     -9.555396
  H      -3.048202      4.225701     -8.399660
  C      -3.519241      2.258020     -7.563971
  H      -3.353600      2.544896     -6.497815
  H      -3.153818      1.205712     -7.655125
  C      -5.036263      2.313717     -7.871331
  H      -5.619439      1.654757     -7.187455
  H      -5.253588      1.990875     -8.916908
  H      -5.431338      3.350345     -7.756162
  C      -4.830854      0.765312      2.885693
  H      -4.986214      1.870655      2.879494
  H      -5.591714      0.369239      3.597933
  C      -5.131339      0.194187      1.470444
  H      -6.241206      0.172651      1.351262
  H      -4.801971     -0.873923      1.413884
  C      -4.564013      0.974626      0.249900
  H      -4.885686      2.043432      0.322418
  H      -5.060365      0.574268     -0.668673
  C      -3.030838      0.908158      0.021720
  H      -2.485773      1.408023      0.857363
  H      -2.711437     -0.161992      0.041886
  C      -2.596732      1.574197     -1.311645
  H      -3.109104      1.068529     -2.166541
  H      -2.959087      2.631394     -1.314709
  C      -1.058782      1.574757     -1.581576
  H      -0.539562      2.060727     -0.717255
  H      -0.849035      2.226706     -2.458473
  C      -0.458385      0.194870     -1.794729
  H      -0.540274     -0.503865     -0.937938
  C       0.151422     -0.255314     -2.920827
  H       0.547564     -1.292073     -2.913104
  C       0.405487      0.531015     -4.199746
  H       1.375799      1.076253     -4.106287
  H      -0.369694      1.321769     -4.333966
  C       0.464080     -0.342157     -5.484191
  H       1.205144     -1.165429     -5.330323
  H       0.877002      0.275376     -6.319404
  C      -0.909374     -0.917899     -5.905275
  H      -1.289803     -1.600304     -5.106986
  H      -1.647365     -0.080036     -5.947677
  C      -0.926317     -1.629035     -7.285826
  H      -1.979396     -1.925198     -7.515445
  H      -0.642635     -0.884615     -8.070796
  C      -0.017848     -2.881362     -7.428490
  H       1.055339     -2.592924     -7.311272
  H      -0.109140     -3.263914     -8.474825
  C      -0.349148     -4.029645     -6.441584
  H      -0.185748     -3.688168     -5.390785
  H      -1.438941     -4.274700     -6.512993
  C       0.479064     -5.318541     -6.685040
  H       0.318889     -5.668164     -7.734412
  H       1.568435     -5.074786     -6.612546
  C       0.140724     -6.462698     -5.698360
  H       0.321459     -6.153435     -4.641897
  H      -0.930730     -6.763990     -5.777585
  H       0.757180     -7.370518     -5.893464
138
Coordinates from ORCA-job /wrk/rja7/qm_final_3_replicates/qm_final_1.1/qm/1/freq E -2722.579696135607
  N       2.131755     -4.663380      9.876316
  C       2.877741     -3.639494      8.946964
  H       3.556694     -4.248053      8.306992
  H       3.453160     -2.984580      9.630628
  C       1.013425     -5.375747      9.128998
  H       1.430011     -5.850960      8.216201
  H       0.582774     -6.149711      9.797935
  H       0.240996     -4.629595      8.860779
  C       1.532336     -3.985038     11.129163
  H       2.284267     -3.294070     11.555960
  H       0.644934     -3.395921     10.835623
  H       1.260324     -4.794199     11.840245
  C       3.163582     -5.683822     10.337554
  H       3.976715     -5.148379     10.869245
  H       3.575291     -6.214982      9.454786
  H       2.675409     -6.407855     11.023109
  C       1.958366     -2.762000      8.056678
  H       2.635552     -1.996976      7.599843
  H       1.542743     -3.349538      7.204847
  P       1.209284     -0.877543      9.906968
  O       2.624385     -1.124919     10.430371
  O      -0.058255     -0.814348     10.740545
  O       0.864020     -2.194199      8.767357
  O       1.312317      0.420467      8.815049
  C       0.087006      1.026611      8.364320
  H       0.276126      2.122952      8.263085
  H      -0.726481      0.876563      9.114539
  C      -0.378009      0.471225      6.995751
  H      -0.371847     -0.639218      7.011848
  O       0.555200      0.954906      5.961014
  C       1.229622      0.060036      5.174493
  O       1.186784     -1.159426      5.287691
  C       2.067970      0.807040      4.121987
  H       3.106255      0.903262      4.527341
  H       1.676358      1.842503      4.021558
  C      -1.775543      0.992890      6.619754
  H      -1.806648      2.108854      6.615201
  H      -2.534753      0.641130      7.356582
  O      -2.101946      0.492711      5.284562
  C      -3.327938      0.863565      4.777302
  O      -4.145656      1.527094      5.398680
  C      -3.496395      0.339611      3.340108
  H      -2.651541      0.758028      2.743385
  H      -3.318913     -0.763190      3.342689
  C       2.113288      0.062733      2.760928
  H       1.070602     -0.111429      2.397100
  H       2.545271     -0.950135      2.930755
  C       2.923225      0.805747      1.661573
  H       3.080506      0.103845      0.808255
  H       3.943963      1.046091      2.052469
  C       2.254972      2.107380      1.143670
  H       2.087875      2.805748      1.997597
  H       1.236903      1.860299      0.752910
  C       3.061972      2.862741      0.051113
  H       4.098031      3.053031      0.428488
  H       2.607156      3.873854     -0.092546
  C       3.142564      2.159433     -1.329818
  H       2.114513      1.924356     -1.690572
  H       3.661441      1.173954     -1.238454
  C       3.887208      3.027004     -2.389510
  H       4.932525      3.204596     -2.024563
  H       3.410969      4.032691     -2.434594
  C       3.951136      2.400292     -3.772586
  H       4.352914      1.365343     -3.800811
  C       3.570285      2.954572     -4.952879
  H       3.681526      2.335052     -5.865365
  C       2.968606      4.336530     -5.164183
  H       3.436578      4.813536     -6.060546
  H       3.210562      5.001286     -4.304564
  C       1.417251      4.324908     -5.360023
  H       1.052096      5.380990     -5.325900
  H       0.950082      3.809406     -4.487706
  C       0.930478      3.675399     -6.679402
  H       1.271958      2.614036     -6.738804
  H       1.413242      4.198605     -7.542570
  C      -0.610161      3.711000     -6.852812
  H      -0.969085      4.766234     -6.759023
  H      -1.080813      3.156773     -6.004785
  C      -1.096782      3.131371     -8.209429
  H      -0.752130      2.070568     -8.298970
  H      -0.593398      3.685568     -9.040878
  C      -2.631868      3.189288     -8.432047
  H      -2.850697      2.919261     -9.494545
  H      -2.983298      4.244546     -8.310149
  C      -3.464147      2.264536     -7.503856
  H      -3.279285      2.530057     -6.435050
  H      -3.107379      1.211178     -7.621681
  C      -4.985353      2.332772     -7.787394
  H      -5.561326      1.663801     -7.107246
  H      -5.218714      2.029710     -8.835286
  H      -5.373400      3.369307     -7.647789
  C      -4.879360      0.685190      2.733332
  H      -5.019317      1.792531      2.740202
  H      -5.659924      0.288718      3.423425
  C      -5.153652      0.132328      1.304494
  H      -6.260555      0.103652      1.163172
  H      -4.816088     -0.933003      1.240529
  C      -4.568876      0.934687      0.106035
  H      -4.916425      1.995582      0.176643
  H      -5.028453      0.529487     -0.829193
  C      -3.028329      0.910825     -0.067793
  H      -2.534017      1.426347      0.790188
  H      -2.678171     -0.149181     -0.032878
  C      -2.558559      1.584205     -1.383062
  H      -3.022232      1.064367     -2.257237
  H      -2.943138      2.633198     -1.406879
  C      -1.011097      1.617599     -1.579325
  H      -0.549942      2.113515     -0.687819
  H      -0.773740      2.274321     -2.446169
  C      -0.377934      0.245496     -1.754776
  H      -0.443570     -0.426746     -0.875892
  C       0.248375     -0.226341     -2.863260
  H       0.664943     -1.254618     -2.819585
  C       0.518679      0.523890     -4.160340
  H       1.532004      0.992511     -4.107506
  H      -0.198591      1.368992     -4.280981
  C       0.463618     -0.373790     -5.428693
  H       1.162566     -1.235427     -5.291860
  H       0.869397      0.203577     -6.294853
  C      -0.958521     -0.885615     -5.764952
  H      -1.320801     -1.550034     -4.944599
  H      -1.662341     -0.016524     -5.769644
  C      -1.080918     -1.605900     -7.136477
  H      -2.154414     -1.872522     -7.303175
  H      -0.821717     -0.874244     -7.941816
  C      -0.211912     -2.882470     -7.321125
  H       0.872869     -2.618580     -7.262037
  H      -0.367627     -3.266077     -8.358877
  C      -0.516330     -4.022049     -6.313239
  H      -0.285314     -3.683739     -5.274044
  H      -1.614614     -4.238195     -6.325110
  C       0.264804     -5.330952     -6.600722
  H       0.038607     -5.672247     -7.641234
  H       1.362138     -5.114530     -6.586659
  C      -0.047738     -6.472700     -5.600716
  H       0.189421     -6.168405     -4.553787
  H      -1.127564     -6.751966     -5.626429
  H       0.541021     -7.391335     -5.826847
138
Coordinates from ORCA-job /wrk/rja7/qm_final_3_replicates/qm_final_1.1/qm/1/freq E -2722.580576350055
  N       2.214673     -4.639813      9.788861
  C       2.946590     -3.585405      8.881493
  H       3.649178     -4.168358      8.243681
  H       3.494395     -2.920903      9.578049
  C       1.115065     -5.361600      9.020825
  H       1.545482     -5.812321      8.102023
  H       0.696951     -6.155308      9.674233
  H       0.332207     -4.622751      8.763521
  C       1.589594     -3.996296     11.047533
  H       2.319452     -3.291245     11.489218
  H       0.685788     -3.427891     10.760977
  H       1.337817     -4.823030     11.745857
  C       3.265501     -5.644737     10.243303
  H       4.062994     -5.098575     10.787420
  H       3.693803     -6.155522      9.356535
  H       2.790159     -6.388458     10.916628
  C       2.012941     -2.726512      7.989034
  H       2.670821     -1.936156      7.546772
  H       1.624746     -3.318505      7.126601
  P       1.181225     -0.888286      9.856168
  O       2.603267     -1.081497     10.381740
  O      -0.091167     -0.897827     10.686126
  O       0.894404     -2.197874      8.690475
  O       1.231946      0.434648      8.791026
  C      -0.015077      0.997478      8.346030
  H       0.132761      2.101054      8.253274
  H      -0.821734      0.808811      9.094781
  C      -0.456192      0.435504      6.972360
  H      -0.409146     -0.674321      6.981412
  O       0.463797      0.955977      5.943422
  C       1.183118      0.086558      5.168573
  O       1.186076     -1.133434      5.285905
  C       2.003202      0.861366      4.121175
  H       3.033546      0.993980      4.536621
  H       1.577900      1.882980      4.014801
  C      -1.869281      0.911259      6.595388
  H      -1.938257      2.025251      6.595407
  H      -2.617797      0.530018      7.328843
  O      -2.176608      0.408849      5.256312
  C      -3.393344      0.780534      4.728512
  O      -4.221110      1.445382      5.335670
  C      -3.537019      0.257889      3.288547
  H      -2.685396      0.679418      2.706913
  H      -3.354013     -0.844088      3.293622
  C       2.087665      0.116439      2.761821
  H       1.055578     -0.073015      2.377104
  H       2.530906     -0.889965      2.941125
  C       2.911035      0.868454      1.679290
  H       3.086995      0.170031      0.827084
  H       3.923716      1.113164      2.088166
  C       2.244475      2.168629      1.154882
  H       2.060439      2.863607      2.008123
  H       1.234096      1.918348      0.746954
  C       3.063953      2.931035      0.076965
  H       4.094562      3.121960      0.469079
  H       2.608292      3.940831     -0.070474
  C       3.162950      2.229945     -1.302349
  H       2.139241      2.008272     -1.686314
  H       3.666242      1.237819     -1.200072
  C       3.943094      3.086913     -2.344684
  H       4.982303      3.248946     -1.956842
  H       3.480499      4.098571     -2.401297
  C       4.025159      2.456494     -3.725021
  H       4.435797      1.424961     -3.747195
  C       3.649191      3.003578     -4.909375
  H       3.773667      2.382691     -5.819331
  C       3.039421      4.380733     -5.128155
  H       3.512149      4.857640     -6.021957
  H       3.267291      5.050466     -4.268510
  C       1.491695      4.351767     -5.341608
  H       1.111889      5.403032     -5.326246
  H       1.021190      3.840641     -4.468862
  C       1.031877      3.674926     -6.656127
  H       1.383483      2.615242     -6.691849
  H       1.524227      4.187962     -7.519750
  C      -0.506519      3.693643     -6.847801
  H      -0.876161      4.746493     -6.763819
  H      -0.981909      3.140482     -6.002851
  C      -0.972452      3.104756     -8.205389
  H      -0.616332      2.047381     -8.291723
  H      -0.467378      3.664216     -9.031437
  C      -2.506877      3.143188     -8.438664
  H      -2.715082      2.874608     -9.503470
  H      -2.874369      4.192886     -8.315236
  C      -3.329584      2.199110     -7.521228
  H      -3.162404      2.464334     -6.449463
  H      -2.947947      1.154463     -7.639357
  C      -4.848502      2.231812     -7.822748
  H      -5.416112      1.546801     -7.151658
  H      -5.060622      1.925751     -8.874219
  H      -5.263900      3.258179     -7.685766
  C      -4.910449      0.596440      2.656611
  H      -5.057651      1.702776      2.664183
  H      -5.699955      0.192600      3.332058
  C      -5.151414      0.043130      1.221077
  H      -6.254886     -0.011813      1.063565
  H      -4.789575     -1.014152      1.157590
  C      -4.563978      0.865774      0.036177
  H      -4.945612      1.915389      0.099581
  H      -4.989038      0.449122     -0.910026
  C      -3.018733      0.890666     -0.100754
  H      -2.565053      1.429826      0.764542
  H      -2.634933     -0.156753     -0.046543
  C      -2.535398      1.567759     -1.409108
  H      -2.959104      1.026679     -2.290335
  H      -2.952453      2.603766     -1.452715
  C      -0.982947      1.647690     -1.564618
  H      -0.563582      2.166374     -0.665282
  H      -0.742965      2.303788     -2.431482
  C      -0.308568      0.290836     -1.709823
  H      -0.356403     -0.363037     -0.815988
  C       0.327667     -0.191090     -2.807894
  H       0.763558     -1.210723     -2.743258
  C       0.575608      0.529318     -4.125622
  H       1.610872      0.950632     -4.119781
  H      -0.105529      1.404710     -4.226214
  C       0.422847     -0.379236     -5.378419
  H       1.099266     -1.261832     -5.267395
  H       0.800699      0.175968     -6.271028
  C      -1.032797     -0.848029     -5.631609
  H      -1.368978     -1.495361     -4.787230
  H      -1.707210      0.043135     -5.604470
  C      -1.251582     -1.576627     -6.987913
  H      -2.338214     -1.819874     -7.092461
  H      -1.021152     -0.857780     -7.813221
  C      -0.423466     -2.874763     -7.211380
  H       0.668659     -2.637133     -7.201650
  H      -0.635793     -3.253616     -8.240698
  C      -0.710968     -4.010892     -6.193999
  H      -0.430975     -3.680282     -5.164152
  H      -1.813186     -4.203066     -6.162592
  C       0.031235     -5.333518     -6.517910
  H      -0.240378     -5.662741     -7.551704
  H       1.132450     -5.140095     -6.542122
  C      -0.269896     -6.477738     -5.516863
  H       0.007840     -6.186529     -4.476147
  H      -1.355390     -6.734931     -5.507578
  H       0.293323     -7.405228     -5.769811
138
Coordinates from ORCA-job /wrk/rja7/qm_final_3_replicates/qm_final_1.1/qm/1/freq E -2722.580769099330
  N       2.377793     -4.601188      9.775003
  C       3.098882     -3.497817      8.916992
  H       3.871445     -4.032091      8.320003
  H       3.559943     -2.797804      9.641376
  C       1.373530     -5.384714      8.931189
  H       1.884008     -5.806230      8.040551
  H       0.961094     -6.206376      9.552866
  H       0.570403     -4.686287      8.628805
  C       1.631671     -4.006730     10.990129
  H       2.287076     -3.267557     11.488977
  H       0.716589     -3.484721     10.652877
  H       1.378175     -4.851920     11.664814
  C       3.459450     -5.539189     10.299539
  H       4.177801     -4.947362     10.901285
  H       3.983389     -6.010777      9.443513
  H       2.993110     -6.321315     10.932942
  C       2.165802     -2.696241      7.974963
  H       2.799284     -1.878164      7.546229
  H       1.841876     -3.319437      7.105689
  P       1.156374     -0.902435      9.812082
  O       2.578664     -0.972957     10.365400
  O      -0.124601     -1.039383     10.620557
  O       0.998648     -2.212042      8.622439
  O       1.112855      0.445628      8.779573
  C      -0.167583      0.937335      8.348319
  H      -0.092633      2.050435      8.280170
  H      -0.958867      0.677245      9.092031
  C      -0.569052      0.379722      6.960594
  H      -0.462792     -0.726199      6.949801
  O       0.330408      0.957734      5.945513
  C       1.101348      0.125086      5.182824
  O       1.158960     -1.093733      5.304030
  C       1.895441      0.931983      4.139126
  H       2.909176      1.122592      4.573097
  H       1.420009      1.928523      4.010678
  C      -2.001870      0.794021      6.585390
  H      -2.128586      1.901925      6.610465
  H      -2.728845      0.354021      7.307938
  O      -2.282689      0.306081      5.233522
  C      -3.491704      0.663893      4.682577
  O      -4.341394      1.316013      5.274094
  C      -3.593951      0.161766      3.231089
  H      -2.725296      0.581831      2.676646
  H      -3.421853     -0.942208      3.236267
  C       2.037793      0.174689      2.791163
  H       1.019921     -0.033984      2.380625
  H       2.493362     -0.821998      2.992527
  C       2.878909      0.924739      1.723870
  H       3.068651      0.224994      0.876690
  H       3.884157      1.171991      2.148884
  C       2.222217      2.226717      1.189211
  H       2.023270      2.919832      2.040868
  H       1.219927      1.978755      0.761706
  C       3.059576      2.988027      0.123562
  H       4.083466      3.184662      0.530952
  H       2.601454      3.993793     -0.037634
  C       3.176341      2.272060     -1.245593
  H       2.158401      2.077192     -1.656629
  H       3.642855      1.266933     -1.112683
  C       4.004604      3.084424     -2.283692
  H       5.040292      3.215826     -1.878970
  H       3.573473      4.108023     -2.372195
  C       4.071851      2.412250     -3.645579
  H       4.466584      1.374671     -3.639248
  C       3.696527      2.930635     -4.841141
  H       3.807677      2.283166     -5.734184
  C       3.108612      4.313021     -5.091385
  H       3.601860      4.755440     -5.991739
  H       3.339778      4.997163     -4.244360
  C       1.563358      4.319361     -5.331609
  H       1.209529      5.378898     -5.364573
  H       1.060304      3.849264     -4.451192
  C       1.114824      3.600501     -6.629143
  H       1.448741      2.534125     -6.614946
  H       1.632684      4.072351     -7.500681
  C      -0.419414      3.654187     -6.847105
  H      -0.761801      4.717672     -6.768561
  H      -0.922288      3.112032     -6.012013
  C      -0.880068      3.084997     -8.211035
  H      -0.554675      2.019066     -8.310582
  H      -0.346116      3.638477     -9.019764
  C      -2.411292      3.181980     -8.470312
  H      -2.610314      2.933596     -9.541209
  H      -2.741870      4.243576     -8.341357
  C      -3.288239      2.255141     -7.587431
  H      -3.134836      2.486677     -6.507323
  H      -2.943255      1.203053     -7.723355
  C      -4.797912      2.345592     -7.921449
  H      -5.402163      1.660207     -7.283658
  H      -4.992212      2.073787     -8.985680
  H      -5.186954      3.380039     -7.768136
  C      -4.948777      0.507443      2.562397
  H      -5.095157      1.613835      2.569587
  H      -5.755417      0.104919      3.218056
  C      -5.149742     -0.048500      1.120170
  H      -6.248199     -0.137379      0.947840
  H      -4.759457     -1.095193      1.060492
  C      -4.566331      0.796977     -0.053255
  H      -4.959663      1.841494      0.019561
  H      -4.981349      0.389999     -1.007368
  C      -3.019074      0.845436     -0.176447
  H      -2.586443      1.404411      0.686513
  H      -2.615508     -0.193373     -0.105592
  C      -2.532498      1.513810     -1.489163
  H      -2.930584      0.949304     -2.366890
  H      -2.970210      2.540107     -1.558489
  C      -0.978430      1.631694     -1.615159
  H      -0.600650      2.172209     -0.712208
  H      -0.738709      2.285858     -2.483114
  C      -0.266961      0.289394     -1.734091
  H      -0.342952     -0.367907     -0.844367
  C       0.415030     -0.186294     -2.806599
  H       0.847536     -1.207142     -2.728195
  C       0.690968      0.520898     -4.124932
  H       1.754193      0.864063     -4.129064
  H       0.077443      1.445267     -4.206187
  C       0.449056     -0.366494     -5.380390
  H       1.075626     -1.286640     -5.293479
  H       0.833105      0.177152     -6.276976
  C      -1.039426     -0.755004     -5.602820
  H      -1.397079     -1.360056     -4.736416
  H      -1.656822      0.173723     -5.585949
  C      -1.314437     -1.513015     -6.935314
  H      -2.410354     -1.710587     -7.023036
  H      -1.057766     -0.835719     -7.786946
  C      -0.556930     -2.856899     -7.130839
  H       0.545195     -2.679130     -7.120200
  H      -0.787430     -3.244306     -8.153467
  C      -0.915756     -3.961348     -6.103678
  H      -0.653425     -3.619914     -5.071878
  H      -2.024100     -4.112974     -6.097730
  C      -0.208159     -5.310044     -6.386658
  H      -0.450847     -5.641244     -7.427332
  H       0.898872     -5.156808     -6.369260
  C      -0.594894     -6.432404     -5.393910
  H      -0.344720     -6.149071     -4.344096
  H      -1.690191     -6.641270     -5.426573
  H      -0.061650     -7.383840     -5.621424
138
Coordinates from ORCA-job /wrk/rja7/qm_final_3_replicates/qm_final_1.1/qm/1/freq E -2722.581496439318
  N       2.371332     -4.606875      9.743782
  C       3.068615     -3.517358      8.849853
  H       3.813997     -4.064426      8.229691
  H       3.566148     -2.820882      9.554168
  C       1.320565     -5.381560      8.952475
  H       1.787663     -5.812694      8.042853
  H       0.928508     -6.196049      9.596637
  H       0.509330     -4.679348      8.680661
  C       1.695155     -3.996746     10.991865
  H       2.386000     -3.264986     11.452577
  H       0.773444     -3.462623     10.697013
  H       1.463259     -4.835256     11.682671
  C       3.460560     -5.560673     10.218127
  H       4.218392     -4.979612     10.781473
  H       3.933758     -6.044013      9.339068
  H       3.010747     -6.331891     10.876715
  C       2.114415     -2.708522      7.933521
  H       2.743634     -1.896083      7.489121
  H       1.762409     -3.327515      7.073621
  P       1.171038     -0.904963      9.788717
  O       2.608141     -0.992173     10.301241
  O      -0.089450     -1.022663     10.631657
  O       0.967498     -2.219232      8.613127
  O       1.113702      0.435539      8.747686
  C      -0.172071      0.921317      8.323197
  H      -0.100757      2.034397      8.255112
  H      -0.959294      0.660037      9.070982
  C      -0.580807      0.363764      6.936928
  H      -0.482720     -0.742453      6.925487
  O       0.319904      0.937833      5.919879
  C       1.088849      0.107120      5.151516
  O       1.142563     -1.112677      5.261595
  C       1.891554      0.920980      4.120427
  H       2.904921      1.099526      4.560221
  H       1.421282      1.921023      4.002255
  C      -2.010395      0.788992      6.562389
  H      -2.126749      1.898253      6.586087
  H      -2.741909      0.357490      7.285468
  O      -2.292436      0.300375      5.212293
  C      -3.495082      0.676370      4.659723
  O      -4.337234      1.337151      5.251585
  C      -3.606806      0.164061      3.212915
  H      -2.738659      0.579849      2.650578
  H      -3.438086     -0.940241      3.222509
  C       2.038019      0.178740      2.764772
  H       1.021782     -0.023515      2.344990
  H       2.489648     -0.820949      2.959334
  C       2.887825      0.940371      1.711468
  H       3.082194      0.250904      0.856397
  H       3.890460      1.179791      2.147052
  C       2.236550      2.247686      1.183959
  H       2.038239      2.936036      2.039479
  H       1.234710      2.004182      0.751874
  C       3.080082      3.015798      0.127529
  H       4.103004      3.204923      0.540206
  H       2.625770      4.025512     -0.023570
  C       3.203105      2.316659     -1.251084
  H       2.186416      2.122265     -1.664608
  H       3.674695      1.311513     -1.132091
  C       4.028076      3.150124     -2.276967
  H       5.061269      3.286992     -1.866764
  H       3.588726      4.170724     -2.353460
  C       4.116764      2.497792     -3.647181
  H       4.529856      1.467186     -3.650301
  C       3.737222      3.021846     -4.840111
  H       3.865590      2.385646     -5.738731
  C       3.118441      4.391736     -5.082388
  H       3.600542      4.855788     -5.978268
  H       3.331501      5.074837     -4.230065
  C       1.572742      4.356847     -5.319764
  H       1.192317      5.407333     -5.338968
  H       1.084146      3.865168     -4.443465
  C       1.137939      3.644212     -6.626161
  H       1.497175      2.586894     -6.625273
  H       1.642603      4.138562     -7.493401
  C      -0.397099      3.655921     -6.845772
  H      -0.771835      4.707298     -6.763048
  H      -0.884995      3.094503     -6.013457
  C      -0.836327      3.075557     -8.214205
  H      -0.478597      2.019842     -8.311168
  H      -0.315680      3.644945     -9.022350
  C      -2.367639      3.122148     -8.477829
  H      -2.556237      2.871514     -9.550462
  H      -2.733801      4.171210     -8.344437
  C      -3.212667      2.163784     -7.596935
  H      -3.060930      2.396460     -6.515817
  H      -2.837091      1.121615     -7.738346
  C      -4.726040      2.214776     -7.922139
  H      -5.308055      1.511429     -7.283136
  H      -4.920341      1.942297     -8.986307
  H      -5.141045      3.237815     -7.761699
  C      -4.962971      0.513845      2.550571
  H      -5.103174      1.621065      2.555295
  H      -5.770979      0.118074      3.208866
  C      -5.172066     -0.040634      1.110092
  H      -6.271640     -0.116846      0.935867
  H      -4.790502     -1.090637      1.049041
  C      -4.577353      0.797047     -0.059066
  H      -4.970348      1.842134      0.006126
  H      -4.982492      0.385348     -1.015971
  C      -3.029454      0.839645     -0.164594
  H      -2.601776      1.395099      0.704100
  H      -2.631586     -0.201327     -0.092611
  C      -2.528496      1.510652     -1.470036
  H      -2.917089      0.948981     -2.354277
  H      -2.964284      2.537539     -1.540466
  C      -0.974045      1.626822     -1.581315
  H      -0.599161      2.163899     -0.674624
  H      -0.726038      2.281936     -2.446155
  C      -0.264169      0.285306     -1.696364
  H      -0.332347     -0.365721     -0.801400
  C       0.414368     -0.194211     -2.769197
  H       0.858708     -1.208966     -2.683822
  C       0.681478      0.506888     -4.091827
  H       1.747376      0.841418     -4.109660
  H       0.073276      1.435565     -4.171836
  C       0.420468     -0.382700     -5.340646
  H       1.045924     -1.305036     -5.263396
  H       0.791053      0.157546     -6.245387
  C      -1.071229     -0.764541     -5.535446
  H      -1.412690     -1.376050     -4.666562
  H      -1.686411      0.166481     -5.497987
  C      -1.378015     -1.505806     -6.868662
  H      -2.476887     -1.700080     -6.930102
  H      -1.142068     -0.818729     -7.718596
  C      -0.626379     -2.848020     -7.094309
  H       0.476322     -2.671680     -7.107803
  H      -0.880195     -3.226014     -8.115097
  C      -0.959133     -3.957795     -6.063612
  H      -0.674022     -3.620609     -5.036672
  H      -2.066876     -4.112011     -6.033076
  C      -0.257267     -5.306167     -6.366146
  H      -0.522059     -5.633831     -7.402318
  H       0.850047     -5.152300     -6.372990
  C      -0.620178     -6.431441     -5.366883
  H      -0.347830     -6.150160     -4.322046
  H      -1.715311     -6.643492     -5.377007
  H      -0.090466     -7.381767     -5.607793
138
Coordinates from ORCA-job /wrk/rja7/qm_final_3_replicates/qm_final_1.1/qm/1/freq E -2722.581719441729
  N       2.334900     -4.613700      9.715319
  C       3.050360     -3.536462      8.822252
  H       3.786611     -4.095527      8.201430
  H       3.561116     -2.852085      9.529015
  C       1.266663     -5.363484      8.925925
  H       1.725154     -5.801289      8.015025
  H       0.858522     -6.171045      9.568886
  H       0.468495     -4.645805      8.654607
  C       1.676743     -3.990469     10.966353
  H       2.387300     -3.277161     11.425931
  H       0.768826     -3.432477     10.673055
  H       1.425260     -4.824424     11.655999
  C       3.403424     -5.593331     10.182275
  H       4.176787     -5.031838     10.744886
  H       3.862085     -6.084705      9.299822
  H       2.936978     -6.355592     10.840156
  C       2.109696     -2.709880      7.908449
  H       2.752348     -1.903127      7.473274
  H       1.753151     -3.317569      7.042936
  P       1.181899     -0.910061      9.771135
  O       2.621726     -1.007672     10.274284
  O      -0.075531     -1.027191     10.618502
  O       0.965420     -2.214416      8.588044
  O       1.124807      0.432963      8.734884
  C      -0.160307      0.920271      8.311318
  H      -0.089250      2.033586      8.246962
  H      -0.948957      0.657930      9.057321
  C      -0.569276      0.364271      6.924684
  H      -0.470690     -0.741868      6.910645
  O       0.329247      0.942664      5.908090
  C       1.103382      0.116049      5.139579
  O       1.162531     -1.103612      5.247351
  C       1.903903      0.934771      4.110997
  H       2.915174      1.119444      4.553042
  H       1.427989      1.932289      3.993077
  C      -2.000644      0.786989      6.552967
  H      -2.117558      1.896286      6.572999
  H      -2.730869      0.358939      7.279526
  O      -2.285510      0.290372      5.206892
  C      -3.485458      0.673203      4.652638
  O      -4.322965      1.341822      5.241909
  C      -3.602093      0.151147      3.209913
  H      -2.734062      0.559885      2.643128
  H      -3.436752     -0.953558      3.225149
  C       2.057326      0.194993      2.755125
  H       1.043048     -0.013519      2.333018
  H       2.514294     -0.802047      2.950400
  C       2.904723      0.963059      1.703833
  H       3.105777      0.274152      0.849457
  H       3.904854      1.208488      2.141847
  C       2.247194      2.266347      1.175436
  H       2.043515      2.952432      2.031526
  H       1.247983      2.017812      0.741207
  C       3.087777      3.040376      0.121671
  H       4.107790      3.236968      0.537659
  H       2.627792      4.047537     -0.031516
  C       3.217579      2.343786     -1.257611
  H       2.201600      2.142702     -1.671594
  H       3.697565      1.341994     -1.141135
  C       4.039187      3.184245     -2.281397
  H       5.068539      3.335036     -1.865618
  H       3.590468      4.200225     -2.363803
  C       4.146119      2.528685     -3.648156
  H       4.585454      1.508830     -3.644351
  C       3.753827      3.036847     -4.844580
  H       3.896041      2.398261     -5.739440
  C       3.108372      4.392743     -5.095982
  H       3.577982      4.859094     -5.997488
  H       3.316694      5.084640     -4.249531
  C       1.561156      4.338487     -5.320686
  H       1.173336      5.386327     -5.339008
  H       1.083813      3.847417     -4.438640
  C       1.116102      3.623034     -6.622313
  H       1.476509      2.566550     -6.622939
  H       1.612847      4.116334     -7.494998
  C      -0.420489      3.636492     -6.834838
  H      -0.792842      4.688464     -6.755443
  H      -0.906590      3.080611     -5.996993
  C      -0.865393      3.048463     -8.199625
  H      -0.509706      1.991181     -8.286440
  H      -0.345216      3.609796     -9.014428
  C      -2.396060      3.099064     -8.464115
  H      -2.584206      2.842924     -9.535770
  H      -2.756530      4.150794     -8.337246
  C      -3.248495      2.152603     -7.577907
  H      -3.091017      2.389184     -6.498379
  H      -2.885775      1.105299     -7.715765
  C      -4.762299      2.221819     -7.897859
  H      -5.350759      1.528162     -7.254092
  H      -4.964507      1.948586     -8.960396
  H      -5.163240      3.250578     -7.738595
  C      -4.957127      0.502950      2.547126
  H      -5.091491      1.610921      2.545933
  H      -5.766815      0.113575      3.207095
  C      -5.168885     -0.054752      1.108476
  H      -6.268715     -0.127129      0.933073
  H      -4.789782     -1.106055      1.050650
  C      -4.570110      0.776611     -0.062590
  H      -4.967121      1.820637     -0.005130
  H      -4.967745      0.357057     -1.019481
  C      -3.021624      0.823827     -0.162718
  H      -2.597528      1.383597      0.705045
  H      -2.620414     -0.215501     -0.085327
  C      -2.521616      1.494615     -1.468755
  H      -2.899169      0.923791     -2.352167
  H      -2.970617      2.515297     -1.544918
  C      -0.968374      1.631228     -1.578604
  H      -0.601256      2.182283     -0.676323
  H      -0.727412      2.280062     -2.449886
  C      -0.237969      0.300740     -1.678598
  H      -0.293389     -0.340599     -0.775791
  C       0.453113     -0.176785     -2.745064
  H       0.920980     -1.179410     -2.645436
  C       0.712687      0.516110     -4.073712
  H       1.778535      0.850464     -4.099149
  H       0.103619      1.444462     -4.159285
  C       0.450589     -0.382065     -5.316976
  H       1.072070     -1.306831     -5.235325
  H       0.823702      0.151462     -6.225176
  C      -1.040029     -0.758622     -5.515843
  H      -1.390593     -1.362054     -4.644987
  H      -1.651935      0.176043     -5.490890
  C      -1.342264     -1.501765     -6.848569
  H      -2.443266     -1.683700     -6.916097
  H      -1.094159     -0.819167     -7.698379
  C      -0.602534     -2.851879     -7.066273
  H       0.502351     -2.686778     -7.071180
  H      -0.850650     -3.228085     -8.089093
  C      -0.953066     -3.956902     -6.036456
  H      -0.679198     -3.620336     -5.006602
  H      -2.062116     -4.105215     -6.020610
  C      -0.256455     -5.310740     -6.328261
  H      -0.506497     -5.637503     -7.368152
  H       0.851913     -5.163576     -6.317301
  C      -0.641278     -6.432127     -5.332901
  H      -0.382827     -6.150637     -4.284607
  H      -1.737543     -6.637325     -5.358548
  H      -0.114704     -7.386584     -5.564372
138
Coordinates from ORCA-job /wrk/rja7/qm_final_3_replicates/qm_final_1.1/qm/1/freq E -2722.581923237633
  N       2.437415     -4.602355      9.672026
  C       3.117164     -3.493468      8.788872
  H       3.877069     -4.022136      8.169807
  H       3.599438     -2.796117      9.502673
  C       1.402926     -5.387061      8.872152
  H       1.883428     -5.803100      7.962367
  H       1.020847     -6.212542      9.508304
  H       0.579921     -4.699061      8.598302
  C       1.749919     -4.012462     10.922911
  H       2.432269     -3.277600     11.391384
  H       0.824109     -3.484329     10.629170
  H       1.524155     -4.859706     11.605151
  C       3.539132     -5.544256     10.139164
  H       4.288595     -4.957860     10.708757
  H       4.020226     -6.013609      9.256692
  H       3.098184     -6.326717     10.790918
  C       2.154311     -2.695657      7.872254
  H       2.774579     -1.868128      7.443275
  H       1.823783     -3.312273      7.002510
  P       1.155756     -0.938674      9.740566
  O       2.594101     -0.992137     10.254851
  O      -0.104209     -1.108267     10.576003
  O       0.990926     -2.237384      8.543916
  O       1.061819      0.412078      8.719051
  C      -0.235055      0.872815      8.302391
  H      -0.191503      1.988346      8.252301
  H      -1.016947      0.582615      9.045278
  C      -0.632324      0.323748      6.909671
  H      -0.522631     -0.781296      6.886352
  O       0.262876      0.918943      5.900178
  C       1.044693      0.105191      5.125970
  O       1.111174     -1.115140      5.221538
  C       1.847113      0.939423      4.111667
  H       2.854262      1.125025      4.562719
  H       1.366656      1.935828      4.001726
  C      -2.065977      0.737201      6.535905
  H      -2.190363      1.845384      6.561790
  H      -2.795227      0.299865      7.258012
  O      -2.344638      0.245579      5.186598
  C      -3.538791      0.636251      4.626134
  O      -4.375994      1.308126      5.212236
  C      -3.648311      0.124327      3.178953
  H      -2.773420      0.529085      2.618803
  H      -3.492379     -0.981838      3.189421
  C       2.012496      0.213889      2.749737
  H       1.002285      0.012360      2.315451
  H       2.464666     -0.786270      2.939985
  C       2.872284      0.989219      1.714218
  H       3.075110      0.308325      0.853802
  H       3.870717      1.222607      2.162506
  C       2.227332      2.302058      1.193251
  H       2.021811      2.982087      2.053800
  H       1.229253      2.065007      0.748749
  C       3.082944      3.077902      0.153035
  H       4.099167      3.268368      0.580865
  H       2.628826      4.087627     -0.001014
  C       3.226555      2.384364     -1.226450
  H       2.214622      2.191492     -1.653912
  H       3.698530      1.379402     -1.105498
  C       4.066538      3.219122     -2.240050
  H       5.090863      3.365722     -1.810723
  H       3.624782      4.237492     -2.332203
  C       4.189969      2.553692     -3.600525
  H       4.638008      1.537839     -3.582589
  C       3.803897      3.046598     -4.805271
  H       3.959372      2.399413     -5.691916
  C       3.153794      4.396185     -5.077509
  H       3.630471      4.855038     -5.979149
  H       3.350844      5.097782     -4.236189
  C       1.609557      4.335331     -5.316429
  H       1.220634      5.382469     -5.347717
  H       1.123886      3.851244     -4.435369
  C       1.177786      3.607443     -6.615662
  H       1.537650      2.550975     -6.600450
  H       1.684469      4.091308     -7.487948
  C      -0.356503      3.621412     -6.845660
  H      -0.727970      4.674285     -6.775968
  H      -0.853316      3.070940     -6.010606
  C      -0.785961      3.025416     -8.211739
  H      -0.429940      1.967540     -8.287909
  H      -0.256427      3.581880     -9.023934
  C      -2.313642      3.074899     -8.493475
  H      -2.489554      2.820788     -9.567681
  H      -2.675662      4.126303     -8.368258
  C      -3.175184      2.126213     -7.618325
  H      -3.026376      2.358870     -6.536628
  H      -2.813382      1.078566     -7.756777
  C      -4.686074      2.199761     -7.950742
  H      -5.281217      1.504655     -7.314704
  H      -4.879762      1.931105     -9.016038
  H      -5.086668      3.228563     -7.790829
  C      -4.997444      0.490209      2.510965
  H      -5.124304      1.599115      2.517356
  H      -5.813542      0.101607      3.163343
  C      -5.205194     -0.055909      1.067261
  H      -6.304489     -0.123412      0.887126
  H      -4.829630     -1.108165      1.003174
  C      -4.599400      0.781552     -0.095655
  H      -4.993525      1.826373     -0.034191
  H      -4.992429      0.369184     -1.057538
  C      -3.050417      0.825463     -0.186489
  H      -2.630100      1.377662      0.687650
  H      -2.652200     -0.215376     -0.114306
  C      -2.541081      1.503627     -1.484416
  H      -2.911119      0.937619     -2.374103
  H      -2.989913      2.524514     -1.558800
  C      -0.987271      1.642272     -1.579583
  H      -0.630309      2.195768     -0.674476
  H      -0.738062      2.289784     -2.449635
  C      -0.254172      0.312643     -1.666223
  H      -0.322693     -0.326120     -0.762419
  C       0.455584     -0.169738     -2.718363
  H       0.922402     -1.171223     -2.602931
  C       0.735859      0.509375     -4.049499
  H       1.810780      0.813267     -4.074293
  H       0.154101      1.454095     -4.142689
  C       0.451068     -0.389170     -5.288139
  H       1.047789     -1.329395     -5.202697
  H       0.836370      0.130036     -6.199736
  C      -1.048555     -0.727440     -5.487186
  H      -1.419327     -1.306786     -4.608538
  H      -1.634112      0.224353     -5.480120
  C      -1.365115     -1.481713     -6.810266
  H      -2.470782     -1.631427     -6.881187
  H      -1.092674     -0.820386     -7.669038
  C      -0.665200     -2.856953     -7.003463
  H       0.444309     -2.726073     -6.998611
  H      -0.912950     -3.237979     -8.024590
  C      -1.059502     -3.939259     -5.964943
  H      -0.798207     -3.594704     -4.934490
  H      -2.171657     -4.063242     -5.968771
  C      -0.387888     -5.312484     -6.225505
  H      -0.621855     -5.646023     -7.266973
  H       0.722909     -5.189601     -6.191237
  C      -0.820303     -6.413372     -5.226701
  H      -0.577292     -6.127258     -4.175966
  H      -1.920482     -6.592389     -5.273548
  H      -0.312535     -7.382864     -5.436827
138
Coordinates from ORCA-job /wrk/rja7/qm_final_3_replicates/qm_final_1.1/qm/1/freq E -2722.582108869166
  N       2.447943     -4.615684      9.620573
  C       3.112281     -3.506481      8.725403
  H       3.861969     -4.036618      8.095305
  H       3.607952     -2.809629      9.430662
  C       1.400335     -5.400623      8.838546
  H       1.866570     -5.817145      7.921554
  H       1.027845     -6.225873      9.480740
  H       0.572107     -4.714327      8.576418
  C       1.784271     -4.026354     10.884358
  H       2.479094     -3.297293     11.343641
  H       0.856665     -3.491241     10.608534
  H       1.564327     -4.874468     11.567321
  C       3.557971     -5.557871     10.067389
  H       4.317798     -4.971950     10.623560
  H       4.023668     -6.026574      9.176344
  H       3.129139     -6.340763     10.726573
  C       2.137331     -2.709410      7.820565
  H       2.755228     -1.884468      7.382816
  H       1.795864     -3.327372      6.955865
  P       1.162845     -0.947216      9.694943
  O       2.608676     -0.999438     10.189300
  O      -0.085967     -1.118257     10.547580
  O       0.982891     -2.247175      8.503535
  O       1.053115      0.402279      8.675480
  C      -0.248933      0.861850      8.274636
  H      -0.210247      1.978020      8.234037
  H      -1.023754      0.563155      9.021713
  C      -0.657501      0.322661      6.881536
  H      -0.555042     -0.782847      6.850878
  O       0.234474      0.917591      5.869599
  C       1.004973      0.101941      5.085784
  O       1.055919     -1.119959      5.168959
  C       1.814043      0.936141      4.077011
  H       2.822829      1.108835      4.529421
  H       1.342813      1.937867      3.975241
  C      -2.090435      0.747438      6.517270
  H      -2.204482      1.856626      6.541591
  H      -2.818752      0.318191      7.245205
  O      -2.381189      0.254486      5.171141
  C      -3.570187      0.660110      4.610179
  O      -4.395683      1.349671      5.192227
  C      -3.686662      0.143335      3.165310
  H      -2.804296      0.529812      2.603207
  H      -3.550765     -0.965387      3.182485
  C       1.972203      0.218777      2.709899
  H       0.960681      0.038272      2.269709
  H       2.406030     -0.790573      2.894269
  C       2.849604      0.987508      1.684731
  H       3.038698      0.312654      0.816556
  H       3.852178      1.193791      2.136950
  C       2.233374      2.319575      1.177562
  H       2.044413      2.995925      2.044851
  H       1.229488      2.109359      0.731377
  C       3.106427      3.085084      0.144412
  H       4.126177      3.251473      0.573915
  H       2.673431      4.105080     -0.002634
  C       3.235607      2.398494     -1.239884
  H       2.219752      2.232017     -1.668020
  H       3.685254      1.382703     -1.126581
  C       4.092884      3.220487     -2.249109
  H       5.119363      3.345313     -1.818288
  H       3.671796      4.248025     -2.339268
  C       4.204205      2.552254     -3.608973
  H       4.646556      1.533992     -3.590246
  C       3.811798      3.043731     -4.811754
  H       3.956658      2.392346     -5.697504
  C       3.169477      4.397127     -5.082280
  H       3.643555      4.849377     -5.988497
  H       3.376892      5.099506     -4.243835
  C       1.624170      4.350204     -5.311910
  H       1.247962      5.401417     -5.361251
  H       1.136447      3.887517     -4.420105
  C       1.179568      3.600183     -6.593625
  H       1.529941      2.541043     -6.555735
  H       1.686977      4.059625     -7.478581
  C      -0.355345      3.625092     -6.818563
  H      -0.714123      4.683903     -6.778615
  H      -0.856346      3.104923     -5.966881
  C      -0.793662      2.991737     -8.164757
  H      -0.452591      1.927071     -8.205503
  H      -0.255746      3.513215     -8.993588
  C      -2.320070      3.055696     -8.450826
  H      -2.497808      2.772109     -9.517226
  H      -2.665678      4.115962     -8.357510
  C      -3.197960      2.148096     -7.548990
  H      -3.045925      2.411365     -6.474732
  H      -2.853560      1.090954     -7.654833
  C      -4.707072      2.236404     -7.885583
  H      -5.314187      1.570492     -7.229926
  H      -4.904277      1.939295     -8.942642
  H      -5.090986      3.275945     -7.757087
  C      -5.028785      0.528209      2.493676
  H      -5.138749      1.639050      2.494913
  H      -5.852799      0.155630      3.145360
  C      -5.240693     -0.021308      1.051940
  H      -6.340273     -0.075038      0.869531
  H      -4.878763     -1.078672      0.993256
  C      -4.623069      0.802696     -0.114160
  H      -5.006764      1.851788     -0.060753
  H      -5.016480      0.387612     -1.074676
  C      -3.073606      0.833403     -0.200227
  H      -2.650932      1.382550      0.674840
  H      -2.683785     -0.210525     -0.126579
  C      -2.556713      1.506132     -1.497652
  H      -2.923980      0.938294     -2.387254
  H      -3.002274      2.528066     -1.577187
  C      -1.003326      1.643860     -1.586231
  H      -0.650485      2.203823     -0.683615
  H      -0.750483      2.285880     -2.459466
  C      -0.264566      0.316881     -1.657715
  H      -0.343944     -0.319769     -0.753178
  C       0.466879     -0.165476     -2.694496
  H       0.938911     -1.162679     -2.563944
  C       0.761783      0.504023     -4.026390
  H       1.840410      0.794685     -4.048113
  H       0.192778      1.455137     -4.130360
  C       0.474136     -0.400734     -5.260267
  H       1.070719     -1.340578     -5.172405
  H       0.855902      0.114074     -6.175806
  C      -1.025261     -0.743077     -5.453415
  H      -1.393338     -1.315593     -4.569206
  H      -1.613547      0.206667     -5.453711
  C      -1.341534     -1.507932     -6.769950
  H      -2.446941     -1.659646     -6.839263
  H      -1.070264     -0.853983     -7.634565
  C      -0.637108     -2.882026     -6.950925
  H       0.471955     -2.747178     -6.944345
  H      -0.879398     -3.272309     -7.969869
  C      -1.028065     -3.955397     -5.902777
  H      -0.786396     -3.592374     -4.873850
  H      -2.137848     -4.098364     -5.919060
  C      -0.330851     -5.320783     -6.134058
  H      -0.542414     -5.672411     -7.174412
  H       0.777048     -5.178846     -6.084362
  C      -0.761461     -6.413096     -5.125650
  H      -0.536413     -6.109758     -4.075753
  H      -1.858282     -6.608417     -5.184869
  H      -0.238203     -7.378627     -5.315323
138
Coordinates from ORCA-job /wrk/rja7/qm_final_3_replicates/qm_final_1.1/qm/1/freq E -2722.582218652062
  N       2.389471     -4.642671      9.546006
  C       3.090888     -3.551557      8.658040
  H       3.824611     -4.100641      8.025765
  H       3.606937     -2.872360      9.366277
  C       1.314413     -5.384368      8.758268
  H       1.766339     -5.810678      7.838662
  H       0.910759     -6.199862      9.394171
  H       0.512220     -4.666401      8.499612
  C       1.746526     -4.035317     10.812021
  H       2.470837     -3.342763     11.281364
  H       0.844151     -3.457857     10.537142
  H       1.486085     -4.878188     11.487313
  C       3.465598     -5.626069      9.988372
  H       4.243763     -5.070961     10.550496
  H       3.917517     -6.103236      9.094726
  H       3.008776     -6.399318     10.639951
  C       2.138365     -2.723151      7.759343
  H       2.776863     -1.908954      7.330635
  H       1.781943     -3.324821      6.889214
  P       1.200926     -0.954603      9.645900
  O       2.653845     -1.019261     10.116252
  O      -0.034580     -1.126115     10.518001
  O       0.994099     -2.242563      8.447409
  O       1.080160      0.402470      8.638974
  C      -0.225196      0.863588      8.252925
  H      -0.189215      1.980214      8.220714
  H      -0.993738      0.557665      9.003582
  C      -0.644007      0.331903      6.860319
  H      -0.531418     -0.772249      6.820507
  O       0.233547      0.942721      5.845106
  C       1.016143      0.138024      5.060987
  O       1.080970     -1.083186      5.142981
  C       1.808402      0.981211      4.045649
  H       2.812862      1.176936      4.498284
  H       1.317721      1.972638      3.935772
  C      -2.086091      0.743194      6.515408
  H      -2.211196      1.851027      6.541412
  H      -2.800289      0.306773      7.253181
  O      -2.388514      0.246360      5.173622
  C      -3.577358      0.656187      4.614345
  O      -4.399359      1.351151      5.194906
  C      -3.699888      0.126851      3.175167
  H      -2.817975      0.504632      2.610712
  H      -3.568157     -0.982182      3.201866
  C       1.983919      0.257477      2.683696
  H       0.977165      0.066040      2.236013
  H       2.424791     -0.747268      2.876925
  C       2.864968      1.027215      1.662816
  H       3.063005      0.351263      0.797799
  H       3.863681      1.238992      2.121050
  C       2.247329      2.356438      1.151620
  H       2.056756      3.033921      2.017743
  H       1.246030      2.142709      0.705039
  C       3.117215      3.122212      0.116404
  H       4.136053      3.293716      0.546423
  H       2.680745      4.139936     -0.034575
  C       3.245717      2.433603     -1.266538
  H       2.229393      2.268431     -1.695660
  H       3.693026      1.417172     -1.152936
  C       4.107080      3.254697     -2.273205
  H       5.129591      3.383605     -1.834606
  H       3.682099      4.280172     -2.369776
  C       4.229955      2.585320     -3.631756
  H       4.696134      1.577702     -3.612383
  C       3.820722      3.067126     -4.832279
  H       3.974453      2.419900     -5.719749
  C       3.155056      4.410678     -5.094070
  H       3.618481      4.876696     -5.998759
  H       3.352431      5.111794     -4.252017
  C       1.611098      4.337105     -5.319918
  H       1.214567      5.381075     -5.365885
  H       1.135411      3.863119     -4.427350
  C       1.178404      3.583870     -6.603276
  H       1.548399      2.530940     -6.571494
  H       1.674935      4.056747     -7.487240
  C      -0.357517      3.579165     -6.820045
  H      -0.737168      4.630603     -6.773474
  H      -0.842731      3.045472     -5.967139
  C      -0.791563      2.946090     -8.167704
  H      -0.430861      1.888264     -8.216557
  H      -0.267504      3.482802     -8.995873
  C      -2.320654      2.982161     -8.445871
  H      -2.498284      2.694985     -9.511262
  H      -2.685663      4.035847     -8.351577
  C      -3.177508      2.058411     -7.539848
  H      -3.023109      2.321748     -6.466088
  H      -2.816567      1.007329     -7.650016
  C      -4.689898      2.120759     -7.867631
  H      -5.281275      1.441104     -7.211713
  H      -4.887617      1.824636     -8.924852
  H      -5.091666      3.152724     -7.732669
  C      -5.037864      0.510400      2.495857
  H      -5.145069      1.621463      2.487212
  H      -5.866437      0.145259      3.145880
  C      -5.237395     -0.048425      1.055720
  H      -6.335002     -0.110351      0.864554
  H      -4.868142     -1.103607      1.005462
  C      -4.614164      0.775048     -0.109342
  H      -5.008785      1.820498     -0.064965
  H      -4.993382      0.350370     -1.071211
  C      -3.063251      0.824550     -0.180400
  H      -2.656892      1.384856      0.696034
  H      -2.660397     -0.213598     -0.095939
  C      -2.543399      1.496897     -1.478024
  H      -2.889615      0.913838     -2.366132
  H      -3.008696      2.508923     -1.570660
  C      -0.991416      1.664062     -1.555828
  H      -0.654308      2.237891     -0.656596
  H      -0.744925      2.302891     -2.433489
  C      -0.224984      0.352131     -1.610016
  H      -0.299786     -0.279556     -0.701439
  C       0.524857     -0.123860     -2.635912
  H       1.010636     -1.112963     -2.494076
  C       0.818414      0.537140     -3.971423
  H       1.902996      0.805303     -4.005991
  H       0.268005      1.500068     -4.073811
  C       0.498268     -0.366514     -5.198717
  H       1.096085     -1.306982     -5.126768
  H       0.856497      0.149157     -6.122973
  C      -1.006205     -0.709194     -5.352707
  H      -1.350397     -1.287982     -4.463108
  H      -1.595499      0.238745     -5.331405
  C      -1.358754     -1.466886     -6.664372
  H      -2.466042     -1.613075     -6.707085
  H      -1.105940     -0.809950     -7.532486
  C      -0.664994     -2.843182     -6.868912
  H       0.444380     -2.712965     -6.886709
  H      -0.931802     -3.226249     -7.884463
  C      -1.037679     -3.920927     -5.818682
  H      -0.779738     -3.561436     -4.792422
  H      -2.147319     -4.065546     -5.817475
  C      -0.343267     -5.285020     -6.065863
  H      -0.567738     -5.630813     -7.105506
  H       0.765087     -5.142463     -6.029756
  C      -0.759868     -6.382806     -5.056913
  H      -0.519060     -6.084824     -4.008982
  H      -1.857530     -6.577362     -5.100851
  H      -0.240256     -7.347668     -5.259408
138
Coordinates from ORCA-job /wrk/rja7/qm_final_3_replicates/qm_final_1.1/qm/1/freq E -2722.582441219396
  N       2.418576     -4.639410      9.492442
  C       3.101822     -3.522463      8.621851
  H       3.851653     -4.048061      7.988242
  H       3.597347     -2.841122      9.342068
  C       1.367640     -5.397808      8.689091
  H       1.835299     -5.802962      7.767729
  H       0.980021     -6.229408      9.313940
  H       0.550615     -4.695533      8.434208
  C       1.750104     -4.061824     10.759062
  H       2.451329     -3.353282     11.239807
  H       0.833883     -3.507742     10.482328
  H       1.509045     -4.918168     11.424630
  C       3.514255     -5.600977      9.933720
  H       4.275216     -5.031995     10.505668
  H       3.982657     -6.060542      9.039254
  H       3.071293     -6.389719     10.576556
  C       2.137806     -2.703540      7.726083
  H       2.762477     -1.873100      7.308425
  H       1.798015     -3.303207      6.848165
  P       1.160452     -0.973951      9.629277
  O       2.606497     -1.033293     10.120563
  O      -0.086269     -1.164302     10.480955
  O       0.981458     -2.250109      8.412675
  O       1.043646      0.393320      8.635505
  C      -0.261256      0.854177      8.246405
  H      -0.226438      1.970849      8.217789
  H      -1.031346      0.544460      8.993777
  C      -0.674223      0.325881      6.850712
  H      -0.560165     -0.778088      6.809104
  O       0.205975      0.940558      5.839753
  C       0.991562      0.140441      5.054222
  O       1.065675     -1.080206      5.137433
  C       1.791425      0.990285      4.050407
  H       2.793282      1.182406      4.510553
  H       1.302584      1.983009      3.944421
  C      -2.114657      0.735180      6.499846
  H      -2.241840      1.842905      6.527786
  H      -2.832565      0.295800      7.232191
  O      -2.408358      0.241326      5.155173
  C      -3.594333      0.652115      4.591164
  O      -4.420325      1.342759      5.171136
  C      -3.711238      0.125256      3.150632
  H      -2.827052      0.504795      2.589831
  H      -3.577974     -0.983656      3.174753
  C       1.974266      0.275778      2.684950
  H       0.969704      0.086981      2.230503
  H       2.413744     -0.730181      2.874839
  C       2.862508      1.049390      1.672659
  H       3.066138      0.375305      0.807399
  H       3.858321      1.258913      2.138277
  C       2.249845      2.379790      1.158382
  H       2.054141      3.057928      2.022713
  H       1.250933      2.167234      0.705825
  C       3.127349      3.143262      0.127311
  H       4.143937      3.313803      0.562858
  H       2.693356      4.161467     -0.028071
  C       3.264956      2.449977     -1.252739
  H       2.251782      2.280872     -1.686933
  H       3.713938      1.434855     -1.132185
  C       4.129556      3.267180     -2.260118
  H       5.151612      3.396848     -1.820460
  H       3.706417      4.292682     -2.360682
  C       4.253494      2.591990     -3.615810
  H       4.714702      1.582193     -3.589882
  C       3.849313      3.067058     -4.821541
  H       4.003511      2.412018     -5.702730
  C       3.186978      4.409521     -5.099580
  H       3.649936      4.861378     -6.011841
  H       3.390359      5.120852     -4.267902
  C       1.640579      4.340550     -5.319705
  H       1.249864      5.386003     -5.376973
  H       1.165324      3.881105     -4.419363
  C       1.196779      3.573305     -6.591807
  H       1.555615      2.517195     -6.546001
  H       1.696446      4.027896     -7.483583
  C      -0.339745      3.583414     -6.807456
  H      -0.705380      4.640415     -6.781154
  H      -0.830999      3.073548     -5.944034
  C      -0.785834      2.928030     -8.140848
  H      -0.441474      1.863893     -8.166930
  H      -0.256009      3.438121     -8.982221
  C      -2.314868      2.981834     -8.415264
  H      -2.500609      2.674497     -9.473747
  H      -2.663369      4.042746     -8.342803
  C      -3.182350      2.092066     -7.485850
  H      -3.024934      2.382340     -6.419350
  H      -2.833509      1.034361     -7.567936
  C      -4.694029      2.164047     -7.815080
  H      -5.293455      1.510427     -7.140280
  H      -4.896004      1.841095     -8.863633
  H      -5.082580      3.204333     -7.708590
  C      -5.047572      0.509973      2.468960
  H      -5.155271      1.620949      2.464308
  H      -5.876914      0.141092      3.115986
  C      -5.245676     -0.044741      1.027097
  H      -6.343194     -0.104334      0.834027
  H      -4.878053     -1.100415      0.974445
  C      -4.619307      0.780253     -0.134316
  H      -5.017689      1.824439     -0.092484
  H      -4.992453      0.353975     -1.097928
  C      -3.068437      0.832307     -0.198425
  H      -2.665936      1.394512      0.678440
  H      -2.664882     -0.205296     -0.110103
  C      -2.543871      1.502737     -1.494650
  H      -2.886624      0.918777     -2.383680
  H      -3.008404      2.514768     -1.590930
  C      -0.992143      1.668636     -1.564508
  H      -0.660974      2.250720     -0.667814
  H      -0.739372      2.299224     -2.446272
  C      -0.227113      0.355331     -1.603684
  H      -0.302017     -0.266590     -0.688521
  C       0.521341     -0.131107     -2.625962
  H       1.007251     -1.119019     -2.476205
  C       0.812689      0.520058     -3.967162
  H       1.895937      0.792009     -4.004069
  H       0.259014      1.479923     -4.076369
  C       0.496482     -0.392352     -5.188933
  H       1.089075     -1.335195     -5.103657
  H       0.865171      0.113184     -6.114693
  C      -1.008560     -0.726960     -5.351400
  H      -1.362854     -1.293038     -4.457743
  H      -1.592945      0.225101     -5.346191
  C      -1.355053     -1.498852     -6.656497
  H      -2.463099     -1.638117     -6.706324
  H      -1.090834     -0.854232     -7.530486
  C      -0.668247     -2.881855     -6.838386
  H       0.441956     -2.757515     -6.852449
  H      -0.932591     -3.277797     -7.849566
  C      -1.051171     -3.942452     -5.774551
  H      -0.789438     -3.572665     -4.753048
  H      -2.162262     -4.075849     -5.771771
  C      -0.370130     -5.316117     -6.004750
  H      -0.604131     -5.676024     -7.037392
  H       0.739690     -5.182917     -5.976963
  C      -0.789877     -6.393862     -4.976029
  H      -0.541421     -6.079871     -3.934574
  H      -1.889276     -6.580291     -5.010679
  H      -0.278639     -7.365875     -5.165067
138
Coordinates from ORCA-job /wrk/rja7/qm_final_3_replicates/qm_final_1.1/qm/1/freq E -2722.582530979620
  N       2.438307     -4.651562      9.478751
  C       3.104425     -3.528816      8.601528
  H       3.856385     -4.048848      7.965777
  H       3.596763     -2.841239      9.317962
  C       1.391252     -5.425003      8.684598
  H       1.856996     -5.825715      7.760376
  H       1.019823     -6.260479      9.314060
  H       0.562974     -4.733989      8.435381
  C       1.772410     -4.079740     10.749294
  H       2.469018     -3.362280     11.223695
  H       0.847615     -3.537225     10.478898
  H       1.546382     -4.937747     11.417972
  C       3.547909     -5.599080      9.914929
  H       4.306305     -5.019572     10.479726
  H       4.015211     -6.056209      9.018598
  H       3.118597     -6.390718     10.563466
  C       2.129508     -2.719972      7.707466
  H       2.746695     -1.887564      7.283025
  H       1.788751     -3.325186      6.833886
  P       1.157049     -0.989374      9.611214
  O       2.604414     -1.047560     10.098947
  O      -0.087430     -1.177690     10.466929
  O       0.975399     -2.268977      8.398876
  O       1.036301      0.375483      8.615067
  C      -0.270539      0.833642      8.227943
  H      -0.238512      1.950415      8.201748
  H      -1.039058      0.520497      8.975462
  C      -0.683236      0.307354      6.831299
  H      -0.569175     -0.796569      6.788096
  O       0.196504      0.923669      5.821453
  C       0.977569      0.125466      5.029859
  O       1.040849     -1.096690      5.098175
  C       1.778726      0.980024      4.032133
  H       2.782355      1.163548      4.491894
  H       1.294237      1.975979      3.935975
  C      -2.123067      0.717502      6.479159
  H      -2.248676      1.825483      6.502909
  H      -2.841088      0.281772      7.213623
  O      -2.419494      0.218571      5.136696
  C      -3.600913      0.638816      4.569919
  O      -4.416261      1.345727      5.145127
  C      -3.720754      0.115840      3.127773
  H      -2.828416      0.482407      2.568287
  H      -3.604759     -0.994990      3.150796
  C       1.955641      0.276050      2.661087
  H       0.950254      0.098724      2.205703
  H       2.387647     -0.734744      2.842120
  C       2.847887      1.052929      1.655657
  H       3.042814      0.387132      0.781991
  H       3.846859      1.247168      2.121092
  C       2.247032      2.395691      1.158665
  H       2.062933      3.067226      2.030723
  H       1.242837      2.199747      0.707890
  C       3.131816      3.158556      0.133121
  H       4.150525      3.314139      0.569180
  H       2.709020      4.182832     -0.013483
  C       3.262189      2.474135     -1.252124
  H       2.247144      2.317356     -1.686543
  H       3.702192      1.454248     -1.138634
  C       4.135624      3.288435     -2.254712
  H       5.156917      3.409889     -1.811193
  H       3.720240      4.317196     -2.354926
  C       4.260385      2.612818     -3.610038
  H       4.721533      1.603040     -3.582963
  C       3.856508      3.085633     -4.816646
  H       4.012355      2.428935     -5.696275
  C       3.190748      4.425572     -5.098542
  H       3.652975      4.875520     -6.012148
  H       3.391664      5.140229     -4.269098
  C       1.644730      4.351483     -5.319054
  H       1.251748      5.395638     -5.383226
  H       1.170360      3.896737     -4.416346
  C       1.203323      3.573635     -6.585485
  H       1.564304      2.518910     -6.530199
  H       1.703497      4.021252     -7.480530
  C      -0.332834      3.579153     -6.804569
  H      -0.699416      4.636024     -6.796244
  H      -0.826542      3.082106     -5.935184
  C      -0.773221      2.900642     -8.128089
  H      -0.431538      1.835296     -8.132083
  H      -0.236207      3.393585     -8.974741
  C      -2.300304      2.954287     -8.414028
  H      -2.479667      2.627923     -9.467946
  H      -2.645503      4.017558     -8.363794
  C      -3.178260      2.085615     -7.474501
  H      -3.028874      2.397174     -6.412911
  H      -2.832186      1.025559     -7.531959
  C      -4.687028      2.156368     -7.817090
  H      -5.294291      1.519564     -7.133265
  H      -4.882287      1.812055     -8.860154
  H      -5.072160      3.200151     -7.735659
  C      -5.051545      0.521790      2.446254
  H      -5.145344      1.634063      2.448081
  H      -5.885979      0.159478      3.090540
  C      -5.257921     -0.023532      1.001825
  H      -6.356457     -0.072792      0.811595
  H      -4.899539     -1.082059      0.942828
  C      -4.631162      0.801642     -0.158526
  H      -5.026800      1.846735     -0.115391
  H      -5.005836      0.377459     -1.122557
  C      -3.081068      0.850177     -0.222037
  H      -2.678562      1.409810      0.655686
  H      -2.679811     -0.188461     -0.135556
  C      -2.552889      1.521204     -1.515669
  H      -2.887763      0.935281     -2.406569
  H      -3.021333      2.531124     -1.615463
  C      -1.001664      1.693359     -1.573480
  H      -0.680515      2.283298     -0.678063
  H      -0.743447      2.318832     -2.457015
  C      -0.230841      0.382849     -1.595699
  H      -0.310704     -0.231941     -0.676081
  C       0.528742     -0.109985     -2.607023
  H       1.018331     -1.093702     -2.442679
  C       0.827049      0.527082     -3.953102
  H       1.911939      0.790972     -3.990266
  H       0.280689      1.489627     -4.073181
  C       0.508846     -0.394252     -5.168075
  H       1.095075     -1.340069     -5.072700
  H       0.884243      0.101255     -6.096673
  C      -0.997543     -0.719484     -5.334061
  H      -1.359558     -1.273185     -4.435744
  H      -1.575436      0.236866     -5.341977
  C      -1.343324     -1.503555     -6.632284
  H      -2.452193     -1.634251     -6.686112
  H      -1.069053     -0.871311     -7.512117
  C      -0.667551     -2.894501     -6.795540
  H       0.443657     -2.779283     -6.806786
  H      -0.931311     -3.299595     -7.803300
  C      -1.063020     -3.940391     -5.721720
  H      -0.803281     -3.561500     -4.703060
  H      -2.175044     -4.065813     -5.722336
  C      -0.391172     -5.321801     -5.933914
  H      -0.625598     -5.692394     -6.962599
  H       0.719497     -5.195995     -5.905337
  C      -0.820559     -6.383903     -4.893024
  H      -0.571585     -6.058973     -3.855067
  H      -1.921250     -6.562825     -4.927419
  H      -0.316139     -7.361922     -5.069200
138
Coordinates from ORCA-job /wrk/rja7/qm_final_3_replicates/qm_final_1.1/qm/1/freq E -2722.582682277531
  N       2.429632     -4.662524      9.428244
  C       3.098820     -3.537562      8.556141
  H       3.849593     -4.056744      7.918440
  H       3.591707     -2.853238      9.275451
  C       1.383023     -5.431623      8.628860
  H       1.849573     -5.827958      7.703230
  H       1.010197     -6.269950      9.253723
  H       0.555766     -4.738351      8.382319
  C       1.761841     -4.093917     10.699300
  H       2.459077     -3.380166     11.178262
  H       0.839163     -3.548120     10.428580
  H       1.531542     -4.953694     11.364305
  C       3.537475     -5.612588      9.863755
  H       4.295630     -5.035253     10.431005
  H       4.005672     -6.068015      8.967015
  H       3.106767     -6.405596     10.509664
  C       2.124960     -2.723743      7.665829
  H       2.742704     -1.890272      7.244262
  H       1.782792     -3.325207      6.790151
  P       1.154565     -0.998724      9.576342
  O       2.603243     -1.056090     10.060377
  O      -0.087093     -1.191584     10.435361
  O       0.971959     -2.274594      8.360313
  O       1.028330      0.369539      8.585947
  C      -0.280769      0.826371      8.204130
  H      -0.251111      1.943296      8.182472
  H      -1.046289      0.508042      8.952447
  C      -0.695515      0.304852      6.806361
  H      -0.578933     -0.798639      6.758812
  O       0.181501      0.927044      5.797397
  C       0.966459      0.134169      5.004091
  O       1.032613     -1.088074      5.067667
  C       1.768204      0.994961      4.011864
  H       2.768678      1.181428      4.477354
  H       1.280110      1.989163      3.915970
  C      -2.136843      0.712779      6.457880
  H      -2.264346      1.820429      6.482550
  H      -2.852754      0.275098      7.193314
  O      -2.434426      0.214003      5.115631
  C      -3.612564      0.638612      4.545002
  O      -4.427947      1.348055      5.117047
  C      -3.731788      0.108523      3.105573
  H      -2.839123      0.471676      2.545719
  H      -3.616388     -1.002243      3.134686
  C       1.955168      0.295688      2.639597
  H       0.952794      0.119342      2.176763
  H       2.386766     -0.715421      2.819976
  C       2.854130      1.075866      1.642778
  H       3.051707      0.414234      0.766727
  H       3.851393      1.265403      2.113806
  C       2.258852      2.422866      1.150609
  H       2.076902      3.091476      2.025365
  H       1.254858      2.232210      0.698440
  C       3.145543      3.186993      0.127602
  H       4.163957      3.340889      0.564972
  H       2.723793      4.211817     -0.017872
  C       3.275720      2.504435     -1.258560
  H       2.260633      2.349635     -1.693992
  H       3.714039      1.483875     -1.145874
  C       4.151524      3.318394     -2.259548
  H       5.171394      3.439947     -1.813142
  H       3.735740      4.346893     -2.361916
  C       4.280263      2.641302     -3.613848
  H       4.747530      1.634370     -3.585335
  C       3.872682      3.109295     -4.821016
  H       4.032156      2.451896     -5.699517
  C       3.199356      4.445139     -5.104723
  H       3.655532      4.894157     -6.021810
  H       3.400087      5.163692     -4.278532
  C       1.652841      4.361764     -5.318908
  H       1.253584      5.403169     -5.388550
  H       1.184593      3.910304     -4.411133
  C       1.211342      3.572892     -6.578588
  H       1.576261      2.519903     -6.516231
  H       1.707912      4.015309     -7.478205
  C      -0.325457      3.570892     -6.792896
  H      -0.694864      4.626792     -6.798897
  H      -0.814898      3.084759     -5.914914
  C      -0.769251      2.872034     -8.104813
  H      -0.430599      1.805812     -8.091897
  H      -0.231921      3.349756     -8.960271
  C      -2.296882      2.925314     -8.388373
  H      -2.480235      2.578929     -9.435209
  H      -2.638363      3.990529     -8.358446
  C      -3.175597      2.078987     -7.429118
  H      -3.023352      2.412990     -6.374611
  H      -2.832861      1.017066     -7.464185
  C      -4.684909      2.147464     -7.769770
  H      -5.292799      1.528193     -7.070581
  H      -4.884014      1.780861     -8.804528
  H      -5.066008      3.194183     -7.710552
  C      -5.060516      0.511367      2.418932
  H      -5.155196      1.623522      2.416806
  H      -5.896993      0.150695      3.061500
  C      -5.259764     -0.038768      0.975182
  H      -6.357268     -0.092428      0.780229
  H      -4.897290     -1.096076      0.920129
  C      -4.629053      0.785978     -0.183586
  H      -5.032451      1.828354     -0.147983
  H      -4.992611      0.355102     -1.148937
  C      -3.078477      0.844882     -0.234620
  H      -2.687011      1.410818      0.644356
  H      -2.671036     -0.190666     -0.140734
  C      -2.543996      1.515103     -1.526579
  H      -2.863654      0.921307     -2.417939
  H      -3.022454      2.519342     -1.636198
  C      -0.994109      1.703718     -1.570336
  H      -0.687865      2.306303     -0.678161
  H      -0.733752      2.322991     -2.457690
  C      -0.209215      0.401256     -1.573491
  H      -0.288095     -0.205444     -0.648371
  C       0.559656     -0.094938     -2.576021
  H       1.056274     -1.073037     -2.399664
  C       0.855170      0.528787     -3.928602
  H       1.941910      0.783584     -3.974781
  H       0.316100      1.494869     -4.054192
  C       0.521578     -0.399668     -5.134300
  H       1.105391     -1.346862     -5.038150
  H       0.889495      0.088710     -6.069565
  C      -0.987740     -0.719977     -5.282563
  H      -1.342027     -1.267798     -4.377542
  H      -1.561887      0.238433     -5.289181
  C      -1.350058     -1.510335     -6.572612
  H      -2.459931     -1.635282     -6.615787
  H      -1.079912     -0.885686     -7.459125
  C      -0.683357     -2.906089     -6.732785
  H       0.428280     -2.797025     -6.752850
  H      -0.956894     -3.314830     -7.736491
  C      -1.077295     -3.944363     -5.651045
  H      -0.807942     -3.562425     -4.635968
  H      -2.189965     -4.063377     -5.642971
  C      -0.415255     -5.330854     -5.861456
  H      -0.660756     -5.705168     -6.886185
  H       0.696305     -5.211491     -5.843133
  C      -0.842039     -6.384794     -4.811155
  H      -0.581900     -6.055580     -3.777285
  H      -1.944055     -6.557208     -4.834868
  H      -0.345086     -7.366815     -4.986349
138
Coordinates from ORCA-job /wrk/rja7/qm_final_3_replicates/qm_final_1.1/qm/1/freq E -2722.582893269627
  N       2.413549     -4.675250      9.369605
  C       3.087354     -3.552351      8.498288
  H       3.836011     -4.074542      7.860828
  H       3.581140     -2.868686      9.217786
  C       1.365594     -5.440308      8.567546
  H       1.831557     -5.832766      7.640085
  H       0.992138     -6.280788      9.189098
  H       0.539548     -4.744282      8.324466
  C       1.745459     -4.104469     10.639720
  H       2.446011     -3.396541     11.122146
  H       0.827218     -3.552657     10.366774
  H       1.507298     -4.963580     11.302870
  C       3.518090     -5.628633      9.806875
  H       4.277125     -5.053281     10.374787
  H       3.986127     -6.085742      8.910900
  H       3.084621     -6.420514     10.452272
  C       2.115346     -2.734997      7.609384
  H       2.734202     -1.902606      7.187311
  H       1.769549     -3.335213      6.734139
  P       1.151230     -1.007522      9.522255
  O       2.601741     -1.063856     10.000584
  O      -0.086022     -1.200359     10.387668
  O       0.964607     -2.283578      8.307078
  O       1.018065      0.360785      8.532852
  C      -0.294581      0.812906      8.156160
  H      -0.269932      1.929980      8.137030
  H      -1.055690      0.488741      8.906287
  C      -0.710018      0.292068      6.758590
  H      -0.583665     -0.810253      6.707910
  O       0.158683      0.925144      5.749065
  C       0.953607      0.142413      4.955438
  O       1.036715     -1.078711      5.020794
  C       1.754964      1.015467      3.973033
  H       2.749307      1.210492      4.448268
  H       1.257709      2.005066      3.877536
  C      -2.156494      0.686556      6.415737
  H      -2.294696      1.792752      6.440128
  H      -2.865294      0.242040      7.154131
  O      -2.454740      0.183240      5.075216
  C      -3.626626      0.615070      4.496066
  O      -4.439424      1.334245      5.059572
  C      -3.744327      0.073075      3.061071
  H      -2.847251      0.424722      2.502249
  H      -3.636683     -1.038120      3.100953
  C       1.960428      0.325792      2.598336
  H       0.963833      0.149950      2.122601
  H       2.393048     -0.685285      2.776515
  C       2.867872      1.114441      1.616220
  H       3.068006      0.462151      0.734108
  H       3.863404      1.294824      2.094612
  C       2.281109      2.470165      1.137792
  H       2.107964      3.131860      2.019502
  H       1.274596      2.291567      0.687565
  C       3.168968      3.237106      0.117484
  H       4.188700      3.384484      0.554093
  H       2.751135      4.264329     -0.021782
  C       3.293176      2.561336     -1.272747
  H       2.276952      2.413770     -1.707858
  H       3.725981      1.538059     -1.165554
  C       4.173111      3.374585     -2.270946
  H       5.190458      3.496319     -1.819294
  H       3.756885      4.402658     -2.377145
  C       4.308792      2.695752     -3.623845
  H       4.787193      1.694080     -3.594228
  C       3.894912      3.156457     -4.831459
  H       4.060689      2.499027     -5.708864
  C       3.207139      4.484648     -5.116537
  H       3.652521      4.934237     -6.038578
  H       3.405840      5.208963     -4.294747
  C       1.660525      4.382012     -5.320679
  H       1.247919      5.417454     -5.401435
  H       1.203335      3.936701     -4.403891
  C       1.222423      3.571960     -6.568002
  H       1.596952      2.523023     -6.492618
  H       1.712354      4.005825     -7.475381
  C      -0.314908      3.552616     -6.775207
  H      -0.692134      4.605074     -6.811379
  H      -0.796054      3.088442     -5.880625
  C      -0.761580      2.812045     -8.063953
  H      -0.427883      1.745419     -8.014446
  H      -0.221854      3.258081     -8.935640
  C      -2.289147      2.863483     -8.348222
  H      -2.476844      2.471129     -9.378022
  H      -2.622870      3.931323     -8.367211
  C      -3.173750      2.070113     -7.349661
  H      -3.018708      2.454032     -6.312489
  H      -2.839882      1.005304     -7.332952
  C      -4.682855      2.135420     -7.692084
  H      -5.295426      1.557181     -6.962520
  H      -4.887368      1.720205     -8.707332
  H      -5.053923      3.187327     -7.684064
  C      -5.066687      0.478076      2.363545
  H      -5.157971      1.590410      2.356946
  H      -5.909267      0.122253      3.000802
  C      -5.254161     -0.076983      0.919723
  H      -6.349746     -0.137231      0.716301
  H      -4.885118     -1.132239      0.870136
  C      -4.617662      0.748727     -0.235714
  H      -5.032598      1.786799     -0.210505
  H      -4.963868      0.308958     -1.203503
  C      -3.067270      0.824757     -0.265263
  H      -2.696290      1.399968      0.617042
  H      -2.649745     -0.205574     -0.160011
  C      -2.519917      1.494834     -1.552546
  H      -2.807865      0.886722     -2.445320
  H      -3.017498      2.487486     -1.681971
  C      -0.973967      1.716116     -1.564183
  H      -0.700440      2.338615     -0.675355
  H      -0.706665      2.327280     -2.455217
  C      -0.162598      0.430186     -1.533517
  H      -0.239945     -0.163026     -0.599500
  C       0.623808     -0.069626     -2.520363
  H       1.133431     -1.037073     -2.323738
  C       0.915598      0.532367     -3.882810
  H       2.006376      0.765527     -3.945514
  H       0.393827      1.507448     -4.015958
  C       0.550034     -0.403946     -5.073839
  H       1.124892     -1.356728     -4.978906
  H       0.907582      0.073155     -6.018825
  C      -0.965284     -0.707168     -5.192999
  H      -1.309400     -1.247793     -4.279711
  H      -1.527942      0.257813     -5.193311
  C      -1.359789     -1.499655     -6.472580
  H      -2.471807     -1.607599     -6.498889
  H      -1.091900     -0.885465     -7.367043
  C      -0.718070     -2.907165     -6.633517
  H       0.394762     -2.816013     -6.667358
  H      -1.010839     -3.315273     -7.632081
  C      -1.117538     -3.934928     -5.543701
  H      -0.831363     -3.554551     -4.532577
  H      -2.231811     -4.035877     -5.523525
  C      -0.480813     -5.333224     -5.755748
  H      -0.744869     -5.707225     -6.775926
  H       0.632653     -5.232063     -5.751225
  C      -0.912146     -6.375643     -4.695455
  H      -0.633751     -6.045519     -3.666623
  H      -2.017055     -6.530082     -4.704638
  H      -0.433462     -7.366429     -4.872013
138
Coordinates from ORCA-job /wrk/rja7/qm_final_3_replicates/qm_final_1.1/qm/1/freq E -2722.583094442401
  N       2.464855     -4.662257      9.294347
  C       3.108787     -3.523708      8.421011
  H       3.865720     -4.029184      7.779978
  H       3.589245     -2.828889      9.139108
  C       1.433874     -5.451671      8.493922
  H       1.906169     -5.827429      7.562775
  H       1.085654     -6.304380      9.113530
  H       0.588852     -4.776338      8.257392
  C       1.786451     -4.108101     10.566317
  H       2.473019     -3.386681     11.048872
  H       0.856411     -3.575300     10.295598
  H       1.567164     -4.973136     11.228452
  C       3.593501     -5.588517      9.728449
  H       4.340637     -4.994424     10.292880
  H       4.069183     -6.035285      8.831214
  H       3.182005     -6.390245     10.376192
  C       2.114782     -2.727433      7.537393
  H       2.713780     -1.882320      7.112014
  H       1.776623     -3.334932      6.664032
  P       1.125058     -1.023105      9.457615
  O       2.577887     -1.055417      9.931339
  O      -0.105132     -1.238944     10.327907
  O       0.957973     -2.299762      8.240588
  O       0.965240      0.344889      8.472357
  C      -0.353807      0.782270      8.098572
  H      -0.341114      1.899601      8.085111
  H      -1.110198      0.445361      8.847709
  C      -0.764107      0.263981      6.698602
  H      -0.626051     -0.836703      6.642349
  O       0.098667      0.911044      5.693259
  C       0.905058      0.138185      4.901442
  O       0.992968     -1.082981      4.958877
  C       1.705102      1.021333      3.927302
  H       2.694590      1.220624      4.410840
  H       1.202054      2.008192      3.833888
  C      -2.213474      0.647691      6.355681
  H      -2.358619      1.752830      6.377948
  H      -2.919615      0.199497      7.094584
  O      -2.507640      0.141795      5.015144
  C      -3.667755      0.587541      4.422066
  O      -4.477127      1.319320      4.974146
  C      -3.782134      0.033522      2.991436
  H      -2.878152      0.369688      2.435649
  H      -3.687124     -1.078352      3.042925
  C       1.924261      0.341924      2.549595
  H       0.932894      0.175691      2.059115
  H       2.349534     -0.673013      2.723762
  C       2.849809      1.133633      1.587882
  H       3.047928      0.492821      0.697150
  H       3.844087      1.292150      2.076733
  C       2.287700      2.506155      1.128457
  H       2.128573      3.158699      2.019491
  H       1.277422      2.353512      0.676554
  C       3.190632      3.269985      0.119348
  H       4.209492      3.401003      0.563195
  H       2.786529      4.303338     -0.014791
  C       3.313822      2.603329     -1.274906
  H       2.298077      2.469492     -1.715514
  H       3.735139      1.574885     -1.173433
  C       4.208333      3.413477     -2.262281
  H       5.220221      3.531093     -1.797725
  H       3.796594      4.442768     -2.374760
  C       4.356462      2.733603     -3.612856
  H       4.845487      1.737118     -3.581753
  C       3.939648      3.189443     -4.820482
  H       4.113488      2.534550     -5.698311
  C       3.237019      4.510078     -5.103004
  H       3.670959      4.962268     -6.029165
  H       3.434047      5.238007     -4.283861
  C       1.690590      4.389642     -5.295335
  H       1.265842      5.419569     -5.383985
  H       1.243822      3.948577     -4.370763
  C       1.255226      3.562127     -6.531464
  H       1.635453      2.515960     -6.443768
  H       1.741467      3.986894     -7.445121
  C      -0.281738      3.534142     -6.734728
  H      -0.661212      4.584474     -6.797067
  H      -0.759921      3.090784     -5.828046
  C      -0.729922      2.761755     -8.004378
  H      -0.406694      1.693953     -7.923408
  H      -0.182156      3.178107     -8.886001
  C      -2.255925      2.822009     -8.294784
  H      -2.446811      2.395422     -9.310398
  H      -2.575868      3.892540     -8.353491
  C      -3.153601      2.078283     -7.269970
  H      -2.995782      2.499790     -6.247610
  H      -2.835216      1.010657     -7.211735
  C      -4.661072      2.153196     -7.617611
  H      -5.283239      1.612463     -6.867673
  H      -4.871505      1.703282     -8.616847
  H      -5.016066      3.210197     -7.649663
  C      -5.094566      0.446346      2.279962
  H      -5.177759      1.559246      2.269894
  H      -5.946266      0.098342      2.909352
  C      -5.269260     -0.110601      0.834709
  H      -6.362673     -0.173323      0.620758
  H      -4.897163     -1.164933      0.789326
  C      -4.621209      0.715738     -0.314551
  H      -5.047256      1.749484     -0.302060
  H      -4.945196      0.267289     -1.286120
  C      -3.071229      0.807666     -0.315366
  H      -2.724373      1.391936      0.571183
  H      -2.645848     -0.217815     -0.195974
  C      -2.502949      1.475971     -1.595296
  H      -2.753438      0.853106     -2.489223
  H      -3.016966      2.456702     -1.749938
  C      -0.962460      1.728798     -1.565115
  H      -0.728582      2.374370     -0.681616
  H      -0.679758      2.327401     -2.460170
  C      -0.129320      0.459069     -1.487724
  H      -0.214034     -0.115375     -0.542651
  C       0.682549     -0.049827     -2.448783
  H       1.201314     -1.005728     -2.221911
  C       0.986436      0.522635     -3.820805
  H       2.083097      0.723856     -3.890945
  H       0.492441      1.510024     -3.970158
  C       0.590629     -0.421626     -4.996894
  H       1.146360     -1.384893     -4.894758
  H       0.950349      0.037577     -5.949956
  C      -0.932144     -0.691898     -5.100412
  H      -1.280775     -1.216439     -4.179484
  H      -1.472307      0.285775     -5.105939
  C      -1.355181     -1.487887     -6.368937
  H      -2.469754     -1.565998     -6.389314
  H      -1.073698     -0.892386     -7.271716
  C      -0.754851     -2.915023     -6.516063
  H       0.360241     -2.857310     -6.547507
  H      -1.057041     -3.322178     -7.512252
  C      -1.190591     -3.921495     -5.420516
  H      -0.900168     -3.541866     -4.410206
  H      -2.307400     -3.990292     -5.407101
  C      -0.594540     -5.339733     -5.617121
  H      -0.862780     -5.713322     -6.636403
  H       0.521380     -5.272134     -5.605669
  C      -1.065473     -6.359970     -4.551992
  H      -0.784170     -6.029966     -3.523890
  H      -2.174514     -6.480633     -4.567929
  H      -0.616200     -7.366386     -4.717120
138
Coordinates from ORCA-job /wrk/rja7/qm_final_3_replicates/qm_final_1.1/qm/1/freq E -2722.583317298156
  N       2.454783     -4.680007      9.222330
  C       3.094748     -3.539853      8.348047
  H       3.845101     -4.045547      7.699661
  H       3.582278     -2.848452      9.064759
  C       1.418953     -5.465446      8.424569
  H       1.885827     -5.835773      7.488575
  H       1.074425     -6.321648      9.041419
  H       0.572252     -4.789344      8.196170
  C       1.784072     -4.128703     10.499499
  H       2.475971     -3.412544     10.982124
  H       0.855354     -3.590735     10.234733
  H       1.563677     -4.995671     11.158777
  C       3.584798     -5.608772      9.647228
  H       4.336246     -5.017228     10.208567
  H       4.054545     -6.053704      8.745988
  H       3.176446     -6.411949     10.295231
  C       2.095821     -2.738393      7.474968
  H       2.693481     -1.893795      7.046742
  H       1.748600     -3.342724      6.602933
  P       1.124633     -1.039011      9.409742
  O       2.579764     -1.078989      9.875774
  O      -0.101401     -1.253066     10.286097
  O       0.945741     -2.310080      8.188817
  O       0.964043      0.333302      8.430883
  C      -0.356502      0.774668      8.067508
  H      -0.342673      1.892022      8.059941
  H      -1.108654      0.434276      8.819331
  C      -0.774339      0.263356      6.667368
  H      -0.638297     -0.837338      6.606159
  O       0.084830      0.913707      5.660958
  C       0.887831      0.144292      4.862298
  O       0.973421     -1.077403      4.911408
  C       1.688499      1.033054      3.893741
  H       2.679060      1.225713      4.377759
  H       1.188013      2.022089      3.809710
  C      -2.224658      0.649772      6.332128
  H      -2.368471      1.754963      6.355416
  H      -2.927833      0.201922      7.074119
  O      -2.524573      0.143528      4.993183
  C      -3.679377      0.598875      4.397335
  O      -4.482014      1.341398      4.944881
  C      -3.797576      0.038286      2.969749
  H      -2.889097      0.361780      2.412994
  H      -3.714235     -1.074170      3.028140
  C       1.904150      0.365732      2.509497
  H       0.912568      0.214847      2.014447
  H       2.318576     -0.655323      2.673988
  C       2.840598      1.157734      1.558737
  H       3.028114      0.527385      0.658347
  H       3.837648      1.293524      2.048872
  C       2.299714      2.545401      1.119538
  H       2.157442      3.189679      2.019355
  H       1.284009      2.416156      0.672007
  C       3.211316      3.306127      0.115558
  H       4.231817      3.421021      0.560038
  H       2.819681      4.345334     -0.010088
  C       3.327905      2.648724     -1.283740
  H       2.310860      2.525368     -1.724316
  H       3.741594      1.616536     -1.190044
  C       4.227050      3.458950     -2.266938
  H       5.237055      3.575640     -1.798149
  H       3.816422      4.488513     -2.380932
  C       4.380896      2.778605     -3.616634
  H       4.880431      1.787382     -3.584691
  C       3.956849      3.227498     -4.824359
  H       4.135957      2.572841     -5.701327
  C       3.237503      4.538830     -5.107572
  H       3.658987      4.992061     -6.038923
  H       3.431755      5.272740     -4.293070
  C       1.691536      4.397683     -5.287195
  H       1.253241      5.421308     -5.383052
  H       1.257521      3.960722     -4.354812
  C       1.257463      3.552472     -6.511723
  H       1.646768      2.510384     -6.413807
  H       1.736250      3.970620     -7.432369
  C      -0.280020      3.509926     -6.708018
  H      -0.667428      4.556178     -6.787136
  H      -0.751177      3.078776     -5.791820
  C      -0.727963      2.713359     -7.963233
  H      -0.403510      1.647711     -7.862180
  H      -0.180695      3.113750     -8.852480
  C      -2.253844      2.767226     -8.255235
  H      -2.444425      2.319156     -9.261673
  H      -2.573634      3.836237     -8.337182
  C      -3.152832      2.045791     -7.215792
  H      -2.993953      2.487360     -6.202196
  H      -2.837226      0.978666     -7.136467
  C      -4.660301      2.118101     -7.564087
  H      -5.283335      1.592524     -6.804141
  H      -4.873083      1.651101     -8.554975
  H      -5.012803      3.175254     -7.614516
  C      -5.105207      0.459069      2.254063
  H      -5.180356      1.572465      2.239920
  H      -5.961096      0.119396      2.882248
  C      -5.278980     -0.102958      0.810748
  H      -6.371882     -0.164319      0.593994
  H      -4.908573     -1.158099      0.770707
  C      -4.625743      0.717664     -0.339356
  H      -5.053555      1.750723     -0.335515
  H      -4.942306      0.263055     -1.310541
  C      -3.076395      0.813458     -0.327731
  H      -2.739294      1.403541      0.558809
  H      -2.649219     -0.210095     -0.198949
  C      -2.498356      1.475847     -1.606030
  H      -2.733111      0.843673     -2.497493
  H      -3.018206      2.451144     -1.775315
  C      -0.960714      1.741133     -1.557612
  H      -0.745095      2.400012     -0.679264
  H      -0.669196      2.329888     -2.456332
  C      -0.118750      0.479448     -1.452391
  H      -0.210263     -0.083653     -0.501213
  C       0.709519     -0.034846     -2.396485
  H       1.232200     -0.983971     -2.151111
  C       1.024697      0.521310     -3.772582
  H       2.123648      0.710437     -3.841197
  H       0.541758      1.512322     -3.934250
  C       0.623869     -0.431025     -4.941203
  H       1.173298     -1.396879     -4.829810
  H       0.987816      0.018237     -5.897470
  C      -0.900208     -0.692251     -5.044870
  H      -1.253798     -1.207880     -4.120884
  H      -1.434018      0.288780     -5.059244
  C      -1.326450     -1.495188     -6.307764
  H      -2.441722     -1.562027     -6.331481
  H      -1.035202     -0.911156     -7.214865
  C      -0.740279     -2.929944     -6.439781
  H       0.375574     -2.884431     -6.464249
  H      -1.040214     -3.341041     -7.435022
  C      -1.194108     -3.924129     -5.340272
  H      -0.906689     -3.541085     -4.330424
  H      -2.311663     -3.980982     -5.334201
  C      -0.612377     -5.350385     -5.523193
  H      -0.877742     -5.727518     -6.541910
  H       0.504141     -5.295090     -5.504516
  C      -1.101514     -6.358437     -4.454518
  H      -0.822916     -6.024756     -3.426861
  H      -2.211707     -6.466826     -4.476683
  H      -0.662571     -7.370897     -4.610172
138
Coordinates from ORCA-job /wrk/rja7/qm_final_3_replicates/qm_final_1.1/qm/1/freq E -2722.583486468687
  N       2.446229     -4.705360      9.199560
  C       3.064207     -3.579259      8.291525
  H       3.788797     -4.099630      7.625939
  H       3.581569     -2.885314      8.984204
  C       1.390673     -5.496228      8.436380
  H       1.835819     -5.874165      7.492887
  H       1.058688     -6.347753      9.066477
  H       0.537173     -4.825409      8.217797
  C       1.810608     -4.137193     10.486565
  H       2.519715     -3.422271     10.944926
  H       0.881297     -3.593105     10.237060
  H       1.598788     -4.996849     11.157978
  C       3.583463     -5.633369      9.603780
  H       4.353811     -5.039854     10.136707
  H       4.025930     -6.090101      8.694926
  H       3.189655     -6.427693     10.271607
  C       2.045987     -2.779773      7.438995
  H       2.638738     -1.946920      6.981956
  H       1.668676     -3.392179      6.585402
  P       1.137679     -1.054646      9.382738
  O       2.596408     -1.121402      9.834764
  O      -0.083525     -1.233192     10.271531
  O       0.918023     -2.332844      8.176290
  O       0.997332      0.310314      8.389830
  C      -0.318797      0.768223      8.036754
  H      -0.292613      1.885300      8.025457
  H      -1.069309      0.438834      8.795513
  C      -0.750773      0.254768      6.641939
  H      -0.630434     -0.848132      6.586645
  O       0.111697      0.890205      5.627952
  C       0.895244      0.113715      4.816390
  O       0.965046     -1.109428      4.855661
  C       1.697029      1.000493      3.846868
  H       2.701043      1.163850      4.313234
  H       1.215804      2.001249      3.792335
  C      -2.199758      0.658229      6.317004
  H      -2.330824      1.764980      6.342451
  H      -2.901591      0.217306      7.064198
  O      -2.518324      0.153099      4.982400
  C      -3.673315      0.621559      4.397993
  O      -4.455357      1.384498      4.947267
  C      -3.806845      0.069427      2.968532
  H      -2.895135      0.381103      2.406545
  H      -3.740528     -1.044207      3.024045
  C       1.870886      0.357633      2.445025
  H       0.868971      0.245606      1.963142
  H       2.258792     -0.678081      2.580687
  C       2.811119      1.146816      1.494199
  H       2.952629      0.541108      0.568300
  H       3.824135      1.230582      1.962924
  C       2.309369      2.565701      1.110028
  H       2.205589      3.183401      2.033289
  H       1.279840      2.486709      0.679900
  C       3.232377      3.332721      0.120529
  H       4.257486      3.410903      0.561913
  H       2.864186      4.384219      0.029758
  C       3.336372      2.715373     -1.298559
  H       2.316316      2.614633     -1.738197
  H       3.740639      1.676902     -1.236860
  C       4.233266      3.547484     -2.265213
  H       5.240086      3.670817     -1.790402
  H       3.814069      4.574225     -2.367568
  C       4.406528      2.883822     -3.621112
  H       4.932190      1.906083     -3.595837
  C       3.972847      3.329857     -4.827865
  H       4.170466      2.685760     -5.708389
  C       3.208804      4.616183     -5.106892
  H       3.603879      5.082494     -6.043244
  H       3.386247      5.357777     -4.295817
  C       1.666887      4.419347     -5.266478
  H       1.193472      5.427616     -5.359706
  H       1.259858      3.972478     -4.327681
  C       1.243465      3.557009     -6.483424
  H       1.654245      2.523097     -6.380912
  H       1.708962      3.979918     -7.408847
  C      -0.293459      3.485998     -6.677943
  H      -0.700663      4.525002     -6.753147
  H      -0.754786      3.045557     -5.761695
  C      -0.729727      2.688441     -7.938166
  H      -0.393476      1.626272     -7.841099
  H      -0.185004      3.097131     -8.824400
  C      -2.253735      2.730066     -8.237975
  H      -2.433667      2.293346     -9.251397
  H      -2.583087      3.796971     -8.308848
  C      -3.152974      1.984046     -7.217095
  H      -2.993886      2.397647     -6.192570
  H      -2.838658      0.913812     -7.168246
  C      -4.660373      2.066421     -7.563533
  H      -5.282306      1.510791     -6.824191
  H      -4.873854      1.638093     -8.571406
  H      -5.016807      3.123765     -7.571914
  C      -5.115048      0.508469      2.262686
  H      -5.179957      1.622540      2.253633
  H      -5.970400      0.173931      2.893978
  C      -5.303341     -0.051208      0.820864
  H      -6.398133     -0.111103      0.614101
  H      -4.934125     -1.106844      0.780002
  C      -4.662065      0.765427     -0.337823
  H      -5.082999      1.801366     -0.330978
  H      -4.991655      0.312511     -1.305435
  C      -3.114302      0.854313     -0.332083
  H      -2.774608      1.442588      0.553383
  H      -2.691506     -0.171099     -0.203710
  C      -2.530093      1.505477     -1.611376
  H      -2.772111      0.870634     -2.497116
  H      -3.035901      2.486753     -1.788424
  C      -0.989415      1.748052     -1.555256
  H      -0.775100      2.408975     -0.677240
  H      -0.678206      2.324135     -2.455396
  C      -0.169626      0.475266     -1.427226
  H      -0.285629     -0.077662     -0.473441
  C       0.678667     -0.051617     -2.346873
  H       1.187791     -1.002584     -2.081787
  C       1.041559      0.497853     -3.715431
  H       2.142405      0.687122     -3.746995
  H       0.563891      1.487329     -3.896567
  C       0.684306     -0.463650     -4.892217
  H       1.223639     -1.431184     -4.749051
  H       1.089551     -0.025207     -5.837290
  C      -0.833972     -0.717466     -5.061405
  H      -1.233669     -1.219943     -4.149589
  H      -1.359738      0.266748     -5.114930
  C      -1.209962     -1.531780     -6.330938
  H      -2.324472     -1.580903     -6.404947
  H      -0.867440     -0.967450     -7.232332
  C      -0.644867     -2.978834     -6.409075
  H       0.471865     -2.957030     -6.378627
  H      -0.903233     -3.404565     -7.409653
  C      -1.170364     -3.938597     -5.311199
  H      -0.919725     -3.539766     -4.298087
  H      -2.288262     -3.967815     -5.355124
  C      -0.618338     -5.382652     -5.435655
  H      -0.846018     -5.777368     -6.456849
  H       0.497461     -5.356197     -5.365899
  C      -1.181258     -6.352004     -4.368047
  H      -0.940913     -6.001855     -3.336248
  H      -2.291642     -6.432909     -4.438921
  H      -0.762559     -7.378617     -4.480478
138
Coordinates from ORCA-job /wrk/rja7/qm_final_3_replicates/qm_final_1.1/qm/1/freq E -2722.583713827289
  N       2.418587     -4.713434      9.180723
  C       3.060331     -3.583287      8.293619
  H       3.797622     -4.101331      7.640071
  H       3.564628     -2.895781      9.002031
  C       1.372731     -5.494398      8.393179
  H       1.831378     -5.869377      7.454931
  H       1.025885     -6.348128      9.012283
  H       0.526764     -4.817211      8.165842
  C       1.762258     -4.152102     10.460491
  H       2.463843     -3.440101     10.935306
  H       0.837232     -3.605869     10.199907
  H       1.538446     -5.015483     11.123097
  C       3.544203     -5.649118      9.599791
  H       4.307772     -5.061500     10.148738
  H       4.000190     -6.103817      8.696511
  H       3.135549     -6.444590     10.257073
  C       2.062917     -2.775251      7.424740
  H       2.666669     -1.940029      6.986933
  H       1.703546     -3.380425      6.558424
  P       1.121147     -1.057031      9.356668
  O       2.574574     -1.120103      9.826439
  O      -0.110517     -1.244232     10.229723
  O       0.921863     -2.331640      8.142555
  O       0.987505      0.312032      8.368616
  C      -0.327718      0.770773      8.010414
  H      -0.301278      1.887858      8.000314
  H      -1.080393      0.441057      8.766720
  C      -0.757872      0.260226      6.613588
  H      -0.637287     -0.842435      6.555746
  O       0.103801      0.897339      5.600266
  C       0.887109      0.121417      4.788402
  O       0.954544     -1.101870      4.825872
  C       1.696133      1.008044      3.824739
  H       2.700978      1.161105      4.293099
  H       1.222632      2.012438      3.773733
  C      -2.205375      0.664047      6.287075
  H      -2.335751      1.770988      6.309322
  H      -2.908123      0.225819      7.035073
  O      -2.520885      0.155013      4.953350
  C      -3.669386      0.626630      4.359555
  O      -4.453236      1.392711      4.901695
  C      -3.798713      0.061516      2.934984
  H      -2.885122      0.369482      2.374308
  H      -3.731764     -1.051607      2.999429
  C       1.865961      0.368773      2.420977
  H       0.863028      0.267343      1.938440
  H       2.244996     -0.670577      2.553454
  C       2.813552      1.151517      1.472389
  H       2.943419      0.549664      0.542524
  H       3.828817      1.219597      1.938700
  C       2.330088      2.579560      1.098231
  H       2.237194      3.193417      2.025291
  H       1.298872      2.517331      0.669922
  C       3.260612      3.338028      0.109650
  H       4.288400      3.399805      0.547586
  H       2.907153      4.394958      0.024509
  C       3.348288      2.725082     -1.312323
  H       2.323541      2.636997     -1.744665
  H       3.741908      1.682272     -1.257073
  C       4.250103      3.549869     -2.281489
  H       5.261036      3.657807     -1.812130
  H       3.843317      4.582449     -2.377325
  C       4.407383      2.888600     -3.640640
  H       4.927446      1.907729     -3.621644
  C       3.965943      3.337949     -4.843142
  H       4.154048      2.693236     -5.725335
  C       3.202950      4.626518     -5.116022
  H       3.591821      5.090712     -6.055954
  H       3.388355      5.368376     -4.306825
  C       1.659399      4.432810     -5.263829
  H       1.186072      5.441307     -5.354806
  H       1.260853      3.986722     -4.321565
  C       1.225474      3.566256     -6.473986
  H       1.636879      2.532973     -6.369581
  H       1.683803      3.984458     -7.405045
  C      -0.313379      3.492982     -6.654893
  H      -0.722263      4.531022     -6.735506
  H      -0.767443      3.058999     -5.731964
  C      -0.757240      2.682387     -7.903237
  H      -0.414870      1.622696     -7.799515
  H      -0.222247      3.085927     -8.797192
  C      -2.284445      2.711861     -8.189844
  H      -2.470942      2.262956     -9.196656
  H      -2.620963      3.776003     -8.268852
  C      -3.169536      1.972492     -7.151735
  H      -3.008838      2.404319     -6.135022
  H      -2.842716      0.907159     -7.087222
  C      -4.679713      2.031736     -7.490292
  H      -5.291114      1.483036     -6.737125
  H      -4.893544      1.582013     -8.488764
  H      -5.047982      3.084594     -7.516782
  C      -5.103049      0.495736      2.220271
  H      -5.167249      1.609769      2.204775
  H      -5.961956      0.165362      2.849235
  C      -5.284156     -0.069944      0.779700
  H      -6.377731     -0.127884      0.565705
  H      -4.917338     -1.126519      0.743859
  C      -4.630849      0.742203     -0.374792
  H      -5.061325      1.774222     -0.382535
  H      -4.941056      0.278720     -1.343788
  C      -3.083541      0.843719     -0.347895
  H      -2.760363      1.441778      0.537344
  H      -2.653823     -0.177019     -0.206107
  C      -2.490178      1.494801     -1.623072
  H      -2.710793      0.851999     -2.509467
  H      -3.009676      2.467033     -1.810276
  C      -0.952873      1.762303     -1.550233
  H      -0.759018      2.432805     -0.675054
  H      -0.641307      2.337495     -2.450328
  C      -0.112246      0.504074     -1.407210
  H      -0.217001     -0.038485     -0.446110
  C       0.735910     -0.024278     -2.326266
  H       1.259601     -0.965558     -2.054389
  C       1.074431      0.510809     -3.706221
  H       2.174914      0.696464     -3.759187
  H       0.595485      1.499397     -3.887116
  C       0.693075     -0.458462     -4.868639
  H       1.233028     -1.426004     -4.728336
  H       1.081179     -0.027647     -5.824224
  C      -0.829108     -0.711044     -5.005472
  H      -1.209352     -1.212116     -4.084360
  H      -1.354744      0.273702     -5.047535
  C      -1.232488     -1.523836     -6.268160
  H      -2.348045     -1.571303     -6.319571
  H      -0.908476     -0.957862     -7.175382
  C      -0.670823     -2.971190     -6.363405
  H       0.446257     -2.950087     -6.357192
  H      -0.951283     -3.392255     -7.360048
  C      -1.172524     -3.936923     -5.259644
  H      -0.896500     -3.545825     -4.250001
  H      -2.291223     -3.963429     -5.276367
  C      -0.626557     -5.380846     -5.409071
  H      -0.882002     -5.767432     -6.426759
  H       0.490687     -5.356720     -5.368722
  C      -1.162755     -6.357913     -4.334942
  H      -0.896543     -6.015705     -3.306814
  H      -2.274606     -6.438609     -4.378638
  H      -0.746906     -7.383561     -4.465632
138
Coordinates from ORCA-job /wrk/rja7/qm_final_3_replicates/qm_final_1.1/qm/1/freq E -2722.583853899157
  N       2.395226     -4.710734      9.159308
  C       3.048807     -3.573383      8.289956
  H       3.794251     -4.085175      7.640384
  H       3.544491     -2.892237      9.010599
  C       1.358599     -5.487137      8.354621
  H       1.826875     -5.857393      7.419128
  H       1.005041     -6.344063      8.965531
  H       0.515734     -4.807484      8.123393
  C       1.723109     -4.158456     10.434842
  H       2.418611     -3.449670     10.923713
  H       0.800609     -3.610711     10.167744
  H       1.491667     -5.026619     11.088555
  C       3.516530     -5.648240      9.586615
  H       4.271652     -5.062876     10.149542
  H       3.985042     -6.096536      8.686326
  H       3.100319     -6.448358     10.233325
  C       2.061682     -2.756932      7.417522
  H       2.671186     -1.918992      6.992552
  H       1.709895     -3.354362      6.542564
  P       1.108334     -1.050382      9.354029
  O       2.559072     -1.116826      9.831698
  O      -0.128575     -1.244573     10.218668
  O       0.915786     -2.315986      8.128979
  O       0.981276      0.325233      8.373663
  C      -0.331389      0.786398      8.006511
  H      -0.304086      1.903532      7.997577
  H      -1.090184      0.457124      8.756651
  C      -0.752916      0.277358      6.606552
  H      -0.626537     -0.824501      6.547136
  O       0.110498      0.919192      5.598576
  C       0.905026      0.143785      4.797169
  O       0.978489     -1.078792      4.843214
  C       1.708047      1.026865      3.825103
  H       2.715255      1.183965      4.287271
  H       1.232715      2.029852      3.769240
  C      -2.201625      0.673671      6.275692
  H      -2.337628      1.780003      6.294735
  H      -2.902650      0.233797      7.024458
  O      -2.515500      0.159918      4.943303
  C      -3.665516      0.626238      4.347550
  O      -4.451796      1.391152      4.887708
  C      -3.793436      0.055408      2.925001
  H      -2.879483      0.362214      2.365869
  H      -3.725924     -1.057453      2.993128
  C       1.870267      0.376868      2.425645
  H       0.864385      0.276369      1.948793
  H       2.245706     -0.662960      2.564031
  C       2.816053      1.147064      1.465351
  H       2.928782      0.541552      0.536104
  H       3.836745      1.207645      1.920758
  C       2.341533      2.578508      1.093814
  H       2.254624      3.191706      2.022028
  H       1.309659      2.522864      0.667077
  C       3.273791      3.332957      0.103563
  H       4.302228      3.391914      0.540641
  H       2.923312      4.390668      0.017597
  C       3.357249      2.719429     -1.318623
  H       2.332298      2.634065     -1.749329
  H       3.748374      1.675967     -1.263889
  C       4.258245      3.542945     -2.289478
  H       5.269997      3.649526     -1.822027
  H       3.851231      4.575883     -2.384461
  C       4.410006      2.883750     -3.650432
  H       4.933257      1.904441     -3.636411
  C       3.959892      3.334885     -4.848478
  H       4.144633      2.693849     -5.734257
  C       3.193075      4.623730     -5.110023
  H       3.575039      5.092499     -6.050447
  H       3.382980      5.361837     -4.298028
  C       1.648785      4.428797     -5.249682
  H       1.171780      5.436227     -5.332130
  H       1.257905      3.974440     -4.307395
  C       1.211200      3.567655     -6.462283
  H       1.624287      2.534623     -6.363961
  H       1.665073      3.990724     -7.393290
  C      -0.328572      3.492431     -6.634661
  H      -0.739975      4.530272     -6.705783
  H      -0.776553      3.050730     -5.712029
  C      -0.778252      2.689469     -7.884962
  H      -0.430412      1.630456     -7.792687
  H      -0.252682      3.102796     -8.780638
  C      -2.308476      2.712187     -8.156823
  H      -2.502573      2.265572     -9.163141
  H      -2.651493      3.774849     -8.228731
  C      -3.178324      1.964946     -7.111158
  H      -3.011451      2.396663     -6.095159
  H      -2.842394      0.902374     -7.050810
  C      -4.691788      2.011333     -7.436363
  H      -5.292192      1.457439     -6.678191
  H      -4.909223      1.559245     -8.433045
  H      -5.068921      3.060936     -7.460978
  C      -5.095944      0.487207      2.205218
  H      -5.159932      1.601264      2.187077
  H      -5.956841      0.158611      2.832619
  C      -5.271780     -0.080580      0.764095
  H      -6.364463     -0.137992      0.545334
  H      -4.906298     -1.137627      0.730912
  C      -4.611712      0.730770     -0.387941
  H      -5.040665      1.763426     -0.397609
  H      -4.918992      0.267882     -1.358083
  C      -3.064065      0.831175     -0.356336
  H      -2.744388      1.429203      0.530669
  H      -2.634880     -0.189658     -0.213582
  C      -2.466321      1.483915     -1.629255
  H      -2.683384      0.842154     -2.518088
  H      -2.985610      2.456228     -1.816073
  C      -0.929396      1.752886     -1.549676
  H      -0.740754      2.419603     -0.670985
  H      -0.615998      2.332651     -2.446097
  C      -0.086309      0.494713     -1.409444
  H      -0.194114     -0.052059     -0.451145
  C       0.760984     -0.032078     -2.329891
  H       1.281636     -0.976405     -2.062769
  C       1.096968      0.506164     -3.708649
  H       2.197971      0.686742     -3.765554
  H       0.620950      1.497432     -3.883610
  C       0.703651     -0.457955     -4.870542
  H       1.242531     -1.427103     -4.737494
  H       1.083353     -0.025236     -5.828336
  C      -0.821179     -0.708816     -4.989940
  H      -1.189759     -1.213821     -4.066088
  H      -1.346988      0.276051     -5.019752
  C      -1.240680     -1.517565     -6.250574
  H      -2.356606     -1.563726     -6.289623
  H      -0.927484     -0.948485     -7.159841
  C      -0.681490     -2.965006     -6.357809
  H       0.435598     -2.944785     -6.368068
  H      -0.977035     -3.382929     -7.351465
  C      -1.167189     -3.934368     -5.249593
  H      -0.872130     -3.547993     -4.243308
  H      -2.286102     -3.957089     -5.246265
  C      -0.627961     -5.378999     -5.414425
  H      -0.904652     -5.761456     -6.428152
  H       0.489923     -5.357887     -5.396530
  C      -1.144582     -6.359341     -4.333232
  H      -0.857049     -6.021876     -3.309252
  H      -2.257276     -6.438004     -4.354755
  H      -0.733245     -7.385198     -4.476417
138
Coordinates from ORCA-job /wrk/rja7/qm_final_3_replicates/qm_final_1.1/qm/1/freq E -2722.584019751680
  N       2.391154     -4.707447      9.150610
  C       3.049223     -3.569400      8.285415
  H       3.799932     -4.079741      7.640648
  H       3.538907     -2.887842      9.009692
  C       1.363245     -5.487912      8.339128
  H       1.839698     -5.859023      7.408107
  H       1.007162     -6.344356      8.949176
  H       0.520411     -4.810904      8.099994
  C       1.707219     -4.154654     10.419500
  H       2.396324     -3.441991     10.911874
  H       0.784965     -3.610521     10.144144
  H       1.473792     -5.022247     11.073177
  C       3.511425     -5.641366      9.588773
  H       4.260549     -5.052764     10.156300
  H       3.988066     -6.090748      8.693282
  H       3.091770     -6.440649     10.234190
  C       2.066288     -2.754571      7.406794
  H       2.677545     -1.915903      6.985586
  H       1.720961     -3.352431      6.529501
  P       1.101315     -1.046882      9.336135
  O       2.550757     -1.108950      9.818750
  O      -0.138372     -1.244193     10.196089
  O       0.916156     -2.314754      8.111774
  O       0.975682      0.328235      8.353847
  C      -0.336367      0.787424      7.980427
  H      -0.309249      1.904513      7.967472
  H      -1.097391      0.461221      8.729552
  C      -0.755557      0.274483      6.580933
  H      -0.630269     -0.827612      6.524712
  O       0.109725      0.911981      5.571955
  C       0.903018      0.133302      4.772231
  O       0.974537     -1.089275      4.821434
  C       1.706964      1.012308      3.796933
  H       2.722502      1.151279      4.246586
  H       1.244865      2.021851      3.753693
  C      -2.203361      0.671702      6.246821
  H      -2.337565      1.778312      6.261657
  H      -2.905326      0.235386      6.996843
  O      -2.517807      0.154243      4.916131
  C      -3.665080      0.622959      4.316792
  O      -4.448410      1.394091      4.852295
  C      -3.792636      0.046515      2.896445
  H      -2.876329      0.348471      2.339196
  H      -3.728804     -1.066227      2.969083
  C       1.840192      0.369137      2.390947
  H       0.826807      0.292226      1.926406
  H       2.196595     -0.678832      2.517513
  C       2.787950      1.126258      1.421883
  H       2.858154      0.533956      0.480217
  H       3.819780      1.148196      1.855184
  C       2.350145      2.577812      1.084045
  H       2.291090      3.174575      2.025037
  H       1.312331      2.559973      0.667800
  C       3.294053      3.326132      0.100287
  H       4.324974      3.356944      0.534332
  H       2.965670      4.392100      0.030786
  C       3.361668      2.732037     -1.330949
  H       2.333610      2.668416     -1.758147
  H       3.737837      1.682533     -1.292887
  C       4.270503      3.556919     -2.293614
  H       5.282243      3.652763     -1.824035
  H       3.870712      4.593425     -2.380737
  C       4.420296      2.908464     -3.659971
  H       4.950868      1.932997     -3.655800
  C       3.959827      3.365049     -4.851641
  H       4.144349      2.732773     -5.743722
  C       3.178440      4.648209     -5.096701
  H       3.546321      5.127081     -6.037584
  H       3.368449      5.382353     -4.281020
  C       1.635337      4.436962     -5.222434
  H       1.145310      5.438986     -5.291784
  H       1.260978      3.968917     -4.280097
  C       1.196288      3.579005     -6.436662
  H       1.617311      2.548631     -6.345107
  H       1.641131      4.009582     -7.368582
  C      -0.343915      3.493726     -6.599842
  H      -0.763014      4.529043     -6.662286
  H      -0.783662      3.043437     -5.677346
  C      -0.794466      2.694536     -7.851559
  H      -0.440110      1.637044     -7.766947
  H      -0.275540      3.115799     -8.747339
  C      -2.326108      2.709427     -8.116298
  H      -2.522281      2.266351     -9.123689
  H      -2.675524      3.770510     -8.181517
  C      -3.186098      1.952245     -7.069627
  H      -3.016651      2.380180     -6.052472
  H      -2.843247      0.891471     -7.016301
  C      -4.701278      1.990291     -7.387587
  H      -5.294870      1.429505     -6.629136
  H      -4.919683      1.540645     -8.385178
  H      -5.085069      3.037509     -7.407168
  C      -5.091385      0.480367      2.170739
  H      -5.152665      1.594564      2.151244
  H      -5.955645      0.154471      2.794967
  C      -5.262255     -0.088402      0.728972
  H      -6.354176     -0.146146      0.506658
  H      -4.896990     -1.145585      0.697785
  C      -4.598283      0.722579     -0.421516
  H      -5.031337      1.753456     -0.437511
  H      -4.897423      0.255891     -1.392421
  C      -3.051462      0.829945     -0.379498
  H      -2.742459      1.431587      0.508669
  H      -2.618516     -0.188545     -0.231417
  C      -2.445369      1.482588     -1.648677
  H      -2.652193      0.838297     -2.537998
  H      -2.966413      2.452769     -1.841149
  C      -0.909410      1.755700     -1.554303
  H      -0.732748      2.423357     -0.673914
  H      -0.587310      2.334616     -2.448108
  C      -0.066084      0.498438     -1.402045
  H      -0.180785     -0.042423     -0.441371
  C       0.787440     -0.034162     -2.313298
  H       1.305793     -0.977217     -2.037742
  C       1.133184      0.496735     -3.692580
  H       2.235518      0.669399     -3.744914
  H       0.663874      1.490246     -3.871678
  C       0.737178     -0.469235     -4.851735
  H       1.266651     -1.442632     -4.711658
  H       1.124398     -0.044685     -5.809993
  C      -0.789668     -0.707508     -4.975861
  H      -1.164949     -1.207144     -4.051920
  H      -1.307415      0.281468     -5.009560
  C      -1.211834     -1.517115     -6.234915
  H      -2.328076     -1.550513     -6.279517
  H      -0.888408     -0.955894     -7.145587
  C      -0.670025     -2.971446     -6.331103
  H       0.447361     -2.966140     -6.336406
  H      -0.966608     -3.392367     -7.323190
  C      -1.172370     -3.926124     -5.217473
  H      -0.871295     -3.537747     -4.213689
  H      -2.291550     -3.929137     -5.214223
  C      -0.657889     -5.380405     -5.372032
  H      -0.942710     -5.766511     -6.382154
  H       0.460286     -5.378608     -5.356100
  C      -1.188659     -6.343488     -4.282246
  H      -0.894366     -6.002956     -3.261217
  H      -2.302495     -6.404722     -4.301677
  H      -0.793792     -7.376831     -4.417986
138
Coordinates from ORCA-job /wrk/rja7/qm_final_3_replicates/qm_final_1.1/qm/1/freq E -2722.584181823612
  N       2.349699     -4.716297      9.114606
  C       3.016506     -3.578026      8.256869
  H       3.763498     -4.089959      7.609117
  H       3.511813     -2.905358      8.985568
  C       1.315997     -5.484635      8.299300
  H       1.789854     -5.854765      7.366629
  H       0.953741     -6.341034      8.905621
  H       0.478136     -4.800425      8.063141
  C       1.671376     -4.165757     10.387520
  H       2.365362     -3.458652     10.881014
  H       0.751558     -3.615522     10.116691
  H       1.435173     -5.035010     11.037921
  C       3.462973     -5.661478      9.546556
  H       4.216767     -5.082370     10.117656
  H       3.935683     -6.109027      8.648176
  H       3.036817     -6.461034     10.187389
  C       2.040139     -2.750491      7.382832
  H       2.658270     -1.914046      6.967505
  H       1.691254     -3.339833      6.501435
  P       1.088809     -1.045657      9.320733
  O       2.538087     -1.120280      9.801947
  O      -0.152340     -1.238638     10.179479
  O       0.893433     -2.306278      8.090194
  O       0.973267      0.334922      8.344367
  C      -0.335369      0.800210      7.967962
  H      -0.302988      1.917124      7.956660
  H      -1.100281      0.476685      8.714400
  C      -0.753017      0.291268      6.566421
  H      -0.631636     -0.811134      6.508000
  O       0.117394      0.928170      5.560907
  C       0.910836      0.149146      4.761341
  O       0.979876     -1.073624      4.808670
  C       1.719509      1.026436      3.788149
  H       2.739751      1.149323      4.231537
  H       1.268870      2.041374      3.753655
  C      -2.198980      0.692350      6.229299
  H      -2.330380      1.799372      6.242186
  H      -2.903183      0.258670      6.978713
  O      -2.511669      0.172038      4.899515
  C      -3.656443      0.641054      4.295758
  O      -4.438388      1.417543      4.825444
  C      -3.780693      0.059251      2.877333
  H      -2.859121      0.352515      2.324815
  H      -3.724871     -1.053555      2.954760
  C       1.835327      0.388961      2.377826
  H       0.817065      0.328048      1.920497
  H       2.178599     -0.664144      2.497859
  C       2.787430      1.134734      1.403323
  H       2.831917      0.547231      0.456864
  H       3.824459      1.133607      1.824397
  C       2.373587      2.595819      1.078342
  H       2.323260      3.186290      2.023798
  H       1.336552      2.596180      0.661843
  C       3.326926      3.338381      0.099209
  H       4.358233      3.355259      0.532868
  H       3.009858      4.408237      0.036244
  C       3.387998      2.752142     -1.335910
  H       2.358691      2.694810     -1.759758
  H       3.761085      1.701284     -1.305243
  C       4.291148      3.581670     -2.299612
  H       5.306030      3.676623     -1.836792
  H       3.889739      4.617999     -2.378602
  C       4.431649      2.940807     -3.670845
  H       4.977014      1.973560     -3.677579
  C       3.945652      3.394238     -4.854131
  H       4.126875      2.768671     -5.751445
  C       3.138805      4.665091     -5.081912
  H       3.482903      5.153014     -6.027115
  H       3.330612      5.398997     -4.266675
  C       1.596670      4.429618     -5.183810
  H       1.089831      5.424149     -5.236123
  H       1.245232      3.946486     -4.239729
  C       1.151781      3.576476     -6.400074
  H       1.584212      2.549732     -6.321400
  H       1.581001      4.018949     -7.333724
  C      -0.389386      3.477789     -6.547767
  H      -0.818602      4.509831     -6.593281
  H      -0.814951      3.013072     -5.626023
  C      -0.847179      2.688810     -7.803509
  H      -0.481067      1.634087     -7.736394
  H      -0.344815      3.126030     -8.701275
  C      -2.382272      2.690907     -8.047758
  H      -2.587246      2.259274     -9.058280
  H      -2.743407      3.749122     -8.093688
  C      -3.219255      1.910479     -6.999614
  H      -3.039829      2.326494     -5.979219
  H      -2.864139      0.852771     -6.965784
  C      -4.739055      1.936469     -7.296381
  H      -5.316633      1.360941     -6.536664
  H      -4.965892      1.495983     -8.296155
  H      -5.133295      2.979970     -7.299215
  C      -5.071033      0.499708      2.141427
  H      -5.124481      1.614223      2.117675
  H      -5.941690      0.181290      2.760550
  C      -5.235433     -0.071947      0.700036
  H      -6.326256     -0.122860      0.470840
  H      -4.877332     -1.131735      0.674065
  C      -4.559993      0.732170     -0.448507
  H      -4.989881      1.764258     -0.471884
  H      -4.853886      0.262623     -1.419694
  C      -3.012877      0.834838     -0.398312
  H      -2.705639      1.438820      0.488886
  H      -2.583555     -0.184281     -0.244381
  C      -2.399586      1.481968     -1.667089
  H      -2.605989      0.836377     -2.555000
  H      -2.914858      2.454261     -1.863713
  C      -0.863598      1.749765     -1.567447
  H      -0.689706      2.418812     -0.687437
  H      -0.535902      2.324640     -2.461982
  C      -0.023931      0.490929     -1.407179
  H      -0.141367     -0.043302     -0.443301
  C       0.832149     -0.046520     -2.313105
  H       1.350145     -0.988128     -2.032231
  C       1.179677      0.479680     -3.694328
  H       2.282135      0.650643     -3.746644
  H       0.711213      1.472996     -3.873578
  C       0.781166     -0.487558     -4.851405
  H       1.305085     -1.463536     -4.707844
  H       1.171467     -0.068212     -5.810744
  C      -0.746525     -0.719241     -4.976781
  H      -1.124180     -1.215013     -4.051933
  H      -1.260609      0.271527     -5.012920
  C      -1.171255     -1.530445     -6.233611
  H      -2.287784     -1.554227     -6.280795
  H      -0.841839     -0.975344     -7.145968
  C      -0.641892     -2.989499     -6.321435
  H       0.475550     -2.994610     -6.327259
  H      -0.942801     -3.414309     -7.310510
  C      -1.151063     -3.931682     -5.200285
  H      -0.838696     -3.542033     -4.200545
  H      -2.270156     -3.918163     -5.190445
  C      -0.658267     -5.393669     -5.349700
  H      -0.958030     -5.783299     -6.354098
  H       0.460003     -5.407643     -5.344297
  C      -1.191111     -6.341428     -4.247733
  H      -0.882564     -5.997552     -3.232076
  H      -2.305784     -6.387954     -4.255944
  H      -0.811245     -7.380855     -4.379713
138
Coordinates from ORCA-job /wrk/rja7/qm_final_3_replicates/qm_final_1.1/qm/1/freq E -2722.584344727180
  N       2.344392     -4.733889      9.039161
  C       3.003419     -3.588751      8.185304
  H       3.749617     -4.094981      7.532406
  H       3.498477     -2.917338      8.915462
  C       1.313576     -5.503435      8.221485
  H       1.788415     -5.863447      7.285448
  H       0.958411     -6.366017      8.823119
  H       0.471053     -4.822889      7.991190
  C       1.665322     -4.191767     10.315368
  H       2.358892     -3.487035     10.812489
  H       0.745057     -3.641394     10.046837
  H       1.430289     -5.064675     10.961387
  C       3.462849     -5.675768      9.465164
  H       4.213515     -5.096585     10.040298
  H       3.938017     -6.114841      8.563953
  H       3.040847     -6.481943     10.100648
  C       2.020572     -2.759430      7.320270
  H       2.634530     -1.919872      6.905242
  H       1.667310     -3.345509      6.438510
  P       1.074557     -1.069321      9.275242
  O       2.525156     -1.145633      9.751349
  O      -0.163127     -1.269013     10.137258
  O       0.876326     -2.320884      8.036388
  O       0.952928      0.317871      8.309429
  C      -0.357392      0.783318      7.940210
  H      -0.327334      1.900354      7.939627
  H      -1.120229      0.450688      8.684826
  C      -0.774426      0.285619      6.534857
  H      -0.648342     -0.815751      6.466348
  O       0.092966      0.936460      5.535542
  C       0.892267      0.168407      4.731233
  O       0.969987     -1.054159      4.770231
  C       1.696832      1.057905      3.765992
  H       2.715304      1.183566      4.212390
  H       1.240152      2.070466      3.738021
  C      -2.222462      0.682163      6.200524
  H      -2.359464      1.788269      6.220212
  H      -2.925044      0.239858      6.946481
  O      -2.530984      0.168580      4.867053
  C      -3.668152      0.648369      4.256876
  O      -4.447603      1.429702      4.783099
  C      -3.790814      0.067279      2.837898
  H      -2.858613      0.339952      2.292260
  H      -3.758634     -1.046335      2.917758
  C       1.820351      0.431887      2.351082
  H       0.805057      0.376911      1.886037
  H       2.160452     -0.622858      2.465627
  C       2.783455      1.181704      1.390824
  H       2.835623      0.598513      0.442020
  H       3.816644      1.173780      1.821135
  C       2.377819      2.645781      1.069990
  H       2.325185      3.233642      2.016945
  H       1.343295      2.652405      0.647299
  C       3.338552      3.386499      0.096993
  H       4.368024      3.399335      0.534970
  H       3.024842      4.457383      0.033884
  C       3.401630      2.801843     -1.338529
  H       2.372955      2.746116     -1.764427
  H       3.773387      1.750501     -1.309026
  C       4.306057      3.631815     -2.300146
  H       5.319498      3.729354     -1.834845
  H       3.902006      4.666852     -2.381418
  C       4.449316      2.990996     -3.671039
  H       5.011593      2.033570     -3.681723
  C       3.943444      3.434703     -4.849499
  H       4.126344      2.812951     -5.749123
  C       3.113564      4.692337     -5.066856
  H       3.438406      5.187181     -6.015255
  H       3.302368      5.428509     -4.253060
  C       1.575304      4.429288     -5.151886
  H       1.050252      5.414423     -5.202912
  H       1.240372      3.944299     -4.202633
  C       1.135456      3.566917     -6.363069
  H       1.582052      2.545996     -6.285589
  H       1.553176      4.013235     -7.300126
  C      -0.404447      3.447279     -6.500361
  H      -0.847259      4.473294     -6.548566
  H      -0.817208      2.981376     -5.573106
  C      -0.861526      2.648332     -7.750720
  H      -0.490884      1.595875     -7.676904
  H      -0.362974      3.082353     -8.652788
  C      -2.397242      2.643504     -7.990676
  H      -2.603988      2.198245     -8.995036
  H      -2.760638      3.700163     -8.049870
  C      -3.230839      1.876248     -6.929942
  H      -3.045669      2.304266     -5.915435
  H      -2.878648      0.817797     -6.884995
  C      -4.752220      1.904831     -7.219177
  H      -5.328096      1.341125     -6.449385
  H      -4.986961      1.453615     -8.212365
  H      -5.141420      2.950155     -7.231956
  C      -5.066050      0.531510      2.090568
  H      -5.100388      1.646727      2.067198
  H      -5.948000      0.226895      2.700401
  C      -5.223903     -0.036373      0.647214
  H      -6.312823     -0.074456      0.406747
  H      -4.876891     -1.099903      0.624456
  C      -4.529103      0.761421     -0.494118
  H      -4.944931      1.799171     -0.517764
  H      -4.821858      0.298042     -1.468675
  C      -2.981404      0.845173     -0.432277
  H      -2.671934      1.442156      0.459078
  H      -2.565076     -0.179365     -0.279170
  C      -2.352604      1.488278     -1.695722
  H      -2.550162      0.840183     -2.583623
  H      -2.862862      2.461207     -1.902356
  C      -0.818747      1.754636     -1.578519
  H      -0.654839      2.434459     -0.704672
  H      -0.477730      2.317161     -2.476113
  C       0.016427      0.497370     -1.390585
  H      -0.115120     -0.025462     -0.422291
  C       0.885542     -0.051137     -2.276978
  H       1.397070     -0.990253     -1.976888
  C       1.248657      0.453311     -3.662231
  H       2.354046      0.604753     -3.713444
  H       0.798425      1.452691     -3.856607
  C       0.836558     -0.521036     -4.808978
  H       1.349719     -1.501524     -4.657301
  H       1.229297     -0.114452     -5.773061
  C      -0.693691     -0.735011     -4.928078
  H      -1.075390     -1.217949     -3.998147
  H      -1.195035      0.261785     -4.972026
  C      -1.133380     -1.553079     -6.175121
  H      -2.250203     -1.555864     -6.221722
  H      -0.793376     -1.015243     -7.093855
  C      -0.633032     -3.024008     -6.245223
  H       0.484061     -3.051707     -6.249990
  H      -0.941557     -3.452899     -7.230152
  C      -1.164141     -3.944988     -5.115877
  H      -0.843346     -3.555120     -4.119018
  H      -2.282625     -3.905557     -5.107353
  C      -0.706444     -5.420419     -5.252254
  H      -1.015813     -5.811155     -6.253224
  H       0.411198     -5.460810     -5.247083
  C      -1.261066     -6.346127     -4.141453
  H      -0.941747     -6.001311     -3.129454
  H      -2.376576     -6.364301     -4.147022
  H      -0.908027     -7.395912     -4.265448
138
Coordinates from ORCA-job /wrk/rja7/qm_final_3_replicates/qm_final_1.1/qm/1/freq E -2722.584279181157
  N       2.366090     -4.752860      8.984993
  C       3.024414     -3.586937      8.161881
  H       3.787093     -4.072869      7.512794
  H       3.499451     -2.921851      8.910758
  C       1.356832     -5.521372      8.140326
  H       1.852558     -5.863375      7.208563
  H       1.002273     -6.394018      8.727046
  H       0.511976     -4.845663      7.904622
  C       1.661771     -4.237072     10.258919
  H       2.337174     -3.524703     10.769622
  H       0.735835     -3.700181      9.983594
  H       1.435421     -5.119938     10.894347
  C       3.487582     -5.690324      9.414072
  H       4.218683     -5.114951     10.017651
  H       3.985997     -6.104788      8.513998
  H       3.061457     -6.513834     10.024470
  C       2.044974     -2.753990      7.296171
  H       2.655396     -1.900085      6.907089
  H       1.713623     -3.327505      6.398350
  P       1.043024     -1.110756      9.266107
  O       2.490043     -1.164762      9.754870
  O      -0.199434     -1.352831     10.110388
  O       0.882759     -2.342644      8.001339
  O       0.902929      0.293762      8.327563
  C      -0.409563      0.749531      7.956291
  H      -0.387692      1.866653      7.971386
  H      -1.174634      0.401424      8.691866
  C      -0.814775      0.270184      6.541115
  H      -0.687103     -0.829845      6.456782
  O       0.062346      0.938268      5.559640
  C       0.874457      0.184131      4.754701
  O       0.967584     -1.037681      4.787687
  C       1.685182      1.084462      3.804898
  H       2.702580      1.202027      4.255053
  H       1.229786      2.097971      3.782788
  C      -2.260352      0.670442      6.197470
  H      -2.396326      1.776405      6.229352
  H      -2.971367      0.219159      6.929799
  O      -2.558235      0.175241      4.854192
  C      -3.690688      0.669161      4.245253
  O      -4.466518      1.448997      4.778990
  C      -3.815039      0.108794      2.817607
  H      -2.867584      0.348912      2.285396
  H      -3.826867     -1.006206      2.885252
  C       1.815310      0.465303      2.386768
  H       0.800591      0.401349      1.923654
  H       2.165317     -0.585968      2.502232
  C       2.777956      1.219657      1.428015
  H       2.848105      0.619427      0.490602
  H       3.805839      1.230789      1.870131
  C       2.356611      2.671785      1.074736
  H       2.266314      3.276684      2.008060
  H       1.336302      2.653446      0.620706
  C       3.323887      3.406603      0.106548
  H       4.350257      3.428335      0.550680
  H       3.005879      4.475516      0.028760
  C       3.388232      2.806768     -1.321736
  H       2.356818      2.752099     -1.748663
  H       3.755915      1.754053     -1.281399
  C       4.303458      3.622247     -2.286991
  H       5.321384      3.700525     -1.828240
  H       3.916787      4.663907     -2.362233
  C       4.426690      2.984747     -3.662016
  H       4.993816      2.030558     -3.685035
  C       3.893291      3.425688     -4.829831
  H       4.060517      2.805126     -5.732904
  C       3.059696      4.683308     -5.033677
  H       3.379906      5.184618     -5.980250
  H       3.249962      5.414506     -4.216529
  C       1.523635      4.415098     -5.118439
  H       0.994836      5.398241     -5.163815
  H       1.188350      3.924840     -4.173388
  C       1.090983      3.558828     -6.336406
  H       1.546172      2.542044     -6.267658
  H       1.503672      4.016421     -7.270245
  C      -0.446569      3.422660     -6.471871
  H      -0.901071      4.443969     -6.504405
  H      -0.851355      2.939385     -5.550568
  C      -0.897845      2.632590     -7.729051
  H      -0.519630      1.582613     -7.665945
  H      -0.404587      3.079763     -8.627053
  C      -2.434615      2.617795     -7.961096
  H      -2.643853      2.176394     -8.966586
  H      -2.805235      3.672275     -8.011956
  C      -3.254186      1.839456     -6.896845
  H      -3.063907      2.266738     -5.882455
  H      -2.893246      0.782638     -6.857309
  C      -4.778055      1.860017     -7.175052
  H      -5.346416      1.300182     -6.397032
  H      -5.017128      1.400598     -8.163335
  H      -5.168856      2.904575     -7.193041
  C      -5.061041      0.631738      2.061388
  H      -5.052613      1.747596      2.051455
  H      -5.961473      0.352356      2.655711
  C      -5.217705      0.092882      0.607772
  H      -6.303914      0.100663      0.352334
  H      -4.910352     -0.982553      0.573331
  C      -4.483428      0.882936     -0.514109
  H      -4.848594      1.939767     -0.512215
  H      -4.799798      0.457307     -1.498634
  C      -2.932076      0.892659     -0.463453
  H      -2.581069      1.441724      0.442256
  H      -2.561086     -0.154455     -0.352023
  C      -2.290677      1.548870     -1.714747
  H      -2.518277      0.930150     -2.615407
  H      -2.768312      2.543914     -1.891075
  C      -0.746835      1.762069     -1.610866
  H      -0.545491      2.426074     -0.731936
  H      -0.396317      2.320452     -2.507713
  C       0.042578      0.475386     -1.431040
  H      -0.109099     -0.043616     -0.463859
  C       0.905231     -0.093091     -2.310277
  H       1.391455     -1.043938     -2.005776
  C       1.292104      0.405117     -3.691905
  H       2.397690      0.557409     -3.726790
  H       0.844404      1.402419     -3.894623
  C       0.892083     -0.572263     -4.838050
  H       1.395169     -1.556383     -4.675728
  H       1.300108     -0.175399     -5.799951
  C      -0.637940     -0.770598     -4.974523
  H      -1.034498     -1.242154     -4.045205
  H      -1.127818      0.231120     -5.030331
  C      -1.073960     -1.598012     -6.215120
  H      -2.190560     -1.584906     -6.274742
  H      -0.717550     -1.078443     -7.138162
  C      -0.591982     -3.075379     -6.248260
  H       0.524738     -3.117478     -6.250254
  H      -0.904651     -3.527771     -7.221194
  C      -1.135558     -3.952862     -5.090177
  H      -0.798439     -3.541485     -4.107724
  H      -2.252760     -3.887000     -5.076312
  C      -0.711323     -5.441099     -5.181907
  H      -1.044301     -5.861451     -6.163023
  H       0.405181     -5.505301     -5.191094
  C      -1.268272     -6.311971     -4.028429
  H      -0.922927     -5.938024     -3.035575
  H      -2.383758     -6.301644     -4.014171
  H      -0.943338     -7.374010     -4.119757
138
Coordinates from ORCA-job /wrk/rja7/qm_final_3_replicates/qm_final_1.1/qm/1/freq E -2722.584605853460
  N       2.240969     -4.786300      8.935947
  C       2.933922     -3.640606      8.111382
  H       3.673926     -4.150779      7.454701
  H       3.437008     -2.993482      8.857928
  C       1.198109     -5.515223      8.095335
  H       1.672607     -5.867682      7.156394
  H       0.819151     -6.380170      8.678609
  H       0.374408     -4.809633      7.872929
  C       1.565489     -4.252595     10.218318
  H       2.267832     -3.564192     10.725912
  H       0.654418     -3.685244      9.954514
  H       1.315861     -5.130055     10.852537
  C       3.333081     -5.763278      9.351959
  H       4.091029     -5.214235      9.946842
  H       3.806707     -6.194237      8.446097
  H       2.886828     -6.572605      9.966720
  C       1.975911     -2.773526      7.255846
  H       2.609522     -1.938361      6.862660
  H       1.617718     -3.334282      6.360014
  P       1.045783     -1.103187      9.238105
  O       2.493873     -1.206215      9.716878
  O      -0.197552     -1.303973     10.092496
  O       0.835240     -2.327815      7.973649
  O       0.943094      0.305238      8.301611
  C      -0.360897      0.786209      7.931340
  H      -0.322255      1.902858      7.949062
  H      -1.131438      0.446622      8.664927
  C      -0.768516      0.314479      6.514524
  H      -0.651311     -0.786687      6.430326
  O       0.116023      0.973578      5.534752
  C       0.923321      0.211142      4.734176
  O       0.994680     -1.012266      4.759258
  C       1.745127      1.105007      3.788742
  H       2.762492      1.209799      4.242638
  H       1.301477      2.123661      3.769248
  C      -2.207919      0.727676      6.166260
  H      -2.334206      1.834945      6.186359
  H      -2.923937      0.290787      6.902546
  O      -2.505035      0.218239      4.828140
  C      -3.620914      0.721534      4.198316
  O      -4.390424      1.522128      4.709996
  C      -3.741358      0.132438      2.782228
  H      -2.790731      0.361731      2.245730
  H      -3.754311     -0.980811      2.874357
  C       1.872092      0.490938      2.368711
  H       0.857409      0.439007      1.902347
  H       2.212854     -0.564190      2.477135
  C       2.839901      1.247647      1.419319
  H       2.906220      0.662542      0.472702
  H       3.868484      1.244946      1.860238
  C       2.426912      2.707983      1.092321
  H       2.364327      3.301944      2.034911
  H       1.394704      2.704549      0.663406
  C       3.383337      3.446818      0.112879
  H       4.417298      3.456841      0.539841
  H       3.071448      4.518449      0.052179
  C       3.426002      2.860412     -1.322799
  H       2.389770      2.802689     -1.731739
  H       3.799843      1.809711     -1.297376
  C       4.315223      3.688805     -2.301106
  H       5.340574      3.773917     -1.861100
  H       3.917908      4.727492     -2.365651
  C       4.417378      3.053348     -3.678798
  H       4.996633      2.106800     -3.714016
  C       3.856967      3.487675     -4.836599
  H       4.017822      2.869534     -5.742561
  C       2.999073      4.731537     -5.026862
  H       3.296360      5.236991     -5.978664
  H       3.190192      5.466570     -4.213031
  C       1.464549      4.439627     -5.088383
  H       0.920162      5.414751     -5.127593
  H       1.151545      3.946615     -4.136736
  C       1.023247      3.572584     -6.296484
  H       1.494081      2.562595     -6.231708
  H       1.414432      4.032262     -7.238479
  C      -0.515357      3.414541     -6.406614
  H      -0.983985      4.429503     -6.446382
  H      -0.899984      2.937909     -5.473202
  C      -0.975640      2.602505     -7.647262
  H      -0.585880      1.557162     -7.575683
  H      -0.497517      3.042393     -8.555941
  C      -2.515052      2.570700     -7.864478
  H      -2.729565      2.117309     -8.863455
  H      -2.896151      3.621136     -7.922401
  C      -3.320039      1.795884     -6.786856
  H      -3.130849      2.237291     -5.778981
  H      -2.945793      0.745010     -6.736373
  C      -4.845246      1.792837     -7.056922
  H      -5.401506      1.233089     -6.270049
  H      -5.084262      1.320525     -8.039125
  H      -5.251125      2.831481     -7.082085
  C      -4.989473      0.636310      2.015949
  H      -4.985813      1.751836      1.985994
  H      -5.888325      0.365374      2.616806
  C      -5.151250      0.064252      0.575281
  H      -6.239165      0.055995      0.326936
  H      -4.833721     -1.008558      0.559811
  C      -4.431516      0.837924     -0.564832
  H      -4.818050      1.886874     -0.591271
  H      -4.736314      0.380667     -1.538655
  C      -2.882152      0.878471     -0.507470
  H      -2.546081      1.454605      0.387892
  H      -2.490665     -0.158364     -0.371751
  C      -2.249721      1.522210     -1.768266
  H      -2.457788      0.881668     -2.658937
  H      -2.749464      2.502273     -1.966898
  C      -0.713723      1.774929     -1.654884
  H      -0.542349      2.467718     -0.792709
  H      -0.368470      2.318680     -2.561785
  C       0.112470      0.516346     -1.437824
  H      -0.020810      0.022009     -0.455196
  C       0.982716     -0.056456     -2.307837
  H       1.494181     -0.987249     -1.982616
  C       1.340798      0.410587     -3.707532
  H       2.447088      0.551333     -3.772045
  H       0.897082      1.408053     -3.917877
  C       0.906715     -0.583986     -4.828403
  H       1.414890     -1.565221     -4.664643
  H       1.288706     -0.200148     -5.805928
  C      -0.626226     -0.790241     -4.920281
  H      -0.993724     -1.258169     -3.977056
  H      -1.122298      0.208594     -4.967756
  C      -1.090721     -1.624143     -6.147280
  H      -2.208169     -1.620311     -6.176610
  H      -0.762249     -1.103016     -7.079828
  C      -0.596655     -3.097422     -6.199337
  H       0.519953     -3.127268     -6.227860
  H      -0.928520     -3.546136     -7.167709
  C      -1.103027     -3.992039     -5.038187
  H      -0.751047     -3.585419     -4.058729
  H      -2.220464     -3.944140     -4.998933
  C      -0.657252     -5.472270     -5.157548
  H      -1.006889     -5.884841     -6.136270
  H       0.459492     -5.518094     -5.193725
  C      -1.174122     -6.368006     -4.004760
  H      -0.813506     -6.002062     -3.014312
  H      -2.289036     -6.377581     -3.966924
  H      -0.832939     -7.422867     -4.118004
138
Coordinates from ORCA-job /wrk/rja7/qm_final_3_replicates/qm_final_1.1/qm/1/freq E -2722.584681442083
  N       2.181759     -4.823606      8.911904
  C       2.887834     -3.691095      8.079857
  H       3.625166     -4.213774      7.429799
  H       3.394560     -3.042753      8.822851
  C       1.133709     -5.548892      8.074479
  H       1.605032     -5.909523      7.136922
  H       0.747349     -6.408253      8.661115
  H       0.315957     -4.837645      7.849063
  C       1.508184     -4.275037     10.188777
  H       2.216025     -3.591249     10.695322
  H       0.603664     -3.699898      9.918743
  H       1.247852     -5.146611     10.826632
  C       3.263808     -5.806782      9.337870
  H       4.024899     -5.259805      9.930630
  H       3.736128     -6.248670      8.436443
  H       2.808804     -6.607595      9.957136
  C       1.941930     -2.820645      7.214019
  H       2.584638     -1.995307      6.814898
  H       1.579401     -3.384792      6.321874
  P       1.027722     -1.125693      9.181313
  O       2.471055     -1.250283      9.668797
  O      -0.222543     -1.298664     10.030851
  O       0.804218     -2.356248      7.925098
  O       0.953246      0.276489      8.232425
  C      -0.342566      0.781683      7.862892
  H      -0.284329      1.897494      7.878477
  H      -1.117469      0.457371      8.598537
  C      -0.761754      0.314789      6.447893
  H      -0.658729     -0.787812      6.364566
  O       0.127203      0.963091      5.464764
  C       0.921181      0.192236      4.658973
  O       0.972150     -1.032328      4.677753
  C       1.753936      1.079231      3.715242
  H       2.772214      1.171465      4.170170
  H       1.322577      2.102968      3.700352
  C      -2.198502      0.745174      6.109014
  H      -2.312171      1.853711      6.128969
  H      -2.914072      0.317410      6.851192
  O      -2.512934      0.236058      4.774724
  C      -3.620663      0.757671      4.145749
  O      -4.370082      1.580637      4.651849
  C      -3.752833      0.164424      2.732728
  H      -2.801116      0.375949      2.194672
  H      -3.782591     -0.947931      2.831095
  C       1.873156      0.474520      2.290111
  H       0.857070      0.440651      1.823530
  H       2.200130     -0.585994      2.387715
  C       2.847704      1.228908      1.345197
  H       2.902616      0.657763      0.389607
  H       3.878386      1.207795      1.781143
  C       2.453379      2.699736      1.046145
  H       2.410967      3.274917      2.001330
  H       1.417132      2.719227      0.631172
  C       3.407143      3.447280      0.069780
  H       4.444761      3.440110      0.487980
  H       3.105634      4.522743      0.031103
  C       3.434281      2.886930     -1.377410
  H       2.395311      2.839826     -1.777583
  H       3.803646      1.834592     -1.375167
  C       4.315781      3.731421     -2.348988
  H       5.341660      3.816455     -1.910235
  H       3.913177      4.769115     -2.400310
  C       4.420056      3.113949     -3.734630
  H       5.008893      2.173900     -3.783427
  C       3.849711      3.554440     -4.885516
  H       4.011678      2.946383     -5.798280
  C       2.973702      4.788202     -5.060012
  H       3.251336      5.301394     -6.013692
  H       3.167351      5.522462     -4.245575
  C       1.441291      4.477779     -5.099111
  H       0.883754      5.445557     -5.141674
  H       1.147653      3.992335     -4.136329
  C       0.990543      3.592030     -6.290439
  H       1.478317      2.589650     -6.224973
  H       1.355953      4.047604     -7.244754
  C      -0.547605      3.408366     -6.365622
  H      -1.034564      4.414011     -6.421218
  H      -0.903390      2.950168     -5.411585
  C      -1.025162      2.556818     -7.573967
  H      -0.623241      1.517620     -7.481256
  H      -0.572761      2.974001     -8.507777
  C      -2.568119      2.502545     -7.751298
  H      -2.803294      2.011138     -8.727485
  H      -2.962180      3.546263     -7.837904
  C      -3.336700      1.759662     -6.625715
  H      -3.124231      2.236355     -5.638474
  H      -2.952793      0.713759     -6.550300
  C      -4.868540      1.735070     -6.853339
  H      -5.397277      1.193103     -6.035556
  H      -5.131019      1.233016     -7.814576
  H      -5.285747      2.768669     -6.895958
  C      -4.993103      0.681247      1.962496
  H      -4.974385      1.796461      1.927854
  H      -5.897019      0.425212      2.562353
  C      -5.154429      0.106771      0.522499
  H      -6.240590      0.105506      0.266657
  H      -4.843607     -0.967985      0.511958
  C      -4.415769      0.873249     -0.612284
  H      -4.802269      1.921936     -0.650997
  H      -4.703301      0.409981     -1.588398
  C      -2.867431      0.916982     -0.526206
  H      -2.551004      1.501842      0.371667
  H      -2.477262     -0.118025     -0.373272
  C      -2.211624      1.549732     -1.782041
  H      -2.401385      0.898336     -2.669415
  H      -2.711396      2.525312     -2.001636
  C      -0.678037      1.808130     -1.645840
  H      -0.523528      2.515539     -0.793042
  H      -0.319934      2.338737     -2.555557
  C       0.151321      0.556387     -1.401414
  H       0.014528      0.076134     -0.412413
  C       1.023228     -0.025895     -2.263444
  H       1.537137     -0.952097     -1.929328
  C       1.373232      0.427437     -3.669811
  H       2.478814      0.571004     -3.741933
  H       0.924450      1.421200     -3.887409
  C       0.936901     -0.580746     -4.778426
  H       1.450662     -1.557660     -4.605994
  H       1.312572     -0.205841     -5.761985
  C      -0.595756     -0.793907     -4.860522
  H      -0.956816     -1.257078     -3.912515
  H      -1.096639      0.202587     -4.912999
  C      -1.063132     -1.638408     -6.078894
  H      -2.180681     -1.643597     -6.100009
  H      -0.744971     -1.120844     -7.017162
  C      -0.556468     -3.107641     -6.125750
  H       0.560147     -3.127997     -6.163610
  H      -0.892607     -3.565130     -7.088436
  C      -1.044633     -3.999222     -4.954623
  H      -0.686332     -3.584523     -3.980882
  H      -2.162018     -3.960050     -4.904845
  C      -0.587993     -5.476517     -5.068986
  H      -0.943688     -5.897824     -6.041746
  H       0.528703     -5.514211     -5.115510
  C      -1.086242     -6.368519     -3.905455
  H      -0.718360     -5.993429     -2.921071
  H      -2.200652     -6.386352     -3.856407
  H      -0.738025     -7.421434     -4.015319
138
Coordinates from ORCA-job /wrk/rja7/qm_final_3_replicates/qm_final_1.1/qm/1/freq E -2722.584903335293
  N       2.138818     -4.815867      8.885326
  C       2.851894     -3.686719      8.055776
  H       3.590301     -4.211671      7.408798
  H       3.357123     -3.038603      8.800159
  C       1.086336     -5.534258      8.046776
  H       1.556156     -5.896249      7.109123
  H       0.695429     -6.391457      8.633400
  H       0.274060     -4.816318      7.822854
  C       1.467604     -4.263395     10.162149
  H       2.175312     -3.575553     10.663077
  H       0.561490     -3.691194      9.891756
  H       1.210976     -5.132382     10.804998
  C       3.214395     -5.805796      9.311962
  H       3.976755     -5.263788      9.907713
  H       3.686203     -6.248958      8.410933
  H       2.753399     -6.604710      9.929250
  C       1.911191     -2.813732      7.186411
  H       2.555702     -1.988095      6.791434
  H       1.551819     -3.375914      6.292050
  P       0.988977     -1.116065      9.148531
  O       2.433602     -1.233619      9.633454
  O      -0.259313     -1.294846      9.999967
  O       0.770203     -2.349410      7.893491
  O       0.907143      0.286944      8.200585
  C      -0.388893      0.779639      7.814444
  H      -0.340628      1.895829      7.832845
  H      -1.170415      0.446454      8.539033
  C      -0.783675      0.313147      6.392078
  H      -0.672791     -0.788588      6.308388
  O       0.119028      0.968732      5.425726
  C       0.937991      0.205581      4.638319
  O       0.998692     -1.018606      4.656075
  C       1.783898      1.099282      3.713398
  H       2.795239      1.190187      4.183482
  H       1.350974      2.122204      3.695360
  C      -2.216108      0.737683      6.028458
  H      -2.333012      1.845901      6.040815
  H      -2.942329      0.311709      6.761346
  O      -2.510678      0.220961      4.692012
  C      -3.597418      0.755174      4.036808
  O      -4.340081      1.597859      4.519927
  C      -3.716019      0.150089      2.627278
  H      -2.755202      0.342950      2.099404
  H      -3.761465     -0.960655      2.737688
  C       1.926040      0.499487      2.288305
  H       0.915574      0.459083      1.810358
  H       2.259629     -0.558752      2.387624
  C       2.907675      1.263601      1.358249
  H       2.978965      0.694961      0.402129
  H       3.932490      1.246764      1.807913
  C       2.510003      2.733590      1.059587
  H       2.463242      3.308557      2.014619
  H       1.475055      2.751085      0.641543
  C       3.462946      3.482360      0.083545
  H       4.504261      3.461252      0.491730
  H       3.171555      4.561006      0.057614
  C       3.469195      2.934174     -1.368346
  H       2.425973      2.905168     -1.759225
  H       3.824056      1.876908     -1.378038
  C       4.352489      3.773105     -2.342682
  H       5.385298      3.837495     -1.917271
  H       3.965695      4.817326     -2.379005
  C       4.428889      3.166798     -3.735050
  H       5.026361      2.233733     -3.806338
  C       3.821956      3.607577     -4.867032
  H       3.965684      3.007143     -5.787725
  C       2.928988      4.833062     -5.011991
  H       3.180962      5.357471     -5.966773
  H       3.133060      5.562002     -4.195477
  C       1.398609      4.508334     -5.021720
  H       0.831794      5.471459     -5.037092
  H       1.128140      4.007124     -4.060134
  C       0.926901      3.638215     -6.216457
  H       1.431466      2.642616     -6.185691
  H       1.255522      4.117491     -7.172553
  C      -0.609222      3.430483     -6.244979
  H      -1.114286      4.428387     -6.270574
  H      -0.925122      2.953756     -5.285704
  C      -1.116299      2.586631     -7.446667
  H      -0.698268      1.551965     -7.379793
  H      -0.702611      3.020016     -8.391553
  C      -2.664314      2.514163     -7.567428
  H      -2.929928      2.027745     -8.538232
  H      -3.073959      3.553624     -7.630330
  C      -3.381677      1.754508     -6.418888
  H      -3.138189      2.227148     -5.437072
  H      -2.983353      0.712546     -6.364974
  C      -4.920649      1.713568     -6.589199
  H      -5.412496      1.163449     -5.754008
  H      -5.213484      1.211782     -7.541709
  H      -5.349637      2.742934     -6.612395
  C      -4.939624      0.673780      1.835182
  H      -4.908560      1.788428      1.792872
  H      -5.853950      0.431338      2.424784
  C      -5.089140      0.089880      0.397223
  H      -6.173597      0.085401      0.134370
  H      -4.776456     -0.984336      0.394400
  C      -4.345230      0.851143     -0.738232
  H      -4.737732      1.897105     -0.788664
  H      -4.621820      0.378506     -1.713122
  C      -2.797613      0.902805     -0.643658
  H      -2.486504      1.489025      0.254554
  H      -2.402454     -0.130177     -0.489348
  C      -2.138178      1.538247     -1.896719
  H      -2.310827      0.879794     -2.781840
  H      -2.647988      2.506091     -2.127136
  C      -0.609580      1.815947     -1.746410
  H      -0.473327      2.542591     -0.906026
  H      -0.245679      2.331091     -2.662470
  C       0.228713      0.578180     -1.463190
  H       0.093795      0.131092     -0.458618
  C       1.107034     -0.025219     -2.304570
  H       1.627996     -0.935506     -1.939430
  C       1.453923      0.382660     -3.726466
  H       2.561077      0.509521     -3.809454
  H       1.015753      1.375437     -3.967935
  C       0.995594     -0.651419     -4.803209
  H       1.498157     -1.629843     -4.607365
  H       1.368381     -0.309736     -5.800019
  C      -0.540660     -0.844727     -4.871130
  H      -0.902336     -1.284736     -3.912549
  H      -1.026371      0.158070     -4.937938
  C      -1.030649     -1.703137     -6.071187
  H      -2.148107     -1.688471     -6.084941
  H      -0.710008     -1.207126     -7.020435
  C      -0.554614     -3.183358     -6.095139
  H       0.560985     -3.228168     -6.138269
  H      -0.905566     -3.649522     -7.048273
  C      -1.058920     -4.045687     -4.908374
  H      -0.679301     -3.630857     -3.942926
  H      -2.174097     -3.971512     -4.850258
  C      -0.650574     -5.538436     -5.008626
  H      -1.029652     -5.960237     -5.972262
  H       0.463830     -5.612488     -5.065593
  C      -1.166492     -6.400700     -3.829894
  H      -0.777195     -6.026514     -2.853470
  H      -2.280374     -6.381424     -3.770419
  H      -0.853730     -7.465570     -3.930788
138
Coordinates from ORCA-job /wrk/rja7/qm_final_3_replicates/qm_final_1.1/qm/1/freq E -2722.584921616303
  N       2.172087     -4.797242      8.834572
  C       2.862237     -3.649000      8.012561
  H       3.600889     -4.155350      7.350964
  H       3.367568     -3.003812      8.759659
  C       1.113123     -5.511101      8.000652
  H       1.572854     -5.859932      7.052914
  H       0.733739     -6.376835      8.582325
  H       0.295248     -4.793558      7.796194
  C       1.513275     -4.269548     10.128296
  H       2.221166     -3.581826     10.629413
  H       0.598175     -3.701413      9.879080
  H       1.273847     -5.150231     10.761903
  C       3.261860     -5.784363      9.231241
  H       4.024756     -5.245868      9.829717
  H       3.728822     -6.205692      8.317299
  H       2.814933     -6.599077      9.838216
  C       1.903074     -2.777027      7.162341
  H       2.534672     -1.939589      6.771780
  H       1.543559     -3.333451      6.264232
  P       0.971255     -1.113262      9.150670
  O       2.420922     -1.217751      9.624024
  O      -0.269431     -1.321558     10.006930
  O       0.760811     -2.332874      7.880615
  O       0.867247      0.302579      8.223579
  C      -0.433246      0.788471      7.845224
  H      -0.394417      1.904794      7.876386
  H      -1.212221      0.441350      8.566337
  C      -0.824020      0.334504      6.417663
  H      -0.714782     -0.766820      6.326358
  O       0.082042      0.993679      5.457821
  C       0.907324      0.233055      4.675110
  O       0.971937     -0.990940      4.694114
  C       1.756809      1.127963      3.755703
  H       2.764156      1.225355      4.232690
  H       1.318899      2.148812      3.731037
  C      -2.251220      0.769710      6.049305
  H      -2.360167      1.878569      6.068496
  H      -2.984732      0.343950      6.774969
  O      -2.541965      0.264762      4.707619
  C      -3.624063      0.807893      4.052787
  O      -4.367356      1.647603      4.540328
  C      -3.751724      0.199827      2.645445
  H      -2.791896      0.382778      2.110034
  H      -3.805648     -0.910279      2.760184
  C       1.911665      0.520984      2.335462
  H       0.906581      0.474683      1.850233
  H       2.245328     -0.536190      2.445206
  C       2.900789      1.279866      1.408863
  H       2.992185      0.697476      0.462671
  H       3.917863      1.274062      1.876046
  C       2.502903      2.743682      1.074989
  H       2.454831      3.342248      2.015298
  H       1.466971      2.757635      0.651522
  C       3.466225      3.460361      0.087718
  H       4.509523      3.417988      0.489306
  H       3.200628      4.545426      0.053224
  C       3.450795      2.896159     -1.356849
  H       2.405644      2.901409     -1.748761
  H       3.766237      1.826252     -1.355758
  C       4.370077      3.689840     -2.335619
  H       5.405217      3.710747     -1.911332
  H       4.030714      4.750415     -2.378039
  C       4.418390      3.069940     -3.722188
  H       4.979642      2.114250     -3.787357
  C       3.823604      3.522848     -4.853724
  H       3.940199      2.909359     -5.769927
  C       2.977004      4.778227     -5.005279
  H       3.252781      5.289637     -5.960528
  H       3.201324      5.502549     -4.189725
  C       1.438668      4.509444     -5.019332
  H       0.907381      5.492175     -5.053344
  H       1.142870      4.034208     -4.052774
  C       0.944812      3.633073     -6.198537
  H       1.440634      2.633286     -6.161951
  H       1.266389      4.098711     -7.163671
  C      -0.592636      3.440031     -6.206256
  H      -1.090538      4.441341     -6.238313
  H      -0.903287      2.978770     -5.238112
  C      -1.113077      2.582700     -7.390137
  H      -0.692531      1.549652     -7.315727
  H      -0.709978      3.005940     -8.342114
  C      -2.662560      2.504782     -7.495859
  H      -2.934893      2.011948     -8.461421
  H      -3.076358      3.542655     -7.560411
  C      -3.367119      1.746315     -6.338912
  H      -3.109698      2.215628     -5.359977
  H      -2.969724      0.703305     -6.292452
  C      -4.908185      1.706248     -6.489039
  H      -5.388896      1.153972     -5.648729
  H      -5.212889      1.206509     -7.438775
  H      -5.337759      2.735590     -6.504516
  C      -4.975622      0.731896      1.858355
  H      -4.933030      1.846108      1.810307
  H      -5.889519      0.502980      2.453882
  C      -5.135405      0.142637      0.424123
  H      -6.220582      0.144688      0.165132
  H      -4.830604     -0.933832      0.425166
  C      -4.387415      0.891019     -0.716669
  H      -4.757462      1.945435     -0.761722
  H      -4.681924      0.427061     -1.690494
  C      -2.838735      0.910412     -0.632592
  H      -2.510311      1.475081      0.271988
  H      -2.462425     -0.132449     -0.498589
  C      -2.174827      1.547517     -1.881299
  H      -2.375891      0.907088     -2.773046
  H      -2.659836      2.532456     -2.090943
  C      -0.635473      1.776212     -1.747470
  H      -0.460426      2.477330     -0.891984
  H      -0.270829      2.304186     -2.655622
  C       0.166410      0.506108     -1.502473
  H       0.010810      0.032649     -0.513139
  C       1.038457     -0.093744     -2.352129
  H       1.534373     -1.024955     -2.005501
  C       1.420481      0.347683     -3.755066
  H       2.528857      0.478555     -3.808094
  H       0.984983      1.343489     -3.987861
  C       0.989857     -0.670792     -4.856334
  H       1.485351     -1.652257     -4.659663
  H       1.386773     -0.320053     -5.840547
  C      -0.545318     -0.859085     -4.959920
  H      -0.930178     -1.295088     -4.008538
  H      -1.025637      0.144760     -5.038884
  C      -1.013459     -1.721096     -6.165597
  H      -2.131176     -1.717401     -6.192449
  H      -0.687042     -1.223775     -7.112218
  C      -0.520462     -3.195593     -6.178025
  H       0.595538     -3.227052     -6.221824
  H      -0.865518     -3.676082     -7.126138
  C      -1.010199     -4.048941     -4.978758
  H      -0.639832     -3.611408     -4.019792
  H      -2.126758     -3.996705     -4.923409
  C      -0.571105     -5.534144     -5.051947
  H      -0.940218     -5.982408     -6.007545
  H       0.544598     -5.585534     -5.106643
  C      -1.070429     -6.382705     -3.856236
  H      -0.686713     -5.984211     -2.887242
  H      -2.184438     -6.381533     -3.795836
  H      -0.739835     -7.443896     -3.937594
138
Coordinates from ORCA-job /wrk/rja7/qm_final_3_replicates/qm_final_1.1/qm/1/freq E -2722.585134564568
  N       2.044610     -4.808436      8.852688
  C       2.789893     -3.696120      8.029128
  H       3.517733     -4.235713      7.381999
  H       3.309407     -3.062866      8.776408
  C       0.967008     -5.487232      8.012680
  H       1.422186     -5.864102      7.073535
  H       0.546398     -6.331329      8.597819
  H       0.181309     -4.739130      7.792445
  C       1.391928     -4.242950     10.133509
  H       2.119292     -3.577858     10.637344
  H       0.502006     -3.642672      9.868671
  H       1.111622     -5.107688     10.772114
  C       3.089013     -5.834674      9.271230
  H       3.866669     -5.321562      9.872906
  H       3.548257     -6.283919      8.366753
  H       2.602666     -6.624310      9.880907
  C       1.873569     -2.798833      7.159258
  H       2.537636     -1.986438      6.769620
  H       1.505728     -3.350205      6.261323
  P       0.977625     -1.088417      9.123250
  O       2.421730     -1.225770      9.604824
  O      -0.272195     -1.256484      9.974890
  O       0.739887     -2.312427      7.862473
  O       0.913203      0.319749      8.181558
  C      -0.377044      0.824294      7.795459
  H      -0.320788      1.940176      7.812437
  H      -1.161931      0.498549      8.520102
  C      -0.773692      0.356525      6.373954
  H      -0.671278     -0.746502      6.295151
  O       0.132561      0.999285      5.402937
  C       0.951344      0.227377      4.623939
  O       1.011490     -0.996621      4.654684
  C       1.803443      1.112141      3.696046
  H       2.813007      1.205797      4.169251
  H       1.371649      2.135474      3.668624
  C      -2.201005      0.791883      6.008459
  H      -2.306529      1.901225      6.011020
  H      -2.930214      0.379567      6.746214
  O      -2.502310      0.265084      4.678018
  C      -3.582059      0.805620      4.018079
  O      -4.313788      1.663409      4.491393
  C      -3.716642      0.176704      2.621113
  H      -2.755674      0.344550      2.082958
  H      -3.778608     -0.931103      2.751844
  C       1.949337      0.500649      2.276186
  H       0.942035      0.463477      1.792527
  H       2.273605     -0.559443      2.385954
  C       2.940950      1.251031      1.345054
  H       3.020189      0.671757      0.395889
  H       3.961372      1.235729      1.804616
  C       2.551100      2.718999      1.023075
  H       2.512624      3.308800      1.969489
  H       1.513383      2.740415      0.607633
  C       3.509155      3.445212      0.036182
  H       4.555439      3.395557      0.429063
  H       3.245763      4.531193      0.018292
  C       3.482498      2.902974     -1.417253
  H       2.434810      2.909937     -1.799185
  H       3.801562      1.834311     -1.435740
  C       4.384771      3.718416     -2.394389
  H       5.424150      3.742430     -1.980960
  H       4.035981      4.776541     -2.417126
  C       4.423672      3.120425     -3.791354
  H       4.999759      2.175459     -3.878095
  C       3.804417      3.579635     -4.908450
  H       3.917921      2.981682     -5.835147
  C       2.933957      4.822832     -5.029233
  H       3.177429      5.346195     -5.986780
  H       3.168821      5.543679     -4.213508
  C       1.397976      4.534155     -5.003784
  H       0.854884      5.510970     -5.011016
  H       1.136858      4.044722     -4.034200
  C       0.874372      3.666735     -6.178094
  H       1.377584      2.669808     -6.168565
  H       1.163260      4.145587     -7.147058
  C      -0.662572      3.464674     -6.141421
  H      -1.166647      4.463422     -6.143699
  H      -0.939904      2.988600     -5.170407
  C      -1.218511      2.621707     -7.320479
  H      -0.793497      1.588759     -7.273385
  H      -0.847183      3.058756     -8.279660
  C      -2.770401      2.540144     -7.379246
  H      -3.071540      2.062085     -8.343679
  H      -3.189026      3.577519     -7.414266
  C      -3.436286      1.760565     -6.213405
  H      -3.143696      2.210084     -5.235048
  H      -3.040505      0.716051     -6.201204
  C      -4.981702      1.725918     -6.310213
  H      -5.433733      1.157798     -5.464550
  H      -5.320489      1.245268     -7.258295
  H      -5.409731      2.755775     -6.290710
  C      -4.935959      0.707062      1.826447
  H      -4.887037      1.820481      1.767506
  H      -5.852290      0.488790      2.422283
  C      -5.094227      0.106988      0.396517
  H      -6.179121      0.104413      0.136495
  H      -4.787058     -0.968761      0.403697
  C      -4.347150      0.853026     -0.745910
  H      -4.731609      1.901636     -0.804292
  H      -4.627233      0.375596     -1.717497
  C      -2.799644      0.894840     -0.649323
  H      -2.486942      1.476696      0.250650
  H      -2.409708     -0.140661     -0.498460
  C      -2.137050      1.528068     -1.900474
  H      -2.323291      0.876254     -2.787380
  H      -2.635926      2.503445     -2.122150
  C      -0.602246      1.781738     -1.759940
  H      -0.444585      2.493533     -0.910888
  H      -0.242385      2.307371     -2.671209
  C       0.221195      0.527693     -1.502792
  H       0.080500      0.065087     -0.506022
  C       1.092991     -0.070732     -2.354022
  H       1.605039     -0.991506     -2.002817
  C       1.449918      0.358019     -3.767753
  H       2.556196      0.496335     -3.839489
  H       1.002934      1.347822     -4.003389
  C       1.009926     -0.675149     -4.851817
  H       1.520821     -1.648881     -4.655485
  H       1.383135     -0.329310     -5.847042
  C      -0.524159     -0.883022     -4.923007
  H      -0.883925     -1.324449     -3.964264
  H      -1.018292      0.114612     -4.990842
  C      -1.005273     -1.747908     -6.121278
  H      -2.123253     -1.763328     -6.123076
  H      -0.709844     -1.241166     -7.073103
  C      -0.484635     -3.212471     -6.151628
  H       0.630558     -3.221943     -6.219926
  H      -0.841036     -3.695222     -7.094419
  C      -0.929252     -4.080932     -4.945923
  H      -0.545629     -3.640096     -3.993697
  H      -2.045032     -4.051955     -4.864276
  C      -0.460155     -5.555982     -5.037132
  H      -0.840012     -6.006945     -5.987218
  H       0.654965     -5.583323     -5.116004
  C      -0.914335     -6.421797     -3.836098
  H      -0.519077     -6.020023     -2.873141
  H      -2.026546     -6.446261     -3.752060
  H      -0.561587     -7.474720     -3.930715
138
Coordinates from ORCA-job /wrk/rja7/qm_final_3_replicates/qm_final_1.1/qm/1/freq E -2722.585041833191
  N       2.125331     -4.809290      8.814120
  C       2.826837     -3.675316      7.981280
  H       3.567780     -4.193434      7.331525
  H       3.329945     -3.023670      8.723726
  C       1.065680     -5.529016      7.985229
  H       1.525664     -5.894705      7.044036
  H       0.679050     -6.384260      8.577550
  H       0.253180     -4.809328      7.768560
  C       1.462704     -4.261480     10.097362
  H       2.170133     -3.569672     10.593662
  H       0.550748     -3.693153      9.837053
  H       1.217093     -5.132946     10.740930
  C       3.207876     -5.796243      9.229735
  H       3.971387     -5.253092      9.822968
  H       3.675695     -6.233963      8.324030
  H       2.753801     -6.599096      9.846984
  C       1.879803     -2.808492      7.111785
  H       2.519990     -1.980284      6.715485
  H       1.523901     -3.373927      6.217904
  P       0.953810     -1.111663      9.070008
  O       2.401381     -1.224160      9.547246
  O      -0.290149     -1.297456      9.926204
  O       0.736102     -2.346158      7.816013
  O       0.865862      0.294627      8.126421
  C      -0.427665      0.795383      7.740523
  H      -0.372256      1.911214      7.763009
  H      -1.211328      0.465445      8.464440
  C      -0.829586      0.337616      6.316538
  H      -0.727452     -0.764654      6.228258
  O       0.075353      0.987759      5.349686
  C       0.888915      0.216213      4.564937
  O       0.935497     -1.008540      4.583531
  C       1.748426      1.099368      3.642534
  H       2.757249      1.183597      4.119107
  H       1.324748      2.126203      3.618623
  C      -2.258772      0.778886      5.958876
  H      -2.358522      1.888717      5.963262
  H      -2.985158      0.368613      6.700578
  O      -2.573640      0.258985      4.628032
  C      -3.645643      0.820525      3.970471
  O      -4.356624      1.695367      4.444134
  C      -3.792699      0.199670      2.570411
  H      -2.822258      0.333746      2.042572
  H      -3.895158     -0.905364      2.698265
  C       1.892774      0.493910      2.220044
  H       0.886224      0.468430      1.733431
  H       2.208903     -0.569384      2.323263
  C       2.892694      1.240368      1.296299
  H       2.958032      0.673283      0.338786
  H       3.914343      1.204905      1.751803
  C       2.525925      2.718639      1.000244
  H       2.494923      3.291492      1.957535
  H       1.489685      2.763859      0.585421
  C       3.498183      3.446466      0.028274
  H       4.540730      3.381503      0.428538
  H       3.246462      4.535357      0.021203
  C       3.479329      2.922542     -1.432403
  H       2.435545      2.936806     -1.820933
  H       3.795552      1.853403     -1.463263
  C       4.388090      3.749844     -2.392849
  H       5.420964      3.779083     -1.964424
  H       4.031156      4.805379     -2.412337
  C       4.449727      3.165906     -3.795714
  H       5.047228      2.235247     -3.891868
  C       3.824015      3.625340     -4.908450
  H       3.952114      3.043746     -5.843417
  C       2.926626      4.850777     -5.009969
  H       3.142818      5.383567     -5.968726
  H       3.157845      5.573666     -4.194863
  C       1.398570      4.523389     -4.963781
  H       0.828671      5.484793     -4.972391
  H       1.158829      4.033668     -3.986500
  C       0.891210      3.634525     -6.129121
  H       1.412599      2.647412     -6.111388
  H       1.170670      4.109245     -7.102855
  C      -0.640119      3.406574     -6.088414
  H      -1.160119      4.396923     -6.109498
  H      -0.907703      2.945384     -5.107183
  C      -1.186682      2.534371     -7.250395
  H      -0.764850      1.501758     -7.175082
  H      -0.808327      2.945779     -8.220075
  C      -2.738018      2.459933     -7.312067
  H      -3.040308      1.948320     -8.258822
  H      -3.149507      3.497844     -7.387806
  C      -3.409479      1.732285     -6.116396
  H      -3.111540      2.218041     -5.155460
  H      -3.023414      0.686304     -6.063705
  C      -4.955240      1.707173     -6.210254
  H      -5.410609      1.177448     -5.341746
  H      -5.299455      1.191361     -7.137748
  H      -5.374642      2.740478     -6.231867
  C      -4.983183      0.773971      1.761268
  H      -4.899451      1.885610      1.711285
  H      -5.914763      0.578938      2.341169
  C      -5.135522      0.187892      0.323562
  H      -6.216573      0.210511      0.048585
  H      -4.851343     -0.894142      0.329075
  C      -4.358685      0.923691     -0.807342
  H      -4.728747      1.976952     -0.874564
  H      -4.627955      0.448018     -1.782908
  C      -2.812958      0.949290     -0.681899
  H      -2.514380      1.531361      0.223363
  H      -2.438297     -0.090144     -0.520064
  C      -2.112463      1.566439     -1.922408
  H      -2.284542      0.910060     -2.808810
  H      -2.590487      2.547016     -2.165918
  C      -0.581647      1.804771     -1.740205
  H      -0.443052      2.525712     -0.896675
  H      -0.190438      2.314319     -2.648328
  C       0.221752      0.547457     -1.440232
  H       0.048282      0.100478     -0.441514
  C       1.111127     -0.070340     -2.257567
  H       1.602624     -0.992584     -1.881765
  C       1.505825      0.335251     -3.667494
  H       2.614327      0.462627     -3.713222
  H       1.073557      1.326330     -3.927499
  C       1.084357     -0.707403     -4.749793
  H       1.573624     -1.686142     -4.524466
  H       1.494920     -0.380051     -5.736521
  C      -0.450584     -0.887790     -4.867766
  H      -0.849022     -1.321092     -3.920789
  H      -0.920403      0.120220     -4.950951
  C      -0.916175     -1.739842     -6.081721
  H      -2.033470     -1.724188     -6.117903
  H      -0.577234     -1.239558     -7.022422
  C      -0.445035     -3.221297     -6.100762
  H       0.670662     -3.270457     -6.139661
  H      -0.793608     -3.690101     -7.053472
  C      -0.956789     -4.075666     -4.911657
  H      -0.578410     -3.656634     -3.947599
  H      -2.071893     -3.997040     -4.857802
  C      -0.555233     -5.570674     -5.001314
  H      -0.934588     -5.998682     -5.962128
  H       0.558972     -5.650271     -5.055793
  C      -1.076945     -6.421330     -3.816651
  H      -0.684652     -6.044492     -2.842469
  H      -2.190667     -6.393533     -3.757006
  H      -0.772289     -7.489176     -3.910920
138
Coordinates from ORCA-job /wrk/rja7/qm_final_3_replicates/qm_final_1.1/qm/1/freq E -2722.585264446099
  N       2.035969     -4.800688      8.819259
  C       2.773841     -3.688288      7.988935
  H       3.500655     -4.227242      7.340146
  H       3.294533     -3.051413      8.732195
  C       0.955183     -5.485338      7.987796
  H       1.405351     -5.865952      7.047762
  H       0.539627     -6.327382      8.579453
  H       0.167422     -4.738954      7.769648
  C       1.388354     -4.233266     10.101759
  H       2.116023     -3.563903     10.599558
  H       0.494994     -3.636531      9.840347
  H       1.114486     -5.096840     10.744646
  C       3.085892     -5.822069      9.235714
  H       3.864642     -5.304075      9.831707
  H       3.541866     -6.272902      8.330385
  H       2.605360     -6.611168      9.850700
  C       1.852104     -2.795995      7.119280
  H       2.513716     -1.984544      6.723494
  H       1.481905     -3.351744      6.225051
  P       0.963781     -1.079229      9.080671
  O       2.409862     -1.215852      9.556542
  O      -0.282819     -1.244729      9.937744
  O       0.720818     -2.306959      7.824426
  O       0.896565      0.327354      8.136916
  C      -0.393563      0.834084      7.752008
  H      -0.334808      1.949835      7.770289
  H      -1.178221      0.509230      8.477275
  C      -0.794217      0.369300      6.330476
  H      -0.692420     -0.733591      6.249335
  O       0.111356      1.013363      5.359301
  C       0.931270      0.241613      4.580861
  O       0.985960     -0.982701      4.607030
  C       1.787831      1.125556      3.655908
  H       2.794597      1.219486      4.134953
  H       1.356928      2.149236      3.625017
  C      -2.223051      0.805643      5.969412
  H      -2.325761      1.915176      5.966103
  H      -2.949471      0.398618      6.712862
  O      -2.533726      0.272484      4.643403
  C      -3.608212      0.820361      3.979884
  O      -4.327157      1.693337      4.444878
  C      -3.752369      0.180000      2.588994
  H      -2.786144      0.319684      2.053857
  H      -3.840159     -0.924599      2.731325
  C       1.941005      0.512004      2.237645
  H       0.937180      0.480853      1.746679
  H       2.258355     -0.549927      2.350393
  C       2.943733      1.253980      1.312061
  H       3.018989      0.676013      0.361848
  H       3.962556      1.227860      1.774479
  C       2.570891      2.727043      0.994555
  H       2.536060      3.312882      1.943725
  H       1.535466      2.761986      0.576526
  C       3.538157      3.446925      0.012303
  H       4.584093      3.380665      0.403473
  H       3.289533      4.536540      0.002313
  C       3.501278      2.917132     -1.445609
  H       2.452754      2.939859     -1.824753
  H       3.807038      1.844839     -1.474802
  C       4.410512      3.731559     -2.417774
  H       5.449748      3.743444     -2.004148
  H       4.070399      4.792740     -2.431122
  C       4.442886      3.146667     -3.821132
  H       5.028057      2.208951     -3.923961
  C       3.806236      3.610825     -4.926371
  H       3.915419      3.024872     -5.861042
  C       2.920679      4.845750     -5.021491
  H       3.135181      5.374832     -5.982707
  H       3.166264      5.566971     -4.209166
  C       1.389453      4.537442     -4.961754
  H       0.832406      5.506385     -4.963621
  H       1.154430      4.050732     -3.983680
  C       0.855920      3.655235     -6.120899
  H       1.373272      2.665930     -6.115197
  H       1.120770      4.131777     -7.097809
  C      -0.676555      3.431956     -6.054587
  H      -1.194238      4.423723     -6.060209
  H      -0.929676      2.965028     -5.072679
  C      -1.242508      2.567151     -7.212889
  H      -0.816324      1.535424     -7.152350
  H      -0.881263      2.987815     -8.183561
  C      -2.794853      2.484763     -7.253922
  H      -3.106321      1.983265     -8.203098
  H      -3.212792      3.521328     -7.310921
  C      -3.448322      1.736198     -6.060965
  H      -3.141140      2.208439     -5.097324
  H      -3.056707      0.690726     -6.028358
  C      -4.995002      1.704917     -6.136010
  H      -5.436898      1.160582     -5.269542
  H      -5.348048      1.200627     -7.066496
  H      -5.419448      2.736395     -6.137550
  C      -4.954224      0.729181      1.780439
  H      -4.883213      1.840953      1.714953
  H      -5.879968      0.531997      2.368870
  C      -5.107588      0.123089      0.351786
  H      -6.190028      0.130525      0.081574
  H      -4.811580     -0.955643      0.367599
  C      -4.341646      0.855468     -0.787436
  H      -4.717620      1.906457     -0.857794
  H      -4.613736      0.373466     -1.759141
  C      -2.794996      0.887879     -0.671896
  H      -2.491345      1.467650      0.232659
  H      -2.413082     -0.150031     -0.517190
  C      -2.110797      1.517298     -1.914052
  H      -2.288903      0.866937     -2.803533
  H      -2.599575      2.496208     -2.142493
  C      -0.577190      1.762339     -1.751025
  H      -0.427824      2.474849     -0.901342
  H      -0.201927      2.284244     -2.658302
  C       0.236377      0.505112     -1.478570
  H       0.075736      0.042767     -0.484776
  C       1.121351     -0.096076     -2.313573
  H       1.622417     -1.019846     -1.954453
  C       1.501065      0.330257     -3.721823
  H       2.608888      0.460996     -3.777693
  H       1.063905      1.322894     -3.964290
  C       1.069565     -0.699672     -4.812225
  H       1.563194     -1.680014     -4.604489
  H       1.467215     -0.360435     -5.800166
  C      -0.465975     -0.883738     -4.912382
  H      -0.850469     -1.321404     -3.961695
  H      -0.941304      0.122555     -4.986081
  C      -0.940967     -1.735791     -6.122242
  H      -2.058972     -1.732008     -6.142120
  H      -0.621374     -1.230131     -7.066813
  C      -0.446883     -3.209610     -6.151260
  H       0.668630     -3.238767     -6.209559
  H      -0.803804     -3.683892     -7.098171
  C      -0.918136     -4.073218     -4.952285
  H      -0.533693     -3.642857     -3.995631
  H      -2.033738     -4.022414     -4.879139
  C      -0.478001     -5.557137     -5.045483
  H      -0.862949     -5.998309     -5.998095
  H       0.636727     -5.606103     -5.119960
  C      -0.953559     -6.417581     -3.848672
  H      -0.552713     -6.027407     -2.883261
  H      -2.066263     -6.419293     -3.767516
  H      -0.622445     -7.477253     -3.946065
138
Coordinates from ORCA-job /wrk/rja7/qm_final_3_replicates/qm_final_1.1/qm/1/freq E -2722.585296867111
  N       2.037812     -4.783032      8.792698
  C       2.778444     -3.667664      7.969036
  H       3.505082     -4.203477      7.317422
  H       3.300147     -3.036124      8.716171
  C       0.951092     -5.455966      7.959737
  H       1.396376     -5.835888      7.017009
  H       0.531072     -6.297872      8.548447
  H       0.168229     -4.702748      7.747397
  C       1.395560     -4.222203     10.080625
  H       2.127185     -3.560279     10.582544
  H       0.504564     -3.618684      9.826244
  H       1.118643     -5.089380     10.717407
  C       3.083797     -5.812559      9.198847
  H       3.866216     -5.302906      9.797289
  H       3.535741     -6.258275      8.288973
  H       2.600607     -6.604191      9.808489
  C       1.858547     -2.769814      7.103274
  H       2.521007     -1.956497      6.712808
  H       1.489935     -3.320738      6.205409
  P       0.963758     -1.063139      9.071469
  O       2.409859     -1.196485      9.548116
  O      -0.283388     -1.238255      9.926117
  O       0.725825     -2.284856      7.808538
  O       0.892088      0.347496      8.134296
  C      -0.400168      0.849388      7.750685
  H      -0.344846      1.965384      7.765045
  H      -1.182619      0.524858      8.478498
  C      -0.802128      0.377476      6.331887
  H      -0.699580     -0.725785      6.256360
  O       0.101172      1.016157      5.355534
  C       0.920347      0.240588      4.580056
  O       0.978083     -0.983355      4.614475
  C       1.775645      1.121222      3.651123
  H       2.781472      1.220893      4.131101
  H       1.341448      2.143387      3.614577
  C      -2.231070      0.811156      5.969252
  H      -2.334130      1.920633      5.959932
  H      -2.956773      0.407501      6.715221
  O      -2.541367      0.270919      4.646280
  C      -3.618304      0.812249      3.981978
  O      -4.339792      1.684546      4.444399
  C      -3.763611      0.163703      2.595024
  H      -2.797371      0.300851      2.057985
  H      -3.850932     -0.940162      2.743123
  C       1.932524      0.500372      2.236761
  H       0.930859      0.466581      1.742423
  H       2.249634     -0.560966      2.355633
  C       2.936372      1.239365      1.310663
  H       3.012440      0.659625      0.361419
  H       3.954558      1.214271      1.774535
  C       2.563466      2.711661      0.988549
  H       2.530133      3.300917      1.935643
  H       1.526869      2.745908      0.571004
  C       3.533271      3.426602      0.005529
  H       4.578892      3.354474      0.396544
  H       3.290714      4.517638     -0.004434
  C       3.494940      2.896134     -1.451612
  H       2.447600      2.929335     -1.834200
  H       3.789342      1.820450     -1.478953
  C       4.417798      3.699518     -2.420794
  H       5.456019      3.696706     -2.004592
  H       4.092312      4.765389     -2.433410
  C       4.445133      3.114868     -3.824061
  H       5.020784      2.171254     -3.926187
  C       3.815767      3.586610     -4.930126
  H       3.921090      3.000332     -5.865039
  C       2.944167      4.831175     -5.026376
  H       3.165234      5.357091     -5.987812
  H       3.196614      5.550485     -4.214325
  C       1.409840      4.541452     -4.965042
  H       0.865832      5.517798     -4.962042
  H       1.171987      4.054668     -3.988602
  C       0.859493      3.669047     -6.123558
  H       1.369537      2.675841     -6.127065
  H       1.119941      4.147983     -7.100431
  C      -0.674556      3.458396     -6.044948
  H      -1.182823      4.454971     -6.032948
  H      -0.923076      2.981577     -5.066564
  C      -1.258221      2.612915     -7.208258
  H      -0.841651      1.576535     -7.163574
  H      -0.900845      3.042058     -8.176179
  C      -2.811777      2.544935     -7.240593
  H      -3.132541      2.052260     -8.191320
  H      -3.219963      3.585810     -7.288887
  C      -3.467045      1.795784     -6.048844
  H      -3.150369      2.257941     -5.083801
  H      -3.086343      0.745966     -6.024546
  C      -5.014319      1.779582     -6.116415
  H      -5.456694      1.233924     -5.250961
  H      -5.376274      1.283929     -7.048122
  H      -5.429608      2.814787     -6.109703
  C      -4.965845      0.709122      1.784232
  H      -4.895157      1.820675      1.714556
  H      -5.891872      0.513868      2.372863
  C      -5.117508      0.097749      0.357520
  H      -6.200259      0.097654      0.088568
  H      -4.815330     -0.979193      0.375276
  C      -4.355945      0.832197     -0.783179
  H      -4.738765      1.880464     -0.857474
  H      -4.623291      0.346138     -1.754240
  C      -2.810088      0.873866     -0.663003
  H      -2.513896      1.461374      0.238735
  H      -2.423856     -0.161138     -0.500111
  C      -2.123621      1.498005     -1.906008
  H      -2.299986      0.844903     -2.793601
  H      -2.612703      2.475829     -2.137932
  C      -0.588866      1.740681     -1.742150
  H      -0.436875      2.450534     -0.890621
  H      -0.212257      2.264276     -2.647905
  C       0.220076      0.479806     -1.473205
  H       0.053099      0.012693     -0.482593
  C       1.108053     -0.120235     -2.305897
  H       1.604286     -1.046710     -1.946937
  C       1.500396      0.309409     -3.710002
  H       2.608703      0.440427     -3.755141
  H       1.064686      1.302083     -3.956304
  C       1.078403     -0.720578     -4.803855
  H       1.568839     -1.701302     -4.590598
  H       1.484649     -0.383567     -5.789039
  C      -0.456603     -0.901154     -4.916412
  H      -0.850327     -1.333618     -3.967209
  H      -0.928104      0.106488     -4.997584
  C      -0.923279     -1.757543     -6.126188
  H      -2.041222     -1.758107     -6.151043
  H      -0.601720     -1.253761     -7.071131
  C      -0.423030     -3.229413     -6.147276
  H       0.692553     -3.254148     -6.207117
  H      -0.779087     -3.711336     -7.090619
  C      -0.887756     -4.086493     -4.941052
  H      -0.504458     -3.645899     -3.988606
  H      -2.003524     -4.041657     -4.866443
  C      -0.439075     -5.568384     -5.022332
  H      -0.822277     -6.019851     -5.970830
  H       0.675846     -5.611540     -5.097740
  C      -0.908028     -6.421216     -3.817534
  H      -0.507709     -6.021117     -2.855961
  H      -2.020589     -6.428409     -3.734501
  H      -0.571413     -7.479899     -3.906659
138
Coordinates from ORCA-job /wrk/rja7/qm_final_3_replicates/qm_final_1.1/qm/1/freq E -2722.585422671194
  N       2.006136     -4.752642      8.782005
  C       2.752709     -3.647004      7.950211
  H       3.478260     -4.190048      7.303279
  H       3.276457     -3.012169      8.693092
  C       0.911997     -5.422353      7.956031
  H       1.351823     -5.816786      7.016629
  H       0.483924     -6.254120      8.553394
  H       0.137219     -4.662419      7.738082
  C       1.369263     -4.179360     10.066950
  H       2.105245     -3.519046     10.564532
  H       0.481925     -3.570996      9.810493
  H       1.087200     -5.040617     10.709489
  C       3.045306     -5.786991      9.192728
  H       3.832784     -5.278829      9.785826
  H       3.491698     -6.242228      8.284783
  H       2.557679     -6.570836      9.808827
  C       1.837407     -2.752801      7.075650
  H       2.503201     -1.944682      6.679795
  H       1.469473     -3.310051      6.181420
  P       0.940349     -1.030627      9.030539
  O       2.386019     -1.160209      9.509206
  O      -0.307650     -1.203874      9.884739
  O       0.704364     -2.259220      7.774037
  O       0.867170      0.375567      8.087425
  C      -0.426054      0.872631      7.699482
  H      -0.373464      1.988806      7.709239
  H      -1.208640      0.549348      8.427613
  C      -0.825572      0.393542      6.282311
  H      -0.722192     -0.710074      6.212661
  O       0.078849      1.027288      5.304003
  C       0.899608      0.248523      4.533460
  O       0.953130     -0.975502      4.568983
  C       1.764474      1.127061      3.611354
  H       2.762228      1.233981      4.106650
  H       1.327086      2.147477      3.564050
  C      -2.253728      0.823960      5.913733
  H      -2.356309      1.933256      5.892678
  H      -2.980676      0.427732      6.662460
  O      -2.561290      0.270196      4.595721
  C      -3.633359      0.806937      3.920344
  O      -4.354480      1.686885      4.368745
  C      -3.776336      0.139421      2.542259
  H      -2.805836      0.260645      2.008650
  H      -3.873525     -0.961503      2.705386
  C       1.944979      0.500662      2.202606
  H       0.952130      0.464940      1.690473
  H       2.260088     -0.560257      2.330407
  C       2.962882      1.237034      1.290295
  H       3.051862      0.656454      0.342657
  H       3.974662      1.211911      1.767967
  C       2.595454      2.709502      0.962614
  H       2.562931      3.301531      1.907966
  H       1.559257      2.746183      0.543913
  C       3.569857      3.417546     -0.021082
  H       4.616277      3.329379      0.364533
  H       3.342120      4.511848     -0.023761
  C       3.519409      2.894755     -1.480626
  H       2.473071      2.949216     -1.862149
  H       3.793069      1.813687     -1.513638
  C       4.454120      3.685966     -2.448550
  H       5.494227      3.656709     -2.038629
  H       4.151757      4.759007     -2.448432
  C       4.460053      3.113918     -3.857166
  H       5.026416      2.166502     -3.974804
  C       3.821755      3.601053     -4.951537
  H       3.911373      3.022323     -5.892791
  C       2.958893      4.853197     -5.026324
  H       3.160636      5.378160     -5.992498
  H       3.236313      5.570421     -4.220271
  C       1.423949      4.576430     -4.926790
  H       0.888407      5.557428     -4.910170
  H       1.206328      4.092208     -3.944286
  C       0.835734      3.708381     -6.069945
  H       1.350212      2.717639     -6.097944
  H       1.059828      4.193058     -7.052974
  C      -0.693124      3.489412     -5.935304
  H      -1.205934      4.483167     -5.900481
  H      -0.901302      3.008695     -4.949217
  C      -1.316859      2.642955     -7.077019
  H      -0.892008      1.609429     -7.051486
  H      -1.003707      3.076419     -8.058823
  C      -2.869484      2.561125     -7.043446
  H      -3.224810      2.055308     -7.974855
  H      -3.288851      3.597823     -7.085248
  C      -3.466054      1.820602     -5.815887
  H      -3.116952      2.299949     -4.870749
  H      -3.070878      0.775993     -5.791682
  C      -5.014443      1.782083     -5.819825
  H      -5.412394      1.243202     -4.928823
  H      -5.407018      1.267233     -6.728444
  H      -5.444467      2.811206     -5.810400
  C      -4.968759      0.682995      1.715635
  H      -4.890873      1.793297      1.635543
  H      -5.901100      0.498617      2.297723
  C      -5.109946      0.058224      0.293003
  H      -6.190822      0.050939      0.016823
  H      -4.803106     -1.017056      0.321221
  C      -4.341666      0.787264     -0.847009
  H      -4.730236      1.832396     -0.934783
  H      -4.595277      0.291570     -1.816991
  C      -2.797684      0.838041     -0.708914
  H      -2.516170      1.432996      0.192898
  H      -2.408996     -0.194181     -0.534922
  C      -2.098494      1.457675     -1.946982
  H      -2.267901      0.804267     -2.835490
  H      -2.583218      2.436233     -2.184820
  C      -0.564991      1.696381     -1.769987
  H      -0.418070      2.405903     -0.917235
  H      -0.180108      2.219131     -2.672873
  C       0.239453      0.433979     -1.496896
  H       0.060988     -0.037880     -0.510446
  C       1.134052     -0.164965     -2.323276
  H       1.623592     -1.094448     -1.962901
  C       1.539837      0.265462     -3.723595
  H       2.650276      0.382631     -3.761826
  H       1.117444      1.264421     -3.970796
  C       1.111092     -0.757425     -4.822220
  H       1.584984     -1.745436     -4.604858
  H       1.530482     -0.426820     -5.804161
  C      -0.425832     -0.913891     -4.946717
  H      -0.834539     -1.332470     -3.997729
  H      -0.879595      0.101160     -5.039007
  C      -0.896134     -1.772018     -6.153752
  H      -2.014046     -1.764176     -6.181088
  H      -0.568358     -1.275125     -7.100293
  C      -0.406194     -3.247755     -6.167929
  H       0.708921     -3.279435     -6.233756
  H      -0.770351     -3.732913     -7.106478
  C      -0.869113     -4.095967     -4.954596
  H      -0.479117     -3.651950     -4.006523
  H      -1.984297     -4.045909     -4.874572
  C      -0.427970     -5.580646     -5.030929
  H      -0.819292     -6.034819     -5.974761
  H       0.686245     -5.629068     -5.113402
  C      -0.892652     -6.426198     -3.819202
  H      -0.482769     -6.024686     -2.862243
  H      -2.004580     -6.426867     -3.727513
  H      -0.562743     -7.487135     -3.906696
138
Coordinates from ORCA-job /wrk/rja7/qm_final_3_replicates/qm_final_1.1/qm/1/freq E -2722.585452182041
  N       2.006038     -4.715239      8.826264
  C       2.745965     -3.616391      7.979294
  H       3.473079     -4.163950      7.337880
  H       3.268944     -2.971503      8.713871
  C       0.913870     -5.401728      8.011311
  H       1.355010     -5.813123      7.079794
  H       0.486891     -6.223532      8.623182
  H       0.137062     -4.648236      7.778758
  C       1.368129     -4.128331     10.104272
  H       2.102655     -3.461027     10.594763
  H       0.479981     -3.523501      9.841334
  H       1.087001     -4.982436     10.756465
  C       3.050639     -5.739331      9.248774
  H       3.837408     -5.219906      9.832897
  H       3.496709     -6.205180      8.346069
  H       2.567474     -6.516455      9.876645
  C       1.826443     -2.736965      7.094085
  H       2.491389     -1.933762      6.686132
  H       1.459197     -3.307723      6.208089
  P       0.931068     -0.991479      9.027924
  O       2.378828     -1.111622      9.502909
  O      -0.314172     -1.159366      9.887760
  O       0.694326     -2.234622      7.786525
  O       0.850967      0.403090      8.069549
  C      -0.443319      0.895006      7.677158
  H      -0.392513      2.011324      7.681827
  H      -1.226719      0.574331      8.405507
  C      -0.841428      0.408182      6.262413
  H      -0.735431     -0.695478      6.197042
  O       0.061831      1.040005      5.281807
  C       0.878232      0.257085      4.510300
  O       0.922630     -0.967252      4.544522
  C       1.751106      1.130470      3.590187
  H       2.743984      1.239836      4.094846
  H       1.315171      2.151080      3.535199
  C      -2.271472      0.831806      5.890831
  H      -2.376141      1.940683      5.860499
  H      -2.998122      0.439503      6.641857
  O      -2.575306      0.266658      4.576727
  C      -3.654140      0.785232      3.897634
  O      -4.387214      1.658451      4.339639
  C      -3.789131      0.103354      2.525816
  H      -2.816488      0.221121      1.996981
  H      -3.885216     -0.996144      2.699042
  C       1.942708      0.497466      2.185880
  H       0.954920      0.464050      1.663664
  H       2.252012     -0.564231      2.321243
  C       2.971967      1.223246      1.277622
  H       3.057214      0.639788      0.331537
  H       3.981948      1.190361      1.758380
  C       2.619386      2.698509      0.945971
  H       2.590257      3.292744      1.889992
  H       1.585141      2.743987      0.524864
  C       3.599903      3.394491     -0.039289
  H       4.646729      3.292251      0.341752
  H       3.386933      4.491791     -0.039350
  C       3.533653      2.876626     -1.499934
  H       2.486652      2.950639     -1.875559
  H       3.788058      1.791241     -1.539062
  C       4.474373      3.657902     -2.469964
  H       5.515970      3.610053     -2.066112
  H       4.188387      4.735591     -2.460209
  C       4.461024      3.097163     -3.882798
  H       5.020037      2.147361     -4.016215
  C       3.814091      3.600789     -4.963853
  H       3.888178      3.032310     -5.912686
  C       2.960651      4.860612     -5.011301
  H       3.142535      5.388144     -5.979905
  H       3.263494      5.572488     -4.209498
  C       1.426343      4.594906     -4.876053
  H       0.898005      5.579353     -4.840928
  H       1.227529      4.105302     -3.891202
  C       0.812084      3.737432     -6.013368
  H       1.325508      2.746696     -6.059579
  H       1.019039      4.229255     -6.996610
  C      -0.714302      3.518392     -5.856920
  H      -1.225838      4.512026     -5.803739
  H      -0.909368      3.027854     -4.873042
  C      -1.348766      2.683144     -7.000879
  H      -0.920313      1.651078     -6.992208
  H      -1.048496      3.128491     -7.980865
  C      -2.900012      2.592619     -6.950872
  H      -3.261745      2.081904     -7.877080
  H      -3.325903      3.626696     -6.990689
  C      -3.474836      1.850394     -5.715219
  H      -3.126910      2.343035     -4.776909
  H      -3.060701      0.813043     -5.685085
  C      -5.022359      1.784807     -5.705547
  H      -5.402412      1.248595     -4.805019
  H      -5.413492      1.253218     -6.605147
  H      -5.470513      2.806141     -5.702855
  C      -4.976177      0.636326      1.685035
  H      -4.900864      1.746003      1.595823
  H      -5.913183      0.453442      2.259898
  C      -5.100430     -0.000351      0.265406
  H      -6.178422     -0.015777     -0.021447
  H      -4.787466     -1.073408      0.305224
  C      -4.323725      0.724275     -0.872225
  H      -4.711306      1.769121     -0.967234
  H      -4.570651      0.225108     -1.842319
  C      -2.780084      0.773936     -0.723908
  H      -2.504163      1.367770      0.180781
  H      -2.394192     -0.259154     -0.549203
  C      -2.072632      1.395154     -1.957157
  H      -2.246966      0.750394     -2.850572
  H      -2.547403      2.380005     -2.187958
  C      -0.537693      1.620479     -1.779686
  H      -0.384243      2.320564     -0.920376
  H      -0.150911      2.148628     -2.678529
  C       0.257807      0.349604     -1.520883
  H       0.063203     -0.143806     -0.548103
  C       1.161230     -0.236804     -2.346717
  H       1.638633     -1.177490     -1.999465
  C       1.587594      0.218857     -3.732614
  H       2.699487      0.323801     -3.755845
  H       1.180611      1.227429     -3.965162
  C       1.158214     -0.774897     -4.857244
  H       1.602349     -1.778435     -4.647869
  H       1.606615     -0.438810     -5.824591
  C      -0.380075     -0.889993     -5.011772
  H      -0.817185     -1.290731     -4.067779
  H      -0.803322      0.136812     -5.119028
  C      -0.853771     -1.739528     -6.222904
  H      -1.971085     -1.700863     -6.265044
  H      -0.499315     -1.254237     -7.165721
  C      -0.402402     -3.227220     -6.231773
  H       0.711529     -3.286703     -6.298393
  H      -0.779400     -3.705633     -7.168715
  C      -0.883937     -4.062085     -5.017302
  H      -0.484028     -3.625643     -4.069966
  H      -1.997689     -3.987094     -4.936149
  C      -0.475990     -5.555936     -5.094702
  H      -0.882778     -6.002843     -6.035373
  H       0.636451     -5.628101     -5.184170
  C      -0.950160     -6.389854     -3.879430
  H      -0.522888     -5.998210     -2.926014
  H      -2.060980     -6.364484     -3.778054
  H      -0.646188     -7.458307     -3.969510
138
Coordinates from ORCA-job /wrk/rja7/qm_final_3_replicates/qm_final_1.1/qm/1/freq E -2722.585515376031
  N       2.041541     -4.722492      8.790837
  C       2.769433     -3.607522      7.954511
  H       3.500017     -4.142168      7.306338
  H       3.287342     -2.965950      8.695315
  C       0.961261     -5.417374      7.967416
  H       1.410766     -5.813318      7.033274
  H       0.545315     -6.251352      8.570277
  H       0.172676     -4.675016      7.739113
  C       1.393934     -4.154483     10.072351
  H       2.120240     -3.483966     10.570727
  H       0.500006     -3.557341      9.811975
  H       1.120162     -5.017487     10.715823
  C       3.098798     -5.736146      9.207065
  H       3.879147     -5.211156      9.794708
  H       3.550874     -6.190419      8.301523
  H       2.625505     -6.523617      9.829592
  C       1.840005     -2.727191      7.081022
  H       2.497702     -1.914742      6.679550
  H       1.474585     -3.291815      6.190443
  P       0.939541     -1.008662      9.035277
  O       2.387259     -1.129896      9.510199
  O      -0.305446     -1.185795      9.893418
  O       0.706814     -2.241340      7.782974
  O       0.856135      0.393242      8.088634
  C      -0.439833      0.889746      7.707214
  H      -0.385539      2.005816      7.716637
  H      -1.219015      0.567591      8.439423
  C      -0.848336      0.410558      6.293079
  H      -0.751499     -0.693571      6.223031
  O       0.056787      1.039667      5.311936
  C       0.858331      0.251866      4.529613
  O       0.887333     -0.973150      4.555230
  C       1.737189      1.119798      3.610083
  H       2.731552      1.218997      4.113933
  H       1.310473      2.144554      3.558740
  C      -2.277751      0.845409      5.930100
  H      -2.375402      1.955183      5.905321
  H      -3.003818      0.454569      6.682372
  O      -2.590090      0.289221      4.614230
  C      -3.674624      0.811684      3.947171
  O      -4.406059      1.679507      4.402225
  C      -3.814429      0.145508      2.568154
  H      -2.841255      0.265131      2.040353
  H      -3.915405     -0.955394      2.729352
  C       1.922490      0.488740      2.204125
  H       0.933261      0.458219      1.685021
  H       2.230264     -0.573763      2.336846
  C       2.950889      1.213496      1.294132
  H       3.032910      0.629820      0.348062
  H       3.961954      1.179055      1.772422
  C       2.599118      2.688811      0.962258
  H       2.568624      3.283951      1.905627
  H       1.565278      2.732915      0.540180
  C       3.579907      3.383750     -0.023645
  H       4.625636      3.291062      0.362813
  H       3.359898      4.479571     -0.032775
  C       3.521237      2.855801     -1.480921
  H       2.472886      2.915017     -1.855659
  H       3.788828      1.773529     -1.513478
  C       4.453034      3.641979     -2.455709
  H       5.494550      3.609506     -2.049775
  H       4.153953      4.715942     -2.453928
  C       4.449229      3.071185     -3.864571
  H       5.007127      2.119390     -3.987415
  C       3.812885      3.569438     -4.954542
  H       3.893848      2.994347     -5.898787
  C       2.962309      4.830712     -5.017274
  H       3.152857      5.351255     -5.987904
  H       3.260516      5.547309     -4.218182
  C       1.426344      4.567093     -4.893976
  H       0.898665      5.552055     -4.864778
  H       1.220060      4.078837     -3.910337
  C       0.823468      3.708801     -6.036371
  H       1.329258      2.713703     -6.069443
  H       1.050792      4.194147     -7.018407
  C      -0.707270      3.501447     -5.907857
  H      -1.212183      4.499104     -5.867849
  H      -0.925316      3.014789     -4.926930
  C      -1.322281      2.667995     -7.063828
  H      -0.890933      1.637226     -7.050180
  H      -1.005305      3.116411     -8.036735
  C      -2.874088      2.573585     -7.043098
  H      -3.216123      2.065494     -7.978162
  H      -3.302378      3.606454     -7.086145
  C      -3.470334      1.824531     -5.822162
  H      -3.152362      2.323483     -4.876946
  H      -3.043266      0.792680     -5.778717
  C      -5.016722      1.740672     -5.850956
  H      -5.412929      1.202298     -4.958796
  H      -5.379765      1.202941     -6.758625
  H      -5.476363      2.756879     -5.861415
  C      -5.001029      0.691491      1.735327
  H      -4.921201      1.801425      1.654268
  H      -5.937202      0.508436      2.311464
  C      -5.134021      0.065373      0.312204
  H      -6.211921      0.069051      0.024486
  H      -4.837832     -1.012675      0.347049
  C      -4.347181      0.783623     -0.821567
  H      -4.715413      1.836148     -0.907679
  H      -4.606796      0.295786     -1.794008
  C      -2.802651      0.804474     -0.677432
  H      -2.513040      1.387376      0.230090
  H      -2.434953     -0.236485     -0.510404
  C      -2.089044      1.422568     -1.908412
  H      -2.275836      0.787081     -2.806164
  H      -2.549550      2.416258     -2.130671
  C      -0.551077      1.626822     -1.733137
  H      -0.388029      2.320562     -0.870756
  H      -0.157974      2.154045     -2.629642
  C       0.230414      0.346556     -1.481159
  H       0.028454     -0.153643     -0.513448
  C       1.134086     -0.239078     -2.307240
  H       1.604071     -1.185303     -1.964872
  C       1.572085      0.226192     -3.686033
  H       2.683854      0.332359     -3.698443
  H       1.168242      1.236640     -3.914838
  C       1.156426     -0.758736     -4.823863
  H       1.599717     -1.763156     -4.616907
  H       1.617685     -0.413905     -5.782017
  C      -0.378700     -0.877678     -5.001821
  H      -0.828700     -1.282425     -4.065480
  H      -0.804351      0.147882     -5.114126
  C      -0.828636     -1.726998     -6.222117
  H      -1.944765     -1.691054     -6.284805
  H      -0.457883     -1.239994     -7.157601
  C      -0.372129     -3.213164     -6.224802
  H       0.743061     -3.268565     -6.270031
  H      -0.729351     -3.690317     -7.170087
  C      -0.874246     -4.052967     -5.022012
  H      -0.492937     -3.619186     -4.065809
  H      -1.989503     -3.980812     -4.961210
  C      -0.461288     -5.545787     -5.097262
  H      -0.850508     -5.989596     -6.046774
  H       0.652686     -5.615008     -5.167557
  C      -0.954750     -6.385538     -3.893730
  H      -0.545690     -5.995920     -2.931539
  H      -2.067244     -6.363768     -3.812085
  H      -0.646024     -7.452735     -3.982111
138
Coordinates from ORCA-job /wrk/rja7/qm_final_3_replicates/qm_final_1.1/qm/1/freq E -2722.585552352531
  N       2.034842     -4.706165      8.744435
  C       2.767136     -3.583600      7.922732
  H       3.500920     -4.111709      7.272790
  H       3.280776     -2.948502      8.671979
  C       0.953044     -5.387563      7.911938
  H       1.401991     -5.771580      6.972548
  H       0.535762     -6.228472      8.504010
  H       0.166502     -4.639972      7.694119
  C       1.387430     -4.151332     10.032018
  H       2.113789     -3.486066     10.537187
  H       0.492989     -3.552683      9.777493
  H       1.114607     -5.021113     10.666864
  C       3.088603     -5.728111      9.149548
  H       3.869211     -5.212870      9.745493
  H       3.541019     -6.171968      8.239058
  H       2.611756     -6.522165      9.761015
  C       1.840985     -2.694120      7.054852
  H       2.498147     -1.874729      6.667386
  H       1.480748     -3.248147      6.155617
  P       0.925118     -0.996075      9.020450
  O       2.371527     -1.114895      9.499125
  O      -0.321832     -1.184644      9.873069
  O       0.702360     -2.220588      7.757546
  O       0.838448      0.413816      8.084451
  C      -0.458632      0.904147      7.700054
  H      -0.408091      2.020378      7.704607
  H      -1.236831      0.581762      8.433322
  C      -0.863085      0.417921      6.287224
  H      -0.764935     -0.686362      6.222943
  O       0.044290      1.043234      5.305728
  C       0.847134      0.253650      4.526915
  O       0.876987     -0.971394      4.554829
  C       1.723252      1.120032      3.604064
  H       2.721868      1.213749      4.100418
  H       1.300345      2.146653      3.557201
  C      -2.291479      0.850303      5.918244
  H      -2.390685      1.959881      5.888302
  H      -3.018937      0.462420      6.670749
  O      -2.601122      0.288877      4.603950
  C      -3.679696      0.817899      3.931982
  O      -4.404145      1.693839      4.382658
  C      -3.820589      0.151624      2.553116
  H      -2.842705      0.258286      2.029738
  H      -3.935961     -0.947695      2.715612
  C       1.896818      0.489678      2.196716
  H       0.906050      0.469540      1.681541
  H       2.194453     -0.575947      2.327397
  C       2.929073      1.206073      1.284739
  H       3.002096      0.623832      0.336938
  H       3.940894      1.158483      1.760357
  C       2.593714      2.686103      0.955812
  H       2.574203      3.281759      1.899122
  H       1.558089      2.744177      0.536953
  C       3.584058      3.365873     -0.031807
  H       4.628748      3.251262      0.351532
  H       3.385800      4.465818     -0.037445
  C       3.511914      2.841958     -1.489747
  H       2.463082      2.922280     -1.861482
  H       3.758063      1.754631     -1.524610
  C       4.460472      3.608779     -2.464638
  H       5.501867      3.551407     -2.060823
  H       4.186023      4.689021     -2.460202
  C       4.442981      3.040761     -3.874726
  H       4.985302      2.080646     -4.001103
  C       3.807562      3.547153     -4.961952
  H       3.875732      2.970054     -5.905872
  C       2.970429      4.817367     -5.023102
  H       3.161041      5.334456     -5.995506
  H       3.280299      5.531943     -4.226823
  C       1.433174      4.568122     -4.889692
  H       0.915189      5.557920     -4.853365
  H       1.231924      4.080264     -3.906303
  C       0.809725      3.718045     -6.026620
  H       1.309516      2.720577     -6.073402
  H       1.022529      4.207436     -7.009925
  C      -0.718988      3.513940     -5.870214
  H      -1.220302      4.512481     -5.810258
  H      -0.917632      3.017883     -4.889816
  C      -1.361202      2.693769     -7.020508
  H      -0.921437      1.666599     -7.034527
  H      -1.074106      3.159174     -7.994981
  C      -2.911796      2.586911     -6.958836
  H      -3.274017      2.092716     -7.893758
  H      -3.349734      3.616536     -6.971465
  C      -3.471512      1.811372     -5.736194
  H      -3.138394      2.299182     -4.790499
  H      -3.031143      0.784187     -5.718387
  C      -5.016908      1.708213     -5.731670
  H      -5.386191      1.151628     -4.839130
  H      -5.393893      1.179778     -6.639003
  H      -5.489309      2.718625     -5.716017
  C      -4.998247      0.710223      1.715182
  H      -4.907011      1.819445      1.635543
  H      -5.938559      0.536222      2.287424
  C      -5.133912      0.085166      0.291973
  H      -6.211162      0.098338      0.002278
  H      -4.846949     -0.995352      0.328238
  C      -4.340195      0.795701     -0.841336
  H      -4.703078      1.849842     -0.931221
  H      -4.599521      0.306444     -1.813087
  C      -2.796929      0.810506     -0.690993
  H      -2.509133      1.393497      0.216334
  H      -2.433106     -0.231480     -0.521228
  C      -2.075528      1.423484     -1.919168
  H      -2.256185      0.783999     -2.815387
  H      -2.535826      2.415780     -2.148689
  C      -0.537876      1.627810     -1.731877
  H      -0.381779      2.324463     -0.870428
  H      -0.135623      2.151289     -2.626475
  C       0.239158      0.347680     -1.465968
  H       0.033835     -0.140062     -0.492719
  C       1.146073     -0.247028     -2.281998
  H       1.615506     -1.189012     -1.927366
  C       1.596811      0.206646     -3.660859
  H       2.709345      0.304012     -3.665293
  H       1.202174      1.219008     -3.896226
  C       1.183682     -0.781909     -4.796651
  H       1.620224     -1.787170     -4.579535
  H       1.655806     -0.445659     -5.752454
  C      -0.349431     -0.892856     -4.991945
  H      -0.813547     -1.298803     -4.062963
  H      -0.768217      0.135205     -5.105448
  C      -0.787534     -1.737067     -6.220528
  H      -1.902659     -1.703709     -6.294586
  H      -0.409133     -1.244525     -7.150250
  C      -0.328419     -3.222505     -6.221814
  H       0.787257     -3.276513     -6.254520
  H      -0.674652     -3.698307     -7.171807
  C      -0.844922     -4.063464     -5.025001
  H      -0.470629     -3.632683     -4.064598
  H      -1.960445     -3.987212     -4.975201
  C      -0.436724     -5.557934     -5.096656
  H      -0.816470     -5.999017     -6.051347
  H       0.677677     -5.631752     -5.153551
  C      -0.949008     -6.397507     -3.900018
  H      -0.551728     -6.009731     -2.932154
  H      -2.062406     -6.372463     -3.833374
  H      -0.642125     -7.465451     -3.985326
138
Coordinates from ORCA-job /wrk/rja7/qm_final_3_replicates/qm_final_1.1/qm/1/freq E -2722.585593787674
  N       2.035060     -4.691239      8.804848
  C       2.765769     -3.579164      7.967595
  H       3.496786     -4.116330      7.321926
  H       3.283159     -2.935572      8.707335
  C       0.948482     -5.378871      7.983838
  H       1.393126     -5.772536      7.046396
  H       0.531513     -6.213094      8.585615
  H       0.162708     -4.631651      7.761460
  C       1.395058     -4.121995     10.089908
  H       2.126251     -3.455001     10.585586
  H       0.501551     -3.522645      9.834013
  H       1.122230     -4.984905     10.734178
  C       3.088725     -5.711128      9.215903
  H       3.872328     -5.191354      9.803905
  H       3.537141     -6.164431      8.308033
  H       2.612735     -6.498327      9.836698
  C       1.838628     -2.698509      7.091479
  H       2.496422     -1.884774      6.693135
  H       1.475211     -3.262237      6.199526
  P       0.929009     -0.975186      9.038514
  O       2.377168     -1.088152      9.513300
  O      -0.314983     -1.155169      9.897445
  O       0.702184     -2.213908      7.790301
  O       0.838887      0.423998      8.086601
  C      -0.458640      0.909092      7.697487
  H      -0.411145      2.025516      7.696149
  H      -1.237550      0.588902      8.430990
  C      -0.859083      0.414266      6.286377
  H      -0.755947     -0.689848      6.227102
  O       0.046541      1.038701      5.302985
  C       0.851318      0.248190      4.527045
  O       0.885494     -0.976582      4.561363
  C       1.726216      1.112793      3.601179
  H       2.724317      1.210877      4.097766
  H       1.301093      2.138209      3.549430
  C      -2.288863      0.838602      5.913789
  H      -2.394018      1.947510      5.881559
  H      -3.015480      0.448424      6.665958
  O      -2.593353      0.272031      4.600400
  C      -3.675383      0.790456      3.925552
  O      -4.408569      1.660666      4.373227
  C      -3.808673      0.118851      2.548472
  H      -2.831874      0.232428      2.025926
  H      -3.914752     -0.980897      2.714635
  C       1.901261      0.476981      2.196421
  H       0.910846      0.457177      1.679526
  H       2.196284     -0.588810      2.331378
  C       2.937238      1.187190      1.283468
  H       3.007034      0.603445      0.336335
  H       3.948799      1.135274      1.759219
  C       2.609532      2.668658      0.953560
  H       2.592698      3.264282      1.896984
  H       1.574724      2.732163      0.534070
  C       3.602971      3.344441     -0.033711
  H       4.647424      3.223904      0.348483
  H       3.410400      4.445425     -0.037284
  C       3.525956      2.823658     -1.492618
  H       2.478081      2.912629     -1.863537
  H       3.763746      1.734677     -1.529855
  C       4.475538      3.586725     -2.468366
  H       5.518143      3.522988     -2.068700
  H       4.206734      4.668436     -2.461173
  C       4.446847      3.022097     -3.879395
  H       4.985360      2.060492     -4.011402
  C       3.805374      3.533360     -4.960573
  H       3.865702      2.959230     -5.906940
  C       2.972285      4.806728     -5.011600
  H       3.161440      5.327211     -5.982508
  H       3.289678      5.515501     -4.212990
  C       1.433207      4.567753     -4.873535
  H       0.923328      5.561434     -4.830042
  H       1.230163      4.075334     -3.891618
  C       0.801092      3.729240     -6.014492
  H       1.292258      2.727667     -6.066892
  H       1.017076      4.222629     -6.995071
  C      -0.730205      3.539935     -5.861299
  H      -1.220516      4.543118     -5.789379
  H      -0.936316      3.034122     -4.887538
  C      -1.378585      2.741630     -7.023514
  H      -0.942378      1.713129     -7.056749
  H      -1.091492      3.222222     -7.990367
  C      -2.929528      2.641511     -6.961758
  H      -3.295226      2.167251     -7.905628
  H      -3.362494      3.673210     -6.953939
  C      -3.491199      1.843475     -5.755084
  H      -3.158030      2.312254     -4.799446
  H      -3.051977      0.816461     -5.758085
  C      -5.036549      1.741504     -5.753348
  H      -5.406693      1.166489     -4.872902
  H      -5.413297      1.232409     -6.671794
  H      -5.508990      2.751459     -5.716776
  C      -4.990491      0.664168      1.707623
  H      -4.908967      1.773999      1.624424
  H      -5.929506      0.484109      2.280127
  C      -5.119700      0.033968      0.285905
  H      -6.197314      0.035189     -0.002619
  H      -4.822221     -1.043582      0.324880
  C      -4.334409      0.750004     -0.850953
  H      -4.706310      1.801081     -0.940484
  H      -4.592690      0.257859     -1.821480
  C      -2.790356      0.778391     -0.706634
  H      -2.504303      1.366026      0.198348
  H      -2.416622     -0.259910     -0.535577
  C      -2.078528      1.393741     -1.939660
  H      -2.259989      0.751168     -2.833566
  H      -2.544630      2.383142     -2.169660
  C      -0.541926      1.607829     -1.759559
  H      -0.388278      2.306326     -0.899036
  H      -0.147560      2.133781     -2.656261
  C       0.244790      0.332386     -1.496824
  H       0.041212     -0.160289     -0.525541
  C       1.155862     -0.253906     -2.314544
  H       1.629701     -1.195305     -1.964325
  C       1.604052      0.208908     -3.691003
  H       2.716879      0.302645     -3.698779
  H       1.212136      1.224277     -3.916921
  C       1.182446     -0.769731     -4.831626
  H       1.617774     -1.777714     -4.625392
  H       1.648391     -0.427150     -5.788239
  C      -0.352547     -0.877333     -5.014131
  H      -0.809413     -1.284109     -4.081911
  H      -0.770593      0.151352     -5.122148
  C      -0.803413     -1.717518     -6.240928
  H      -1.919293     -1.681718     -6.304604
  H      -0.432591     -1.223759     -7.173085
  C      -0.347079     -3.203170     -6.250285
  H       0.768045     -3.259154     -6.292272
  H      -0.701991     -3.676617     -7.198329
  C      -0.854843     -4.044409     -5.050781
  H      -0.476292     -3.612101     -4.092659
  H      -1.970165     -3.970915     -4.994549
  C      -0.442214     -5.536928     -5.123713
  H      -0.824183     -5.980425     -6.076466
  H       0.672160     -5.607216     -5.184899
  C      -0.947404     -6.375640     -3.924231
  H      -0.547098     -5.985834     -2.958428
  H      -2.060588     -6.352988     -3.853214
  H      -0.638484     -7.443036     -4.009457
138
Coordinates from ORCA-job /wrk/rja7/qm_final_3_replicates/qm_final_1.1/qm/1/freq E -2722.585627452108
  N       2.011642     -4.673985      8.826918
  C       2.746441     -3.568102      7.985446
  H       3.476501     -4.110742      7.343297
  H       3.264803     -2.922161      8.722656
  C       0.931493     -5.368930      8.003815
  H       1.382862     -5.767625      7.071769
  H       0.511598     -6.199875      8.608129
  H       0.145733     -4.624811      7.770868
  C       1.363228     -4.095680     10.103621
  H       2.092707     -3.427908     10.600758
  H       0.473613     -3.495449      9.836800
  H       1.083056     -4.954078     10.750781
  C       3.063527     -5.689698      9.252475
  H       3.842659     -5.164844      9.841895
  H       3.518512     -6.149186      8.350966
  H       2.584117     -6.472776      9.875851
  C       1.822424     -2.689226      7.104892
  H       2.484025     -1.882028      6.699466
  H       1.453857     -3.256864      6.217620
  P       0.928142     -0.951923      9.046776
  O       2.374011     -1.077290      9.525560
  O      -0.319280     -1.114284      9.903954
  O       0.690887     -2.193247      7.803392
  O       0.854280      0.441266      8.085504
  C      -0.438303      0.938152      7.694946
  H      -0.379902      2.054049      7.688972
  H      -1.220391      0.628976      8.429715
  C      -0.842898      0.439707      6.286314
  H      -0.747392     -0.665374      6.232023
  O       0.066459      1.053719      5.299886
  C       0.860006      0.254101      4.521359
  O       0.881867     -0.970910      4.556693
  C       1.740609      1.109505      3.592149
  H       2.738718      1.204093      4.089461
  H       1.321467      2.137213      3.536743
  C      -2.270293      0.870152      5.912487
  H      -2.368999      1.979355      5.871907
  H      -2.998281      0.489882      6.668337
  O      -2.578807      0.294660      4.603968
  C      -3.668582      0.799944      3.931818
  O      -4.407485      1.666182      4.377717
  C      -3.803384      0.117076      2.560504
  H      -2.827967      0.226894      2.035028
  H      -3.908609     -0.981330      2.736366
  C       1.912962      0.469320      2.188796
  H       0.922263      0.452456      1.671725
  H       2.203700     -0.597443      2.325338
  C       2.951375      1.174360      1.274510
  H       3.016483      0.590871      0.326951
  H       3.963818      1.117548      1.747802
  C       2.628996      2.657751      0.949436
  H       2.618881      3.250145      1.895031
  H       1.592969      2.726229      0.535193
  C       3.618649      3.335165     -0.040575
  H       4.664643      3.212706      0.336725
  H       3.426936      4.436378     -0.040151
  C       3.532923      2.821105     -1.501432
  H       2.482259      2.912043     -1.864825
  H       3.770659      1.732512     -1.546024
  C       4.475090      3.590392     -2.479751
  H       5.520137      3.526595     -2.086801
  H       4.204023      4.671656     -2.464857
  C       4.439151      3.034658     -3.894465
  H       4.981541      2.076816     -4.037759
  C       3.788853      3.552162     -4.967386
  H       3.846596      2.987212     -5.919485
  C       2.951404      4.823166     -5.000681
  H       3.130707      5.353757     -5.967996
  H       3.272701      5.525584     -4.197841
  C       1.415136      4.574632     -4.852246
  H       0.900640      5.564968     -4.790683
  H       1.224332      4.068363     -3.875181
  C       0.776984      3.749157     -5.999149
  H       1.270571      2.749779     -6.068655
  H       0.984257      4.256131     -6.974657
  C      -0.752198      3.549628     -5.836494
  H      -1.247877      4.548343     -5.743535
  H      -0.947092      3.026040     -4.869717
  C      -1.404601      2.767077     -7.007114
  H      -0.953253      1.746080     -7.067808
  H      -1.136699      3.272311     -7.967344
  C      -2.952179      2.640125     -6.926462
  H      -3.322716      2.171489     -7.871324
  H      -3.402385      3.663884     -6.899281
  C      -3.481894      1.817907     -5.721366
  H      -3.152534      2.289250     -4.765529
  H      -3.015725      0.802834     -5.735147
  C      -5.023900      1.676069     -5.705857
  H      -5.370563      1.086016     -4.825709
  H      -5.396446      1.163315     -6.624088
  H      -5.522521      2.672917     -5.657649
  C      -4.987422      0.653711      1.717863
  H      -4.908128      1.763130      1.626882
  H      -5.925418      0.475797      2.292637
  C      -5.115737      0.015417      0.299846
  H      -6.192911      0.016399      0.009579
  H      -4.819564     -1.062220      0.344795
  C      -4.325557      0.726047     -0.836970
  H      -4.688992      1.780262     -0.924339
  H      -4.587988      0.238003     -1.808489
  C      -2.781029      0.740341     -0.693137
  H      -2.489236      1.319440      0.215749
  H      -2.416104     -0.302223     -0.529301
  C      -2.065313      1.359967     -1.921871
  H      -2.254791      0.728055     -2.821649
  H      -2.523413      2.355471     -2.141314
  C      -0.526407      1.557643     -1.743004
  H      -0.364203      2.246860     -0.876478
  H      -0.128812      2.088306     -2.635570
  C       0.249080      0.272153     -1.496654
  H       0.030375     -0.239933     -0.538746
  C       1.164663     -0.303914     -2.316804
  H       1.626187     -1.256866     -1.982050
  C       1.627179      0.182721     -3.680622
  H       2.740230      0.273723     -3.676367
  H       1.240839      1.203788     -3.892061
  C       1.214251     -0.772351     -4.843849
  H       1.640652     -1.786759     -4.650752
  H       1.694402     -0.415266     -5.788143
  C      -0.318828     -0.864805     -5.048064
  H      -0.792654     -1.273239     -4.125170
  H      -0.725501      0.168722     -5.155313
  C      -0.760890     -1.691588     -6.287292
  H      -1.875236     -1.640583     -6.367736
  H      -0.369759     -1.196608     -7.210447
  C      -0.323908     -3.183559     -6.300239
  H       0.790857     -3.253612     -6.324088
  H      -0.668906     -3.644680     -7.258027
  C      -0.862724     -4.029038     -5.117030
  H      -0.496446     -3.609733     -4.148475
  H      -1.977894     -3.943185     -5.079904
  C      -0.465642     -5.526038     -5.195521
  H      -0.835395     -5.957044     -6.158725
  H       0.648823     -5.607996     -5.237379
  C      -1.001117     -6.369613     -4.012363
  H      -0.612068     -5.993733     -3.036510
  H      -2.114966     -6.333356     -3.959510
  H      -0.704309     -7.440066     -4.102473
138
Coordinates from ORCA-job /wrk/rja7/qm_final_3_replicates/qm_final_1.1/qm/1/freq E -2722.585672849374
  N       2.025585     -4.651809      8.836055
  C       2.754762     -3.536689      8.002036
  H       3.494002     -4.070478      7.362974
  H       3.262145     -2.887875      8.744233
  C       0.958531     -5.356534      8.004329
  H       1.420118     -5.747414      7.074008
  H       0.544253     -6.193801      8.603694
  H       0.165602     -4.621116      7.768175
  C       1.362611     -4.082897     10.109501
  H       2.082149     -3.409433     10.613425
  H       0.468850     -3.491188      9.837567
  H       1.086598     -4.945629     10.752591
  C       3.084880     -5.657678      9.266719
  H       3.854503     -5.126479      9.862902
  H       3.550914     -6.110300      8.367427
  H       2.609016     -6.447039      9.884835
  C       1.828437     -2.662627      7.118696
  H       2.486169     -1.848513      6.720770
  H       1.469438     -3.229527      6.227159
  P       0.911696     -0.938792      9.061066
  O       2.355431     -1.058596      9.547412
  O      -0.339348     -1.110389      9.910856
  O       0.689084     -2.177584      7.812593
  O       0.836435      0.457388      8.103887
  C      -0.455078      0.956167      7.710428
  H      -0.393878      2.071890      7.703866
  H      -1.238948      0.649622      8.444360
  C      -0.859945      0.458311      6.301368
  H      -0.769792     -0.647229      6.247809
  O       0.053795      1.066918      5.315886
  C       0.834215      0.260234      4.531908
  O       0.841990     -0.965021      4.564811
  C       1.723908      1.106564      3.603123
  H       2.722932      1.190106      4.100678
  H       1.316417      2.138948      3.547979
  C      -2.284012      0.895783      5.923201
  H      -2.377396      2.005513      5.882989
  H      -3.016563      0.518555      6.676169
  O      -2.588729      0.323272      4.612390
  C      -3.679466      0.826037      3.939927
  O      -4.423074      1.687396      4.387438
  C      -3.809176      0.145870      2.566560
  H      -2.829530      0.249887      2.047845
  H      -3.922808     -0.952041      2.740722
  C       1.889248      0.464862      2.199542
  H       0.898249      0.457834      1.682405
  H       2.169236     -0.604764      2.335990
  C       2.935716      1.158108      1.285777
  H       2.994367      0.573616      0.338451
  H       3.947093      1.089102      1.759748
  C       2.632601      2.645155      0.959544
  H       2.633588      3.239821      1.903739
  H       1.596138      2.728409      0.548071
  C       3.629952      3.304164     -0.034821
  H       4.675096      3.163419      0.338525
  H       3.458096      4.408672     -0.034624
  C       3.528733      2.789252     -1.494199
  H       2.477537      2.896066     -1.851070
  H       3.749208      1.697083     -1.539246
  C       4.474962      3.543750     -2.479466
  H       5.522162      3.463059     -2.095704
  H       4.220909      4.629249     -2.460692
  C       4.418735      2.991420     -3.894808
  H       4.950375      2.028987     -4.047529
  C       3.761792      3.518701     -4.958254
  H       3.805280      2.958010     -5.913749
  C       2.933129      4.795227     -4.974733
  H       3.107471      5.333203     -5.938880
  H       3.265130      5.488811     -4.168442
  C       1.397147      4.552179     -4.816462
  H       0.888132      5.544053     -4.735969
  H       1.211377      4.032083     -3.845380
  C       0.748028      3.747259     -5.970744
  H       1.236924      2.747006     -6.060333
  H       0.949759      4.269016     -6.939552
  C      -0.779928      3.548289     -5.799526
  H      -1.272306      4.545606     -5.677996
  H      -0.967453      3.001352     -4.843930
  C      -1.442236      2.796495     -6.984032
  H      -0.975559      1.785392     -7.087712
  H      -1.197727      3.337565     -7.931343
  C      -2.985682      2.643069     -6.881092
  H      -3.364798      2.195504     -7.832706
  H      -3.451695      3.657832     -6.815718
  C      -3.479873      1.779331     -5.690030
  H      -3.157848      2.241876     -4.727655
  H      -2.981470      0.780611     -5.727729
  C      -5.016173      1.587898     -5.665619
  H      -5.336474      0.969992     -4.794542
  H      -5.379862      1.081241     -6.590811
  H      -5.547364      2.566473     -5.593453
  C      -4.984711      0.689986      1.716836
  H      -4.898955      1.799034      1.626781
  H      -5.927211      0.517198      2.285765
  C      -5.108763      0.053074      0.297956
  H      -6.183690      0.066566     -0.000255
  H      -4.825089     -1.027766      0.346216
  C      -4.303737      0.753931     -0.834688
  H      -4.650767      1.813838     -0.919884
  H      -4.571460      0.272159     -1.807889
  C      -2.759445      0.745149     -0.688172
  H      -2.460415      1.313594      0.225248
  H      -2.409472     -0.303548     -0.531091
  C      -2.033892      1.361998     -1.912929
  H      -2.239245      0.742992     -2.818181
  H      -2.471577      2.368871     -2.121917
  C      -0.491653      1.528513     -1.737127
  H      -0.314497      2.201728     -0.860984
  H      -0.088416      2.065890     -2.623049
  C       0.262852      0.227229     -1.512167
  H       0.029914     -0.299884     -0.565756
  C       1.174271     -0.347484     -2.337621
  H       1.619088     -1.313134     -2.017032
  C       1.653413      0.154884     -3.690126
  H       2.767351      0.231626     -3.675280
  H       1.282657      1.184762     -3.889504
  C       1.241458     -0.778394     -4.870750
  H       1.655064     -1.799831     -4.686833
  H       1.736247     -0.413749     -5.804669
  C      -0.289720     -0.852163     -5.094760
  H      -0.780582     -1.261622     -4.181240
  H      -0.683767      0.186665     -5.200419
  C      -0.723098     -1.667091     -6.345331
  H      -1.835888     -1.608715     -6.439444
  H      -0.317512     -1.167415     -7.259625
  C      -0.296247     -3.162345     -6.363461
  H       0.818206     -3.239728     -6.370082
  H      -0.628937     -3.613711     -7.330220
  C      -0.860726     -4.013297     -5.195700
  H      -0.513114     -3.599865     -4.217790
  H      -1.976204     -3.925531     -5.180725
  C      -0.464835     -5.511125     -5.272956
  H      -0.814083     -5.936675     -6.246192
  H       0.650104     -5.594622     -5.290615
  C      -1.028246     -6.359761     -4.106047
  H      -0.660262     -5.989767     -3.119844
  H      -2.142911     -6.321129     -4.078065
  H      -0.731945     -7.430455     -4.194984
138
Coordinates from ORCA-job /wrk/rja7/qm_final_3_replicates/qm_final_1.1/qm/1/freq E -2722.585704828829
  N       2.024604     -4.604955      8.844209
  C       2.757944     -3.491908      8.011165
  H       3.496392     -4.027376      7.372606
  H       3.265529     -2.843711      8.753649
  C       0.955145     -5.306013      8.012104
  H       1.414937     -5.694180      7.079830
  H       0.541033     -6.144418      8.609918
  H       0.162773     -4.568875      7.779436
  C       1.364213     -4.034169     10.118515
  H       2.085067     -3.359862     10.619454
  H       0.469360     -3.443997      9.847451
  H       1.090309     -4.896088     10.763642
  C       3.080874     -5.614525      9.274317
  H       3.852792     -5.085623      9.869571
  H       3.544449     -6.069072      8.374802
  H       2.603005     -6.401960      9.893356
  C       1.833633     -2.615156      7.128415
  H       2.491697     -1.799039      6.735004
  H       1.475650     -3.178446      6.234349
  P       0.913863     -0.892137      9.069820
  O       2.359036     -1.006365      9.553320
  O      -0.334810     -1.066579      9.922438
  O       0.693348     -2.134047      7.823394
  O       0.831725      0.502966      8.110680
  C      -0.462768      0.991954      7.714953
  H      -0.406085      2.107741      7.696146
  H      -1.242975      0.689578      8.454533
  C      -0.869452      0.478252      6.311934
  H      -0.776553     -0.627494      6.269846
  O       0.043043      1.078361      5.318848
  C       0.817474      0.266412      4.534245
  O       0.820685     -0.958771      4.570665
  C       1.705831      1.105444      3.596939
  H       2.708316      1.184038      4.088337
  H       1.304768      2.140191      3.539868
  C      -2.295946      0.906884      5.932080
  H      -2.393655      2.015922      5.880019
  H      -3.026119      0.535470      6.690336
  O      -2.600885      0.319725      4.628081
  C      -3.694647      0.813381      3.953832
  O      -4.437793      1.678201      4.395226
  C      -3.821722      0.125499      2.584205
  H      -2.838523      0.218717      2.070921
  H      -3.944280     -0.970397      2.765280
  C       1.860931      0.456834      2.195099
  H       0.870542      0.465588      1.677091
  H       2.121612     -0.617106      2.335946
  C       2.923188      1.125633      1.280777
  H       2.969117      0.538438      0.334471
  H       3.932015      1.032982      1.756138
  C       2.657118      2.619229      0.952019
  H       2.672540      3.215479      1.895084
  H       1.623390      2.728631      0.539704
  C       3.671172      3.251286     -0.043384
  H       4.712714      3.078193      0.326623
  H       3.532590      4.360421     -0.038982
  C       3.548397      2.745262     -1.504172
  H       2.498005      2.882782     -1.853360
  H       3.737929      1.647661     -1.555941
  C       4.507952      3.478850     -2.493149
  H       5.555973      3.363584     -2.121168
  H       4.286300      4.571090     -2.462468
  C       4.421277      2.941920     -3.913373
  H       4.940740      1.976272     -4.085787
  C       3.749520      3.484995     -4.960135
  H       3.772807      2.933221     -5.921501
  C       2.926569      4.765499     -4.949582
  H       3.090715      5.315816     -5.908567
  H       3.272258      5.446103     -4.138198
  C       1.391147      4.526247     -4.775106
  H       0.889004      5.518577     -4.662415
  H       1.218052      3.983509     -3.814684
  C       0.720201      3.752625     -5.938298
  H       1.201677      2.752166     -6.060452
  H       0.909237      4.297439     -6.896814
  C      -0.806638      3.553599     -5.748947
  H      -1.292182      4.547642     -5.580347
  H      -0.980924      2.970676     -4.812758
  C      -1.490151      2.850566     -6.950831
  H      -1.006176      1.855721     -7.120256
  H      -1.279448      3.443063     -7.874602
  C      -3.027553      2.662750     -6.817945
  H      -3.421294      2.253389     -7.780567
  H      -3.511281      3.663296     -6.691253
  C      -3.475113      1.733759     -5.657718
  H      -3.167477      2.175152     -4.681496
  H      -2.931995      0.761278     -5.735120
  C      -5.000472      1.471590     -5.632016
  H      -5.286592      0.810100     -4.781203
  H      -5.346466      0.980413     -6.572235
  H      -5.577342      2.420740     -5.523143
  C      -4.989143      0.671649      1.724946
  H      -4.897392      1.779795      1.629384
  H      -5.935221      0.506883      2.290367
  C      -5.110745      0.028309      0.308864
  H      -6.184223      0.049433      0.005811
  H      -4.836512     -1.054699      0.363309
  C      -4.297092      0.718808     -0.823333
  H      -4.641266      1.779111     -0.915724
  H      -4.561929      0.232058     -1.794790
  C      -2.753372      0.706780     -0.671384
  H      -2.455363      1.274231      0.242618
  H      -2.405289     -0.342469     -0.513459
  C      -2.023359      1.324232     -1.893062
  H      -2.232325      0.710535     -2.801014
  H      -2.456223      2.334130     -2.097108
  C      -0.480019      1.482524     -1.715635
  H      -0.301367      2.146521     -0.832591
  H      -0.073746      2.027093     -2.595321
  C       0.266945      0.174796     -1.503440
  H       0.023922     -0.362262     -0.565196
  C       1.185337     -0.392038     -2.326849
  H       1.623987     -1.363072     -2.013821
  C       1.688418      0.129076     -3.663614
  H       2.802887      0.187750     -3.630715
  H       1.338234      1.168418     -3.846415
  C       1.282863     -0.773402     -4.869707
  H       1.674438     -1.805470     -4.697261
  H       1.804109     -0.400573     -5.785697
  C      -0.243700     -0.814210     -5.129996
  H      -0.764079     -1.227887     -4.234795
  H      -0.616040      0.233232     -5.229740
  C      -0.659658     -1.604207     -6.403079
  H      -1.768535     -1.527903     -6.524865
  H      -0.223536     -1.098092     -7.299478
  C      -0.254912     -3.105201     -6.429604
  H       0.857773     -3.198828     -6.398719
  H      -0.561198     -3.539059     -7.412985
  C      -0.871492     -3.960374     -5.292073
  H      -0.557889     -3.557769     -4.298131
  H      -1.985812     -3.862463     -5.319477
  C      -0.484890     -5.460358     -5.365282
  H      -0.798573     -5.876487     -6.354637
  H       0.629081     -5.552646     -5.338573
  C      -1.102200     -6.311272     -4.227716
  H      -0.772633     -5.949570     -3.225003
  H      -2.216688     -6.263939     -4.245879
  H      -0.810433     -7.383646     -4.310846
138
Coordinates from ORCA-job /wrk/rja7/qm_final_3_replicates/qm_final_1.1/qm/1/freq E -2722.585753424443
  N       2.022966     -4.611670      8.845929
  C       2.759002     -3.499625      8.014200
  H       3.495197     -4.036242      7.373984
  H       3.269381     -2.854205      8.757213
  C       0.947711     -5.305022      8.014727
  H       1.403061     -5.692445      7.079942
  H       0.531544     -6.143275      8.611321
  H       0.158525     -4.562989      7.786862
  C       1.368649     -4.041369     10.123728
  H       2.093584     -3.371116     10.624179
  H       0.475503     -3.446769      9.856768
  H       1.093096     -4.903738     10.767561
  C       3.075637     -5.627507      9.270044
  H       3.850841     -5.104249      9.866034
  H       3.535612     -6.080410      8.367844
  H       2.595422     -6.415367      9.886752
  C       1.836729     -2.618530      7.133479
  H       2.496689     -1.803664      6.740816
  H       1.476766     -3.179654      6.238755
  P       0.920839     -0.894386      9.076454
  O       2.365985     -1.011163      9.559635
  O      -0.328155     -1.066766      9.929052
  O       0.697571     -2.135148      7.829233
  O       0.841113      0.501511      8.117893
  C      -0.452765      0.991229      7.722344
  H      -0.395674      2.106983      7.703238
  H      -1.233352      0.689453      8.461873
  C      -0.859209      0.477126      6.319717
  H      -0.765182     -0.628548      6.278221
  O       0.051923      1.077652      5.325984
  C       0.829561      0.266823      4.543640
  O       0.838151     -0.958277      4.582874
  C       1.711409      1.107848      3.602544
  H       2.717068      1.186803      4.087275
  H       1.308601      2.142123      3.549260
  C      -2.285984      0.904890      5.939821
  H      -2.384667      2.013863      5.888970
  H      -3.015973      0.531869      6.697455
  O      -2.590905      0.318640      4.635371
  C      -3.678722      0.820126      3.957071
  O      -4.416925      1.690513      4.395812
  C      -3.811144      0.128021      2.590008
  H      -2.827154      0.211927      2.075126
  H      -3.941542     -0.966255      2.775266
  C       1.857977      0.461139      2.199209
  H       0.864974      0.471044      1.687346
  H       2.119017     -0.613085      2.337113
  C       2.914026      1.132179      1.279959
  H       2.955464      0.547034      0.332131
  H       3.925489      1.039195      1.749669
  C       2.644968      2.626357      0.955889
  H       2.661678      3.219980      1.900573
  H       1.609688      2.736441      0.545832
  C       3.658276      3.261711     -0.038230
  H       4.699731      3.089979      0.332661
  H       3.517733      4.370577     -0.032555
  C       3.539295      2.756972     -1.499672
  H       2.489575      2.892748     -1.851842
  H       3.731119      1.659741     -1.552044
  C       4.501983      3.492289     -2.484740
  H       5.548574      3.378872     -2.108163
  H       4.278635      4.584097     -2.455615
  C       4.421003      2.955389     -3.905264
  H       4.948362      1.994098     -4.078079
  C       3.745680      3.494512     -4.951814
  H       3.772653      2.943473     -5.913456
  C       2.913568      4.769254     -4.940361
  H       3.080153      5.325373     -5.895619
  H       3.248688      5.448379     -4.123479
  C       1.378810      4.519122     -4.776941
  H       0.868464      5.507657     -4.667633
  H       1.202632      3.975028     -3.818065
  C       0.721220      3.740389     -5.944333
  H       1.213513      2.745011     -6.064620
  H       0.909474      4.287849     -6.901522
  C      -0.804423      3.527447     -5.761956
  H      -1.300199      4.517460     -5.599886
  H      -0.977910      2.946802     -4.824596
  C      -1.475957      2.812774     -6.963781
  H      -0.998344      1.812030     -7.112892
  H      -1.248337      3.391542     -7.891798
  C      -3.016768      2.640130     -6.850515
  H      -3.400907      2.221584     -7.813038
  H      -3.492436      3.647369     -6.745403
  C      -3.491993      1.731567     -5.684885
  H      -3.182747      2.175347     -4.710063
  H      -2.969153      0.746587     -5.749607
  C      -5.022955      1.502599     -5.669446
  H      -5.331086      0.857609     -4.813787
  H      -5.371137      1.007924     -6.606978
  H      -5.578895      2.465729     -5.578103
  C      -4.975731      0.679730      1.729794
  H      -4.877003      1.787001      1.631474
  H      -5.922531      0.522229      2.296064
  C      -5.102360      0.032295      0.315956
  H      -6.176793      0.052177      0.016252
  H      -4.827667     -1.050474      0.372672
  C      -4.293098      0.719102     -0.821257
  H      -4.639270      1.778336     -0.918425
  H      -4.559031      0.227359     -1.789867
  C      -2.749715      0.711082     -0.671112
  H      -2.452615      1.283674      0.239731
  H      -2.398932     -0.336612     -0.508701
  C      -2.021690      1.323051     -1.896418
  H      -2.225768      0.700669     -2.799644
  H      -2.459845      2.328917     -2.109183
  C      -0.479335      1.490435     -1.717603
  H      -0.304711      2.160492     -0.838318
  H      -0.074755      2.031707     -2.600187
  C       0.272505      0.186721     -1.496121
  H       0.032109     -0.343629     -0.553452
  C       1.191469     -0.383555     -2.316320
  H       1.633024     -1.351408     -1.997589
  C       1.692812      0.131878     -3.655410
  H       2.807285      0.191441     -3.623437
  H       1.341237      1.169686     -3.842092
  C       1.286392     -0.775500     -4.857710
  H       1.676774     -1.807413     -4.682300
  H       1.807608     -0.405961     -5.775090
  C      -0.240813     -0.815379     -5.115934
  H      -0.759481     -1.232560     -4.221289
  H      -0.613221      0.232199     -5.210881
  C      -0.660166     -1.599429     -6.391448
  H      -1.769242     -1.520240     -6.510741
  H      -0.223915     -1.090298     -7.286090
  C      -0.258106     -3.101055     -6.426435
  H       0.854522     -3.196530     -6.396473
  H      -0.565656     -3.528568     -7.412141
  C      -0.875208     -3.962437     -5.294080
  H      -0.561352     -3.566428     -4.297590
  H      -1.989507     -3.863280     -5.320896
  C      -0.490519     -5.462274     -5.377933
  H      -0.804440     -5.870928     -6.370293
  H       0.623363     -5.556065     -5.351536
  C      -1.109100     -6.320810     -4.246812
  H      -0.779415     -5.966669     -3.241441
  H      -2.223543     -6.272126     -4.264935
  H      -0.818526     -7.392872     -4.337635
138
Coordinates from ORCA-job /wrk/rja7/qm_final_3_replicates/qm_final_1.1/qm/1/freq E -2722.585792947739
  N       2.012105     -4.609992      8.843374
  C       2.744425     -3.498018      8.008804
  H       3.477003     -4.035013      7.364779
  H       3.259350     -2.853451      8.749542
  C       0.933676     -5.302531      8.015830
  H       1.385425     -5.689884      7.079215
  H       0.519168     -6.140912      8.613439
  H       0.144055     -4.560061      7.790938
  C       1.362778     -4.040703     10.124137
  H       2.090097     -3.371665     10.622814
  H       0.469551     -3.444298      9.861219
  H       1.088397     -4.903663     10.767668
  C       3.066430     -5.626057      9.262494
  H       3.843655     -5.103405      9.856386
  H       3.523418     -6.077628      8.358077
  H       2.588633     -6.414898      9.879816
  C       1.819371     -2.616311      7.131519
  H       2.479778     -1.804415      6.733421
  H       1.453727     -3.178530      6.239700
  P       0.916232     -0.888262      9.077515
  O       2.359467     -1.017098      9.563900
  O      -0.335984     -1.049111      9.927565
  O       0.684600     -2.127201      7.830359
  O       0.851328      0.506818      8.117219
  C      -0.436890      1.012768      7.724329
  H      -0.365417      2.127696      7.704839
  H      -1.220411      0.721648      8.465109
  C      -0.852136      0.502741      6.323112
  H      -0.773672     -0.604253      6.282997
  O       0.066210      1.088982      5.327885
  C       0.827346      0.265563      4.542684
  O       0.818086     -0.959490      4.583837
  C       1.721378      1.092622      3.601051
  H       2.728462      1.156294      4.085126
  H       1.334248      2.132977      3.549096
  C      -2.272754      0.950499      5.943016
  H      -2.355282      2.060664      5.891482
  H      -3.008299      0.587980      6.700292
  O      -2.585123      0.367371      4.638854
  C      -3.666137      0.879930      3.958213
  O      -4.395894      1.758953      4.394009
  C      -3.809677      0.179778      2.596263
  H      -2.824624      0.241607      2.080081
  H      -3.959654     -0.910433      2.790797
  C       1.856035      0.446338      2.196486
  H       0.861202      0.468117      1.688067
  H       2.105994     -0.630974      2.330745
  C       2.915110      1.109564      1.275465
  H       2.946334      0.529076      0.324390
  H       3.927890      1.003950      1.739746
  C       2.659639      2.608169      0.962228
  H       2.688345      3.195166      1.910741
  H       1.622701      2.731846      0.560356
  C       3.672070      3.240975     -0.034250
  H       4.714303      3.060768      0.330468
  H       3.538917      4.350717     -0.022385
  C       3.542914      2.743405     -1.497111
  H       2.491765      2.883755     -1.842518
  H       3.731784      1.646105     -1.556342
  C       4.498658      3.483140     -2.485336
  H       5.548309      3.364174     -2.119454
  H       4.278565      4.575372     -2.445090
  C       4.402376      2.958932     -3.909798
  H       4.938871      2.006475     -4.101919
  C       3.705956      3.503225     -4.939653
  H       3.725786      2.965013     -5.908784
  C       2.859604      4.767790     -4.897912
  H       3.013829      5.346380     -5.841900
  H       3.190668      5.433556     -4.068401
  C       1.328855      4.495048     -4.732274
  H       0.806830      5.474087     -4.595509
  H       1.163482      3.924877     -3.786415
  C       0.675177      3.738894     -5.916411
  H       1.185575      2.757042     -6.070200
  H       0.844669      4.317636     -6.858563
  C      -0.843909      3.490992     -5.726452
  H      -1.357426      4.465218     -5.528473
  H      -0.995362      2.877823     -4.806273
  C      -1.513779      2.800945     -6.943665
  H      -1.027118      1.809499     -7.120672
  H      -1.297456      3.406231     -7.857880
  C      -3.051716      2.608627     -6.826946
  H      -3.435798      2.201543     -7.794431
  H      -3.537986      3.608987     -6.704050
  C      -3.512311      1.677218     -5.673296
  H      -3.203151      2.109860     -4.693199
  H      -2.980041      0.698099     -5.754674
  C      -5.041003      1.433485     -5.655000
  H      -5.340374      0.777041     -4.805006
  H      -5.387566      0.944802     -6.596307
  H      -5.605265      2.390578     -5.553346
  C      -4.964940      0.743810      1.731329
  H      -4.847596      1.848226      1.622292
  H      -5.914248      0.607924      2.298897
  C      -5.100686      0.084579      0.323727
  H      -6.174933      0.113460      0.024154
  H      -4.837848     -1.000489      0.390365
  C      -4.283363      0.752293     -0.819392
  H      -4.614415      1.815735     -0.923435
  H      -4.557143      0.258400     -1.784715
  C      -2.740336      0.723638     -0.669178
  H      -2.435343      1.295543      0.239802
  H      -2.404149     -0.328257     -0.503024
  C      -2.003694      1.319918     -1.897169
  H      -2.217471      0.697300     -2.798119
  H      -2.426370      2.331668     -2.114050
  C      -0.460042      1.466899     -1.718975
  H      -0.276676      2.133970     -0.839361
  H      -0.050205      2.004458     -2.601605
  C       0.276499      0.154440     -1.500131
  H       0.017613     -0.384054     -0.566920
  C       1.200131     -0.416269     -2.314146
  H       1.625744     -1.393043     -2.001131
  C       1.725172      0.109118     -3.639926
  H       2.839528      0.159083     -3.590894
  H       1.385452      1.152188     -3.822157
  C       1.329398     -0.783442     -4.856641
  H       1.706936     -1.820480     -4.684870
  H       1.867895     -0.410071     -5.762552
  C      -0.194494     -0.806680     -5.136669
  H      -0.729703     -1.223099     -4.251269
  H      -0.554909      0.244840     -5.231926
  C      -0.603633     -1.581066     -6.421231
  H      -1.710391     -1.492300     -6.554728
  H      -0.150506     -1.071939     -7.307419
  C      -0.212185     -3.085964     -6.458307
  H       0.899107     -3.188769     -6.410029
  H      -0.505657     -3.505251     -7.451748
  C      -0.853306     -3.950677     -5.341814
  H      -0.560716     -3.558169     -4.337498
  H      -1.966828     -3.851368     -5.391853
  C      -0.467678     -5.450721     -5.423340
  H      -0.759381     -5.854637     -6.424328
  H       0.645306     -5.544816     -5.372408
  C      -1.111863     -6.314096     -4.310114
  H      -0.803356     -5.965590     -3.296079
  H      -2.225591     -6.263110     -4.352093
  H      -0.821515     -7.386306     -4.399924
138
Coordinates from ORCA-job /wrk/rja7/qm_final_3_replicates/qm_final_1.1/qm/1/freq E -2722.585819577561
  N       2.015880     -4.584584      8.867819
  C       2.749368     -3.475749      8.030244
  H       3.482824     -4.014064      7.388344
  H       3.263445     -2.828594      8.769250
  C       0.935461     -5.277876      8.042974
  H       1.385585     -5.670839      7.107935
  H       0.519017     -6.112475      8.644518
  H       0.148421     -4.533475      7.815731
  C       1.366924     -4.009985     10.146349
  H       2.093700     -3.338273     10.642118
  H       0.473350     -3.414806      9.881422
  H       1.092883     -4.870139     10.793713
  C       3.068630     -5.600790      9.290332
  H       3.846560     -5.077213      9.882455
  H       3.524817     -6.056087      8.387376
  H       2.589726     -6.386853      9.910300
  C       1.824241     -2.597799      7.149291
  H       2.484111     -1.786454      6.748895
  H       1.459731     -3.163246      6.259171
  P       0.919014     -0.863739      9.088788
  O       2.363623     -0.986099      9.572689
  O      -0.331100     -1.026737      9.941642
  O       0.689054     -2.107548      7.846330
  O       0.847789      0.528751      8.124986
  C      -0.442307      1.028068      7.728763
  H      -0.374379      2.143138      7.703979
  H      -1.225242      0.737968      8.470507
  C      -0.856514      0.510757      6.329819
  H      -0.773140     -0.596071      6.293984
  O       0.059207      1.096418      5.331845
  C       0.818054      0.272175      4.545513
  O       0.806192     -0.952861      4.585639
  C       1.709901      1.097632      3.600368
  H       2.718679      1.159082      4.081275
  H       1.324893      2.138809      3.549718
  C      -2.279169      0.950883      5.948192
  H      -2.366410      2.060498      5.892660
  H      -3.013218      0.587513      6.706508
  O      -2.588735      0.362567      4.645757
  C      -3.668950      0.871111      3.961168
  O      -4.397852      1.754233      4.390137
  C      -3.808023      0.166909      2.601018
  H      -2.820432      0.222558      2.089775
  H      -3.963224     -0.921962      2.798794
  C       1.839302      0.450889      2.195480
  H       0.844697      0.480775      1.686404
  H       2.080419     -0.628521      2.329197
  C       2.905116      1.105538      1.276259
  H       2.931606      0.526761      0.324024
  H       3.916605      0.989267      1.740922
  C       2.664776      2.607060      0.965982
  H       2.699659      3.192439      1.915281
  H       1.628863      2.741424      0.565500
  C       3.683177      3.231612     -0.029682
  H       4.723269      3.042639      0.336974
  H       3.559378      4.342403     -0.018313
  C       3.552596      2.733445     -1.491740
  H       2.503325      2.882263     -1.839949
  H       3.732662      1.634695     -1.548960
  C       4.516089      3.463064     -2.480337
  H       5.564844      3.328274     -2.117980
  H       4.311172      4.558219     -2.435066
  C       4.408472      2.946074     -3.906988
  H       4.949701      1.998785     -4.110508
  C       3.698013      3.491566     -4.926755
  H       3.712924      2.958891     -5.899007
  C       2.844209      4.750223     -4.869309
  H       2.993033      5.342203     -5.805998
  H       3.172375      5.407432     -4.031855
  C       1.314925      4.467108     -4.704132
  H       0.789466      5.440563     -4.543085
  H       1.156052      3.875192     -3.770947
  C       0.658191      3.734881     -5.901638
  H       1.175993      2.761540     -6.083961
  H       0.814620      4.338287     -6.830430
  C      -0.857005      3.469546     -5.704239
  H      -1.376807      4.433911     -5.476700
  H      -0.993443      2.831970     -4.798580
  C      -1.533080      2.802340     -6.930521
  H      -1.048653      1.813707     -7.126653
  H      -1.322200      3.423689     -7.835611
  C      -3.070309      2.608278     -6.808290
  H      -3.458269      2.204207     -7.775519
  H      -3.556436      3.608287     -6.680769
  C      -3.527118      1.675317     -5.654236
  H      -3.217255      2.108696     -4.674624
  H      -2.993472      0.696804     -5.735745
  C      -5.055581      1.429458     -5.634719
  H      -5.354610      0.777785     -4.781029
  H      -5.400662      0.934298     -6.573236
  H      -5.620469      2.386801     -5.540489
  C      -4.955797      0.731484      1.726769
  H      -4.830992      1.834209      1.610079
  H      -5.908350      0.605434      2.291135
  C      -5.088485      0.062397      0.323069
  H      -6.161797      0.089571      0.019989
  H      -4.826252     -1.022208      0.397461
  C      -4.265936      0.722415     -0.821325
  H      -4.597481      1.784892     -0.934108
  H      -4.535208      0.222163     -1.784629
  C      -2.723251      0.694019     -0.664737
  H      -2.421357      1.269728      0.243020
  H      -2.388458     -0.357429     -0.492791
  C      -1.981608      1.285710     -1.892155
  H      -2.198317      0.664835     -2.793743
  H      -2.398617      2.299935     -2.108492
  C      -0.436869      1.422820     -1.714438
  H      -0.248260      2.080610     -0.828769
  H      -0.025748      1.966400     -2.592771
  C       0.290479      0.103189     -1.510593
  H       0.021203     -0.447784     -0.587531
  C       1.213284     -0.463508     -2.328247
  H       1.626582     -1.449513     -2.027861
  C       1.753263      0.075398     -3.642625
  H       2.867910      0.106911     -3.584461
  H       1.432017      1.126830     -3.811776
  C       1.353191     -0.792126     -4.875958
  H       1.710766     -1.837883     -4.715797
  H       1.906300     -0.415226     -5.771429
  C      -0.168620     -0.784356     -5.169893
  H      -0.718768     -1.199615     -4.293014
  H      -0.509548      0.274215     -5.258569
  C      -0.579468     -1.541621     -6.464302
  H      -1.683689     -1.437253     -6.605037
  H      -0.112394     -1.031415     -7.342596
  C      -0.207058     -3.051256     -6.510769
  H       0.902340     -3.167267     -6.452063
  H      -0.495342     -3.458764     -7.510573
  C      -0.869453     -3.916383     -5.407255
  H      -0.589996     -3.528514     -4.397398
  H      -1.981570     -3.810747     -5.473599
  C      -0.491264     -5.418210     -5.488577
  H      -0.769222     -5.816531     -6.495637
  H       0.620241     -5.518617     -5.420355
  C      -1.157987     -6.281470     -4.388766
  H      -0.863796     -5.937564     -3.368918
  H      -2.270620     -6.223645     -4.448269
  H      -0.872537     -7.355092     -4.477208
138
Coordinates from ORCA-job /wrk/rja7/qm_final_3_replicates/qm_final_1.1/qm/1/freq E -2722.585831553160
  N       2.014345     -4.590682      8.857717
  C       2.751102     -3.482626      8.021480
  H       3.484441     -4.021932      7.380300
  H       3.265289     -2.836986      8.761701
  C       0.934270     -5.282670      8.031151
  H       1.385440     -5.676651      7.097064
  H       0.515743     -6.116671      8.632105
  H       0.148399     -4.537498      7.802456
  C       1.364238     -4.015153     10.135192
  H       2.090471     -3.342948     10.631142
  H       0.471084     -3.420033      9.868833
  H       1.089124     -4.874702     10.782922
  C       3.064906     -5.608335      9.281914
  H       3.843772     -5.085478      9.873472
  H       3.520453     -6.065783      8.379721
  H       2.584532     -6.392746      9.902859
  C       1.828243     -2.603014      7.139983
  H       2.488855     -1.790805      6.742571
  H       1.465953     -3.166912      6.248021
  P       0.917944     -0.871721      9.079120
  O       2.363002     -0.990468      9.562743
  O      -0.331604     -1.039077      9.932044
  O       0.691529     -2.115329      7.835886
  O       0.842184      0.521480      8.117064
  C      -0.450085      1.014782      7.720176
  H      -0.387772      2.130182      7.696361
  H      -1.231803      0.719614      8.461164
  C      -0.860367      0.496721      6.320238
  H      -0.771951     -0.609656      6.283265
  O       0.054302      1.087637      5.323989
  C       0.820644      0.267725      4.540111
  O       0.814833     -0.957374      4.579532
  C       1.711190      1.097890      3.597676
  H       2.718525      1.162854      4.081114
  H       1.322032      2.137478      3.546904
  C      -2.285096      0.930525      5.938926
  H      -2.377480      2.039792      5.884358
  H      -3.017248      0.563234      6.697219
  O      -2.592758      0.342476      4.635992
  C      -3.671823      0.852571      3.950796
  O      -4.400224      1.736000      4.379952
  C      -3.807121      0.153769      2.587669
  H      -2.819507      0.217420      2.077425
  H      -3.956516     -0.936859      2.780036
  C       1.847232      0.452324      2.192701
  H       0.853966      0.478566      1.680778
  H       2.091901     -0.626250      2.326756
  C       2.913801      1.111215      1.276925
  H       2.945727      0.532625      0.324736
  H       3.924247      0.998481      1.744726
  C       2.668529      2.611907      0.965847
  H       2.699623      3.197714      1.915022
  H       1.632801      2.741095      0.563893
  C       3.684931      3.241605     -0.028819
  H       4.725606      3.059884      0.339841
  H       3.553640      4.351536     -0.018986
  C       3.559319      2.741491     -1.490751
  H       2.509716      2.883337     -1.840350
  H       3.746737      1.643854     -1.546104
  C       4.519876      3.474919     -2.479315
  H       5.568891      3.345993     -2.115445
  H       4.309491      4.569184     -2.436769
  C       4.417309      2.952837     -3.904388
  H       4.958432      2.004053     -4.101015
  C       3.711393      3.493215     -4.930294
  H       3.730250      2.954287     -5.899020
  C       2.858971      4.753327     -4.886139
  H       3.011875      5.336578     -5.827609
  H       3.186507      5.417016     -4.053549
  C       1.327919      4.477063     -4.722662
  H       0.806174      5.453976     -4.571165
  H       1.164928      3.893504     -3.785030
  C       0.670273      3.736141     -5.914691
  H       1.181353      2.757001     -6.083839
  H       0.833809      4.328022     -6.849683
  C      -0.848164      3.485564     -5.720573
  H      -1.362269      4.457675     -5.514259
  H      -0.994347      2.866068     -4.804002
  C      -1.522991      2.798157     -6.936551
  H      -1.043153      1.803194     -7.110477
  H      -1.306447      3.399677     -7.853048
  C      -3.061458      2.613475     -6.813992
  H      -3.449551      2.193556     -7.774417
  H      -3.543604      3.617405     -6.705108
  C      -3.523429      1.702951     -5.644603
  H      -3.213123      2.152170     -4.672373
  H      -2.993256      0.721572     -5.708043
  C      -5.052890      1.463097     -5.622827
  H      -5.354977      0.825903     -4.759338
  H      -5.399430      0.955005     -6.553856
  H      -5.613911      2.424149     -5.542988
  C      -4.957389      0.716615      1.715850
  H      -4.836423      1.820148      1.602642
  H      -5.909109      0.585755      2.280600
  C      -5.089330      0.052041      0.309910
  H      -6.162960      0.077336      0.007904
  H      -4.824021     -1.032150      0.379756
  C      -4.270061      0.718783     -0.832667
  H      -4.607987      1.779428     -0.943476
  H      -4.535812      0.218460     -1.796946
  C      -2.727264      0.698603     -0.675394
  H      -2.428448      1.274887      0.232875
  H      -2.387095     -0.351222     -0.504178
  C      -1.988141      1.297008     -1.900818
  H      -2.198457      0.676020     -2.803800
  H      -2.412212      2.308408     -2.116131
  C      -0.444632      1.445128     -1.719590
  H      -0.263445      2.108100     -0.836210
  H      -0.034205      1.987205     -2.598987
  C       0.290826      0.131166     -1.507674
  H       0.030646     -0.412646     -0.577861
  C       1.212803     -0.437453     -2.325507
  H       1.635539     -1.417149     -2.017573
  C       1.740514      0.091982     -3.648872
  H       2.855668      0.127469     -3.600547
  H       1.414900      1.140522     -3.824099
  C       1.332117     -0.787224     -4.871601
  H       1.699418     -1.829064     -4.708042
  H       1.871350     -0.412987     -5.776534
  C      -0.193184     -0.794513     -5.146476
  H      -0.728098     -1.212077     -4.261364
  H      -0.545268      0.260417     -5.234192
  C      -0.612964     -1.559279     -6.433515
  H      -1.719564     -1.464555     -6.561321
  H      -0.161029     -1.048651     -7.319402
  C      -0.227962     -3.065370     -6.478575
  H       0.882881     -3.171808     -6.430908
  H      -0.522595     -3.478964     -7.474058
  C      -0.871625     -3.930892     -5.364946
  H      -0.583395     -3.537641     -4.359636
  H      -1.985123     -3.833151     -5.418920
  C      -0.483928     -5.429920     -5.445438
  H      -0.769114     -5.833060     -6.448598
  H       0.628831     -5.523070     -5.388118
  C      -1.134123     -6.293122     -4.336415
  H      -0.833248     -5.942748     -3.320720
  H      -2.247649     -6.243995     -4.385961
  H      -0.841345     -7.364925     -4.422973
138
Coordinates from ORCA-job /wrk/rja7/qm_final_3_replicates/qm_final_1.1/qm/1/freq E -2722.585838343693
  N       2.004849     -4.591218      8.873051
  C       2.748612     -3.483715      8.042046
  H       3.484179     -4.024232      7.404349
  H       3.260202     -2.840425      8.786070
  C       0.929496     -5.281839      8.039412
  H       1.386548     -5.674883      7.107773
  H       0.507039     -6.116334      8.636902
  H       0.144926     -4.536642      7.806271
  C       1.347746     -4.015743     10.147064
  H       2.071728     -3.344475     10.647639
  H       0.456838     -3.419992      9.875095
  H       1.068106     -4.875493     10.792593
  C       3.051376     -5.610648      9.302934
  H       3.827535     -5.089348      9.899456
  H       3.511533     -6.068389      8.403218
  H       2.565908     -6.394555      9.920580
  C       1.832685     -2.599999      7.157328
  H       2.497072     -1.787786      6.766315
  H       1.474411     -3.160579      6.261666
  P       0.915107     -0.870352      9.094313
  O       2.357512     -0.992638      9.584872
  O      -0.338979     -1.035387      9.940694
  O       0.692800     -2.112455      7.848495
  O       0.846813      0.523256      8.131874
  C      -0.443055      1.019243      7.730822
  H      -0.378202      2.134415      7.705287
  H      -1.227235      0.726846      8.470321
  C      -0.850007      0.499372      6.330577
  H      -0.761549     -0.606976      6.295000
  O       0.066206      1.089724      5.335487
  C       0.830852      0.269049      4.550756
  O       0.824704     -0.956075      4.590772
  C       1.719509      1.098310      3.605882
  H       2.730251      1.157644      4.082851
  H       1.334518      2.139606      3.560193
  C      -2.274078      0.932038      5.946101
  H      -2.368226      2.041275      5.892804
  H      -3.007571      0.562823      6.702171
  O      -2.577270      0.345010      4.641571
  C      -3.655347      0.855004      3.954441
  O      -4.388263      1.733847      4.385208
  C      -3.788053      0.156944      2.590613
  H      -2.798617      0.220127      2.082820
  H      -3.938928     -0.933809      2.781461
  C       1.843438      0.455515      2.198546
  H       0.847305      0.488248      1.693174
  H       2.082858     -0.624618      2.329123
  C       2.907613      1.109701      1.276440
  H       2.927912      0.532750      0.322936
  H       3.920686      0.988236      1.736320
  C       2.670990      2.612872      0.969838
  H       2.712231      3.196996      1.919658
  H       1.633467      2.750840      0.574358
  C       3.685834      3.236450     -0.030064
  H       4.727387      3.048261      0.332741
  H       3.561101      4.347149     -0.018533
  C       3.548545      2.739300     -1.492317
  H       2.496950      2.884718     -1.834154
  H       3.732613      1.641240     -1.551591
  C       4.505395      3.472565     -2.484608
  H       5.555766      3.343261     -2.124534
  H       4.295414      4.566842     -2.441187
  C       4.398673      2.952326     -3.909965
  H       4.936431      2.002254     -4.109790
  C       3.690614      3.495730     -4.932593
  H       3.704878      2.958502     -5.902381
  C       2.838764      4.755634     -4.882097
  H       2.988984      5.342394     -5.821775
  H       3.168525      5.416170     -4.047862
  C       1.308813      4.476475     -4.715981
  H       0.785641      5.451419     -4.557217
  H       1.150346      3.886809     -3.781568
  C       0.650722      3.741153     -5.910887
  H       1.160195      2.762013     -6.084326
  H       0.814171      4.337544     -6.843081
  C      -0.867819      3.489204     -5.719049
  H      -1.383801      4.459797     -5.510619
  H      -1.014613      2.866369     -4.804652
  C      -1.538534      2.804707     -6.938996
  H      -1.048378      1.815883     -7.120580
  H      -1.328809      3.414739     -7.851086
  C      -3.074727      2.602015     -6.815751
  H      -3.458655      2.184845     -7.779065
  H      -3.569117      3.598730     -6.697906
  C      -3.523288      1.675293     -5.654071
  H      -3.223584      2.123339     -4.678209
  H      -2.974913      0.704402     -5.722712
  C      -5.048103      1.407406     -5.637874
  H      -5.339994      0.756382     -4.781199
  H      -5.384185      0.902644     -6.574499
  H      -5.626903      2.357211     -5.548398
  C      -4.936840      0.721920      1.717981
  H      -4.814746      1.825611      1.606729
  H      -5.889264      0.591250      2.281612
  C      -5.069036      0.060159      0.310864
  H      -6.142531      0.088214      0.008741
  H      -4.805728     -1.024641      0.379535
  C      -4.250531      0.727241     -0.831690
  H      -4.585333      1.789342     -0.937783
  H      -4.520898      0.230535     -1.796536
  C      -2.707726      0.702535     -0.678869
  H      -2.405034      1.272903      0.231609
  H      -2.369115     -0.348873     -0.514435
  C      -1.970782      1.306173     -1.902866
  H      -2.183604      0.689758     -2.808346
  H      -2.394457      2.318847     -2.112236
  C      -0.426687      1.452098     -1.722476
  H      -0.245668      2.114224     -0.838286
  H      -0.014802      1.994020     -2.601084
  C       0.305739      0.136294     -1.510078
  H       0.045258     -0.405463     -0.579297
  C       1.226905     -0.434959     -2.327446
  H       1.648733     -1.414619     -2.018306
  C       1.756845      0.093422     -3.650546
  H       2.872013      0.127615     -3.601128
  H       1.433056      1.142243     -3.825672
  C       1.349398     -0.785281     -4.874029
  H       1.713068     -1.828218     -4.708584
  H       1.893405     -0.413282     -5.777082
  C      -0.174704     -0.788566     -5.155088
  H      -0.714980     -1.204935     -4.272830
  H      -0.522954      0.267585     -5.243891
  C      -0.591940     -1.549196     -6.445737
  H      -1.697281     -1.446751     -6.578973
  H      -0.132578     -1.039287     -7.328211
  C      -0.218313     -3.058380     -6.492880
  H       0.891293     -3.174138     -6.438719
  H      -0.510061     -3.465957     -7.491720
  C      -0.877367     -3.923344     -5.387484
  H      -0.589377     -3.540099     -4.378301
  H      -1.989302     -3.811729     -5.446203
  C      -0.507526     -5.426728     -5.475619
  H      -0.791642     -5.819494     -6.483253
  H       0.603658     -5.534016     -5.412307
  C      -1.174980     -6.290011     -4.376703
  H      -0.877092     -5.949713     -3.356709
  H      -2.287505     -6.228155     -4.433290
  H      -0.893508     -7.364414     -4.468483
138
Coordinates from ORCA-job /wrk/rja7/qm_final_3_replicates/qm_final_1.1/qm/1/freq E -2722.585850460999
  N       2.009890     -4.591045      8.861914
  C       2.747456     -3.482204      8.027292
  H       3.481002     -4.021487      7.386259
  H       3.261390     -2.837833      8.768720
  C       0.931415     -5.283177      8.033532
  H       1.384260     -5.676005      7.099747
  H       0.512860     -6.118091      8.633179
  H       0.144950     -4.538813      7.804259
  C       1.358249     -4.017227     10.139430
  H       2.083232     -3.344288     10.636300
  H       0.464454     -3.423385      9.872671
  H       1.084050     -4.877718     10.786264
  C       3.060600     -5.608532      9.286132
  H       3.838976     -5.085814      9.878462
  H       3.516776     -6.065382      8.383956
  H       2.580065     -6.393427      9.906334
  C       1.825907     -2.600866      7.146054
  H       2.487277     -1.788231      6.750854
  H       1.464464     -3.163154      6.252687
  P       0.914921     -0.871185      9.086016
  O       2.358614     -0.994073      9.572614
  O      -0.336865     -1.035468      9.936004
  O       0.688529     -2.113656      7.841414
  O       0.844977      0.522284      8.123732
  C      -0.445105      1.020206      7.725487
  H      -0.378332      2.135270      7.700578
  H      -1.228371      0.728613      8.466269
  C      -0.855695      0.502346      6.325531
  H      -0.770512     -0.604228      6.289124
  O       0.061488      1.090607      5.329931
  C       0.823733      0.268280      4.544488
  O       0.814231     -0.956842      4.583970
  C       1.717530      1.095474      3.602470
  H       2.726615      1.152311      4.083236
  H       1.335250      2.137770      3.555650
  C      -2.278923      0.940154      5.943267
  H      -2.369070      2.049714      5.890588
  H      -3.012574      0.573118      6.700236
  O      -2.586538      0.354610      4.639103
  C      -3.662807      0.869273      3.952760
  O      -4.390658      1.752593      4.383042
  C      -3.798812      0.172030      2.588839
  H      -2.809841      0.231744      2.080636
  H      -3.953364     -0.918186      2.779751
  C       1.845293      0.453029      2.195267
  H       0.850617      0.487082      1.686762
  H       2.083371     -0.627407      2.325909
  C       2.913243      1.106613      1.277023
  H       2.936219      0.530337      0.323199
  H       3.924749      0.983998      1.740077
  C       2.678887      2.610142      0.970909
  H       2.719041      3.193517      1.921242
  H       1.642334      2.749141      0.574107
  C       3.694664      3.234316     -0.027479
  H       4.736026      3.046809      0.336248
  H       3.569149      4.344916     -0.015677
  C       3.558752      2.736942     -1.489600
  H       2.506791      2.879705     -1.831558
  H       3.745781      1.639386     -1.548638
  C       4.512126      3.473229     -2.482675
  H       5.563575      3.345373     -2.125340
  H       4.300288      4.567055     -2.436987
  C       4.402827      2.954510     -3.908432
  H       4.944007      2.007103     -4.111474
  C       3.689031      3.496322     -4.927969
  H       3.702831      2.960597     -5.898615
  C       2.831277      4.751985     -4.872537
  H       2.977264      5.342397     -5.810619
  H       3.158852      5.411585     -4.036709
  C       1.302592      4.465167     -4.705583
  H       0.775204      5.437059     -4.542195
  H       1.147445      3.870668     -3.773510
  C       0.646527      3.731908     -5.902904
  H       1.160246      2.755817     -6.081220
  H       0.806267      4.333137     -6.832604
  C      -0.870675      3.473231     -5.710024
  H      -1.389803      4.441319     -5.497706
  H      -1.013648      2.846743     -4.797535
  C      -1.540972      2.790693     -6.931400
  H      -1.053074      1.800760     -7.112555
  H      -1.328315      3.400801     -7.843028
  C      -3.078305      2.592385     -6.812063
  H      -3.460318      2.174537     -7.775842
  H      -3.570180      3.590903     -6.698001
  C      -3.534556      1.669776     -5.649913
  H      -3.235724      2.118028     -4.673952
  H      -2.990714      0.695979     -5.714903
  C      -5.060707      1.409270     -5.638020
  H      -5.358653      0.762014     -4.780584
  H      -5.396014      0.903575     -6.574384
  H      -5.634983      2.362171     -5.553403
  C      -4.945325      0.740909      1.715995
  H      -4.817586      1.843658      1.601892
  H      -5.898049      0.616609      2.280489
  C      -5.080268      0.076525      0.310350
  H      -6.153606      0.107485      0.007959
  H      -4.820591     -1.008991      0.381237
  C      -4.257839      0.738475     -0.832693
  H      -4.588732      1.801533     -0.941503
  H      -4.528330      0.240815     -1.796972
  C      -2.715224      0.708234     -0.676774
  H      -2.412194      1.279008      0.233493
  H      -2.381360     -0.344260     -0.509691
  C      -1.972626      1.306842     -1.900023
  H      -2.186627      0.690788     -2.805444
  H      -2.390424      2.321683     -2.111463
  C      -0.428317      1.445443     -1.716431
  H      -0.246213      2.106481     -0.831777
  H      -0.012554      1.985931     -2.594128
  C       0.298237      0.126803     -1.503461
  H       0.031469     -0.416516     -0.575363
  C       1.220875     -0.445603     -2.317898
  H       1.636866     -1.428043     -2.009608
  C       1.759779      0.083867     -3.636846
  H       2.874795      0.112119     -3.581736
  H       1.442311      1.135065     -3.810990
  C       1.354353     -0.790080     -4.864397
  H       1.713525     -1.834671     -4.699593
  H       1.903624     -0.417895     -5.764142
  C      -0.168341     -0.787423     -5.152856
  H      -0.714188     -1.203881     -4.274089
  H      -0.512847      0.270049     -5.241259
  C      -0.580721     -1.545931     -6.446279
  H      -1.685399     -1.443719     -6.584166
  H      -0.117560     -1.035366     -7.326375
  C      -0.206025     -3.054917     -6.492397
  H       0.903456     -3.169671     -6.433490
  H      -0.493069     -3.462699     -7.492501
  C      -0.868675     -3.919954     -5.389231
  H      -0.587107     -3.533989     -4.379238
  H      -1.980596     -3.811523     -5.454070
  C      -0.494190     -5.422489     -5.472349
  H      -0.771350     -5.817857     -6.480891
  H       0.616881     -5.526594     -5.402455
  C      -1.165550     -6.285296     -4.375464
  H      -0.874618     -5.941850     -3.354512
  H      -2.277902     -6.226714     -4.438645
  H      -0.880501     -7.359094     -4.463102
138
Coordinates from ORCA-job /wrk/rja7/qm_final_3_replicates/qm_final_1.1/qm/1/freq E -2722.585851734648
  N       2.012671     -4.587043      8.871735
  C       2.748154     -3.478146      8.035573
  H       3.482286     -4.016959      7.394799
  H       3.261572     -2.832126      8.775991
  C       0.935104     -5.281438      8.044186
  H       1.388650     -5.675814      7.111385
  H       0.516588     -6.115435      8.645170
  H       0.148415     -4.537854      7.812999
  C       1.360093     -4.012382     10.148339
  H       2.084344     -3.338519     10.644927
  H       0.466115     -3.419213      9.880546
  H       1.086077     -4.872359     10.795941
  C       3.064839     -5.602576      9.297139
  H       3.842035     -5.078304      9.889631
  H       3.522275     -6.059182      8.395467
  H       2.585126     -6.387875      9.917442
  C       1.824682     -2.599457      7.153778
  H       2.484814     -1.786933      6.756260
  H       1.462809     -3.163858      6.261903
  P       0.914029     -0.867465      9.092015
  O       2.358238     -0.988304      9.577452
  O      -0.336872     -1.031901      9.943241
  O       0.687560     -2.111711      7.849336
  O       0.842212      0.524651      8.127902
  C      -0.448159      1.020875      7.728328
  H      -0.382804      2.136038      7.703396
  H      -1.231933      0.728548      8.468269
  C      -0.856837      0.502469      6.327983
  H      -0.770074     -0.603997      6.291653
  O       0.059862      1.091763      5.332950
  C       0.822735      0.269913      4.547706
  O       0.813603     -0.955216      4.586638
  C       1.714446      1.097957      3.604673
  H       2.724328      1.155225      4.083698
  H       1.331357      2.140033      3.559007
  C      -2.279950      0.938842      5.943905
  H      -2.371210      2.048259      5.890994
  H      -3.013994      0.571089      6.700140
  O      -2.585071      0.352904      4.639306
  C      -3.662278      0.864510      3.952217
  O      -4.392918      1.745876      4.381807
  C      -3.795280      0.167077      2.588021
  H      -2.805864      0.228803      2.080875
  H      -3.947963     -0.923450      2.778581
  C       1.840039      0.456326      2.196972
  H       0.844918      0.491383      1.689404
  H       2.077669     -0.624357      2.326401
  C       2.907015      1.110652      1.278500
  H       2.928912      0.535650      0.323863
  H       3.918998      0.987296      1.740328
  C       2.672199      2.614533      0.974974
  H       2.713639      3.196532      1.926121
  H       1.634967      2.754058      0.579803
  C       3.687651      3.239823     -0.023023
  H       4.728824      3.053562      0.341875
  H       3.560903      4.350310     -0.011830
  C       3.554207      2.741447     -1.484898
  H       2.502510      2.883035     -1.828749
  H       3.742391      1.644032     -1.542700
  C       4.509176      3.476764     -2.477149
  H       5.560055      3.349633     -2.117839
  H       4.297157      4.570628     -2.433331
  C       4.402486      2.955540     -3.902192
  H       4.944329      2.007796     -4.102051
  C       3.691041      3.495077     -4.924548
  H       3.707023      2.956899     -5.893817
  C       2.834756      4.751961     -4.874898
  H       2.984750      5.340063     -5.813850
  H       3.160668      5.413015     -4.039554
  C       1.305140      4.468732     -4.711237
  H       0.780056      5.442058     -4.549191
  H       1.146765      3.874970     -3.779293
  C       0.648650      3.736226     -5.908783
  H       1.161430      2.759604     -6.086864
  H       0.808776      4.337075     -6.838652
  C      -0.868750      3.479752     -5.714795
  H      -1.386122      4.448802     -5.502653
  H      -1.012010      2.854245     -4.801760
  C      -1.541566      2.796401     -6.934123
  H      -1.056343      1.804968     -7.113777
  H      -1.329245      3.403844     -7.847705
  C      -3.078854      2.601469     -6.810941
  H      -3.463216      2.177659     -7.771211
  H      -3.569052      3.601539     -6.703002
  C      -3.533902      1.687597     -5.641370
  H      -3.230672      2.141227     -4.668965
  H      -2.992992      0.711883     -5.701726
  C      -5.060748      1.431509     -5.623154
  H      -5.357931      0.790345     -4.760887
  H      -5.400226      0.921076     -6.555426
  H      -5.631962      2.386550     -5.542883
  C      -4.941474      0.734154      1.713645
  H      -4.813848      1.836845      1.598756
  H      -5.894673      0.609917      2.277289
  C      -5.074652      0.068929      0.308128
  H      -6.147935      0.097723      0.005267
  H      -4.812979     -1.016065      0.379379
  C      -4.251637      0.731803     -0.834220
  H      -4.582228      1.795032     -0.942327
  H      -4.521393      0.235199     -1.799220
  C      -2.709120      0.699959     -0.677144
  H      -2.406457      1.270150      0.233696
  H      -2.376852     -0.353018     -0.510016
  C      -1.964638      1.298199     -1.899520
  H      -2.179892      0.683918     -2.805894
  H      -2.380349      2.314204     -2.109720
  C      -0.419540      1.431962     -1.716525
  H      -0.234510      2.089726     -0.830061
  H      -0.003533      1.974173     -2.593151
  C       0.303603      0.110427     -1.509544
  H       0.035127     -0.436720     -0.584137
  C       1.223466     -0.461485     -2.327434
  H       1.635390     -1.447311     -2.024580
  C       1.761864      0.071455     -3.645194
  H       2.877032      0.098053     -3.591155
  H       1.445496      1.123708     -3.815691
  C       1.353334     -0.797949     -4.874859
  H       1.712739     -1.843223     -4.714949
  H       1.899864     -0.422545     -5.775016
  C      -0.170248     -0.793990     -5.158845
  H      -0.713822     -1.212656     -4.279713
  H      -0.514683      0.263770     -5.243223
  C      -0.586709     -1.548595     -6.453197
  H      -1.691804     -1.445547     -6.587428
  H      -0.126121     -1.035707     -7.333289
  C      -0.212887     -3.057527     -6.504755
  H       0.896718     -3.173106     -6.449897
  H      -0.503302     -3.462436     -7.505058
  C      -0.872606     -3.924960     -5.401913
  H      -0.588220     -3.541393     -4.391802
  H      -1.984686     -3.816227     -5.463536
  C      -0.498745     -5.427276     -5.489468
  H      -0.777133     -5.820107     -6.498632
  H       0.612378     -5.531946     -5.421218
  C      -1.169010     -6.292148     -4.393751
  H      -0.876683     -5.951003     -3.372426
  H      -2.281442     -6.232996     -4.455358
  H      -0.884517     -7.365880     -4.484014
138
Coordinates from ORCA-job /wrk/rja7/qm_final_3_replicates/qm_final_1.1/qm/1/freq E -2722.585855900889
  N       2.006622     -4.590560      8.866440
  C       2.745936     -3.482710      8.032082
  H       3.479404     -4.022833      7.391669
  H       3.260126     -2.838717      8.773697
  C       0.928388     -5.281813      8.037137
  H       1.382033     -5.676318      7.104439
  H       0.507517     -6.115477      8.636933
  H       0.143446     -4.536419      7.805910
  C       1.354078     -4.015444     10.142862
  H       2.079377     -3.343533     10.640606
  H       0.461610     -3.420191      9.874703
  H       1.077581     -4.875312     10.789566
  C       3.055876     -5.608934      9.292225
  H       3.833839     -5.086886      9.885684
  H       3.513000     -6.066209      8.390737
  H       2.573732     -6.393409      9.911715
  C       1.825611     -2.600921      7.150153
  H       2.487852     -1.789065      6.754799
  H       1.464021     -3.163365      6.256942
  P       0.914886     -0.869817      9.089256
  O       2.358474     -0.992641      9.576091
  O      -0.337052     -1.033936      9.939041
  O       0.688374     -2.112376      7.844859
  O       0.845127      0.523305      8.126614
  C      -0.444927      1.020852      7.727859
  H      -0.378707      2.135966      7.703166
  H      -1.228493      0.728885      8.468169
  C      -0.854555      0.502969      6.327605
  H      -0.769055     -0.603590      6.291279
  O       0.062702      1.091328      5.332374
  C       0.825079      0.268982      4.547119
  O       0.815401     -0.956130      4.586292
  C       1.717726      1.096413      3.604364
  H       2.727892      1.151679      4.083031
  H       1.336309      2.139126      3.559473
  C      -2.277434      0.940589      5.944036
  H      -2.367942      2.050073      5.891250
  H      -3.011534      0.573326      6.700478
  O      -2.583411      0.354601      4.639672
  C      -3.658686      0.868696      3.951492
  O      -4.387589      1.751870      4.380308
  C      -3.792289      0.171122      2.587414
  H      -2.802362      0.230841      2.080793
  H      -3.947123     -0.919092      2.778041
  C       1.841730      0.455441      2.196183
  H       0.846351      0.492494      1.689237
  H       2.077706     -0.625684      2.324954
  C       2.909207      1.108325      1.277248
  H       2.929205      0.533782      0.322306
  H       3.921375      0.982669      1.738066
  C       2.676884      2.612819      0.974975
  H       2.720412      3.194013      1.926524
  H       1.639493      2.754542      0.581115
  C       3.691748      3.237440     -0.024134
  H       4.733310      3.050264      0.339171
  H       3.565834      4.348020     -0.012158
  C       3.555676      2.740016     -1.486237
  H       2.503407      2.881393     -1.827878
  H       3.744107      1.642698     -1.545308
  C       4.507990      3.476984     -2.479881
  H       5.559622      3.351071     -2.122380
  H       4.294579      4.570551     -2.435403
  C       4.399366      2.956192     -3.904959
  H       4.941625      2.008978     -4.106075
  C       3.685567      3.495433     -4.925957
  H       3.700490      2.957601     -5.895444
  C       2.827518      4.751109     -4.874248
  H       2.975734      5.340180     -5.812872
  H       3.153334      5.411822     -4.038602
  C       1.298311      4.465721     -4.709579
  H       0.771992      5.438216     -4.546591
  H       1.141692      3.871105     -3.777887
  C       0.641968      3.732898     -5.907160
  H       1.155611      2.756858     -6.085638
  H       0.801148      4.334271     -6.836849
  C      -0.875343      3.474626     -5.713271
  H      -1.394044      4.443367     -5.502904
  H      -1.018309      2.850314     -4.799388
  C      -1.546487      2.788561     -6.932127
  H      -1.059337      1.797733     -7.110112
  H      -1.334489      3.395156     -7.846256
  C      -3.083628      2.591029     -6.810615
  H      -3.465668      2.165180     -7.770906
  H      -3.575942      3.590242     -6.704630
  C      -3.538888      1.677623     -5.640783
  H      -3.239823      2.133873     -4.668395
  H      -2.994528      0.703584     -5.698048
  C      -5.064918      1.416636     -5.626229
  H      -5.362317      0.775575     -4.763958
  H      -5.400381      0.904046     -6.558773
  H      -5.639463      2.369910     -5.548478
  C      -4.937161      0.740377      1.712710
  H      -4.807228      1.842753      1.597317
  H      -5.890576      0.618503      2.276501
  C      -5.071772      0.074940      0.307471
  H      -6.145169      0.104904      0.005129
  H      -4.811361     -1.010369      0.378739
  C      -4.249305      0.737020     -0.835532
  H      -4.580344      1.800041     -0.944298
  H      -4.519222      0.239398     -1.799964
  C      -2.706805      0.706260     -0.678802
  H      -2.404210      1.277157      0.231639
  H      -2.373701     -0.346362     -0.511071
  C      -1.963098      1.304413     -1.901589
  H      -2.177703      0.689392     -2.807612
  H      -2.379774      2.319862     -2.112344
  C      -0.418257      1.440146     -1.718130
  H      -0.234808      2.100119     -0.832992
  H      -0.001940      1.980775     -2.595562
  C       0.305770      0.119705     -1.507499
  H       0.037606     -0.425077     -0.580632
  C       1.226695     -0.453594     -2.323290
  H       1.639543     -1.438071     -2.017244
  C       1.766144      0.076253     -3.641844
  H       2.881330      0.100889     -3.587680
  H       1.451860      1.128718     -3.814239
  C       1.356692     -0.794593     -4.870214
  H       1.714952     -1.839980     -4.708601
  H       1.903827     -0.421201     -5.770787
  C      -0.166791     -0.789710     -5.154629
  H      -0.710826     -1.207573     -4.275402
  H      -0.510748      0.268186     -5.239765
  C      -0.582964     -1.545001     -6.448733
  H      -1.687952     -1.441667     -6.583601
  H      -0.121732     -1.032914     -7.328929
  C      -0.209279     -3.054051     -6.499089
  H       0.900297     -3.169489     -6.443407
  H      -0.499046     -3.459708     -7.499285
  C      -0.869381     -3.920700     -5.395913
  H      -0.586204     -3.535727     -4.385982
  H      -1.981491     -3.812934     -5.458600
  C      -0.493984     -5.422785     -5.481276
  H      -0.771189     -5.817111     -6.490197
  H       0.617186     -5.526230     -5.412016
  C      -1.164158     -6.286921     -4.384952
  H      -0.873502     -5.943668     -3.363850
  H      -2.276605     -6.229614     -4.447885
  H      -0.877900     -7.360361     -4.473110
138
Coordinates from ORCA-job /wrk/rja7/qm_final_3_replicates/qm_final_1.1/qm/1/freq E -2722.585857098739
  N       2.007980     -4.591174      8.864702
  C       2.746513     -3.482516      8.030651
  H       3.480092     -4.022123      7.389920
  H       3.260502     -2.838665      8.772506
  C       0.930306     -5.283088      8.035287
  H       1.384230     -5.676664      7.102336
  H       0.510344     -6.117423      8.634778
  H       0.144509     -4.538465      7.804491
  C       1.355250     -4.017049     10.141486
  H       2.080066     -3.344465     10.639049
  H       0.462023     -3.422805      9.873713
  H       1.080007     -4.877380     10.788112
  C       3.058086     -5.608859      9.290037
  H       3.835705     -5.086391      9.883582
  H       3.515444     -6.065524      8.388365
  H       2.576595     -6.393865      9.909378
  C       1.825787     -2.600522      7.149281
  H       2.487691     -1.788106      6.754548
  H       1.464445     -3.162478      6.255677
  P       0.914718     -0.870648      9.089174
  O       2.358445     -0.993433      9.575540
  O      -0.336934     -1.035348      9.939217
  O       0.688301     -2.112787      7.844249
  O       0.844499      0.522879      8.127112
  C      -0.445471      1.020626      7.728297
  H      -0.379136      2.135739      7.703963
  H      -1.229131      0.728438      8.468417
  C      -0.854888      0.503235      6.327782
  H      -0.768954     -0.603272      6.291013
  O       0.062305      1.092539      5.332921
  C       0.825997      0.270967      4.548104
  O       0.817616     -0.954148      4.587493
  C       1.718853      1.098973      3.605959
  H       2.729180      1.153252      4.084361
  H       1.337968      2.141892      3.561860
  C      -2.277989      0.940588      5.944566
  H      -2.368639      2.050070      5.891788
  H      -3.011857      0.573346      6.701262
  O      -2.584579      0.354561      4.640382
  C      -3.659715      0.869487      3.952538
  O      -4.387996      1.752943      4.381801
  C      -3.793655      0.172807      2.588030
  H      -2.803865      0.233093      2.081392
  H      -3.948240     -0.917571      2.777912
  C       1.842314      0.458830      2.197244
  H       0.846815      0.496713      1.690628
  H       2.077800     -0.622450      2.325526
  C       2.910185      1.111164      1.278231
  H       2.929408      0.536542      0.323315
  H       3.922287      0.984395      1.738907
  C       2.679405      2.615852      0.975739
  H       2.723786      3.197289      1.927091
  H       1.642118      2.758822      0.582008
  C       3.694413      3.239041     -0.023994
  H       4.736048      3.051420      0.338854
  H       3.569209      4.349711     -0.012516
  C       3.557038      2.740982     -1.485762
  H       2.504157      2.881060     -1.826048
  H       3.746598      1.643843     -1.544786
  C       4.507031      3.478960     -2.480726
  H       5.559245      3.355789     -2.123917
  H       4.291241      4.572081     -2.437291
  C       4.398476      2.956463     -3.905100
  H       4.940372      2.008765     -4.104968
  C       3.684705      3.494477     -4.926675
  H       3.699335      2.955423     -5.895483
  C       2.826542      4.750124     -4.876409
  H       2.974507      5.337766     -5.815958
  H       3.152508      5.412082     -4.041819
  C       1.297421      4.464626     -4.711086
  H       0.770870      5.437240     -4.549602
  H       1.140816      3.871323     -3.778459
  C       0.641650      3.729749     -5.907639
  H       1.154855      2.753054     -6.083790
  H       0.801722      4.329234     -6.838387
  C      -0.875928      3.472651     -5.714605
  H      -1.394252      4.442293     -5.507387
  H      -1.020465      2.850878     -4.799212
  C      -1.545803      2.784099     -6.932657
  H      -1.057425      1.793535     -7.109009
  H      -1.333679      3.389455     -7.847528
  C      -3.082890      2.585365     -6.812157
  H      -3.463517      2.158209     -7.772427
  H      -3.576410      3.584094     -6.707501
  C      -3.538268      1.672292     -5.642103
  H      -3.241587      2.130089     -4.669765
  H      -2.991869      0.699341     -5.697648
  C      -5.063801      1.408492     -5.629532
  H      -5.361234      0.767136     -4.767491
  H      -5.397119      0.895125     -6.562421
  H      -5.640321      2.360682     -5.552708
  C      -4.938531      0.742825      1.713874
  H      -4.808036      1.845180      1.598831
  H      -5.891854      0.621263      2.277887
  C      -5.073709      0.078189      0.308337
  H      -6.147147      0.108999      0.006231
  H      -4.813950     -1.007327      0.378977
  C      -4.250973      0.740194     -0.834505
  H      -4.581558      1.803378     -0.942999
  H      -4.521014      0.242802     -1.799023
  C      -2.708494      0.708580     -0.677577
  H      -2.405765      1.278701      0.233250
  H      -2.376022     -0.344324     -0.510355
  C      -1.963759      1.306912     -1.899664
  H      -2.177731      0.692191     -2.806005
  H      -2.379869      2.322541     -2.110623
  C      -0.419086      1.442201     -1.714392
  H      -0.236729      2.102984     -0.829626
  H      -0.001290      1.981804     -2.591732
  C       0.303836      0.121583     -1.501361
  H       0.034600     -0.421563     -0.573869
  C       1.225587     -0.453179     -2.315184
  H       1.637847     -1.437293     -2.007174
  C       1.767600      0.075190     -3.633325
  H       2.882738      0.098734     -3.577518
  H       1.454630      1.127841     -3.806617
  C       1.359385     -0.795915     -4.861899
  H       1.716973     -1.841428     -4.699488
  H       1.908147     -0.423101     -5.761755
  C      -0.163526     -0.790196     -5.149231
  H      -0.709649     -1.209664     -4.272087
  H      -0.506988      0.267962     -5.232887
  C      -0.577118     -1.542386     -6.446025
  H      -1.681621     -1.437613     -6.583653
  H      -0.113187     -1.028664     -7.323853
  C      -0.205272     -3.051793     -6.498745
  H       0.903929     -3.169083     -6.439551
  H      -0.492188     -3.454626     -7.500906
  C      -0.870864     -3.920142     -5.400154
  H      -0.589906     -3.538853     -4.388214
  H      -1.982493     -3.809497     -5.466090
  C      -0.498894     -5.422922     -5.488579
  H      -0.773525     -5.813692     -6.499594
  H       0.611766     -5.529366     -5.415710
  C      -1.175173     -6.288542     -4.397158
  H      -0.888005     -5.948403     -3.374029
  H      -2.287240     -6.228950     -4.464413
  H      -0.890589     -7.362304     -4.486822
138
Coordinates from ORCA-job /wrk/rja7/qm_final_3_replicates/qm_final_1.1/qm/1/freq E -2722.585858186425
  N       2.005379     -4.592946      8.866847
  C       2.744679     -3.485223      8.032237
  H       3.477762     -4.025660      7.391634
  H       3.259306     -2.841451      8.773730
  C       0.927048     -5.284175      8.037788
  H       1.380568     -5.678653      7.105012
  H       0.506192     -6.117785      8.637671
  H       0.141988     -4.538875      7.806641
  C       1.353265     -4.017793     10.143480
  H       2.078816     -3.345815     10.640797
  H       0.460613     -3.422693      9.875631
  H       1.077221     -4.877660     10.790387
  C       3.054692     -5.611358      9.292440
  H       3.832674     -5.089345      9.885911
  H       3.511757     -6.068552      8.390884
  H       2.572564     -6.395862      9.911922
  C       1.824482     -2.603042      7.150548
  H       2.486926     -1.791364      6.755200
  H       1.462575     -3.165279      6.257340
  P       0.914751     -0.871766      9.089922
  O       2.358395     -0.995263      9.576356
  O      -0.337027     -1.035476      9.939995
  O       0.687440     -2.114104      7.845347
  O       0.845343      0.521450      8.127437
  C      -0.444397      1.019680      7.728708
  H      -0.377879      2.134800      7.704821
  H      -1.228227      0.727406      8.468624
  C      -0.853760      0.502872      6.327969
  H      -0.768246     -0.603666      6.290926
  O       0.063756      1.092051      5.333346
  C       0.827648      0.270500      4.548691
  O       0.819197     -0.954614      4.587948
  C       1.720448      1.098581      3.606570
  H       2.731307      1.151371      4.084000
  H       1.340499      2.141888      3.563729
  C      -2.276593      0.940865      5.944577
  H      -2.366829      2.050394      5.892226
  H      -3.010804      0.573578      6.700925
  O      -2.582984      0.355430      4.640090
  C      -3.657285      0.871363      3.951736
  O      -4.385421      1.754948      4.380984
  C      -3.791019      0.175061      2.586988
  H      -2.800917      0.234894      2.080844
  H      -3.946377     -0.915270      2.776474
  C       1.841822      0.459610      2.197103
  H       0.845879      0.499233      1.691534
  H       2.076211     -0.622052      2.324132
  C       2.909358      1.111686      1.277556
  H       2.926948      0.537871      0.322129
  H       3.921862      0.983511      1.736969
  C       2.679582      2.616867      0.976917
  H       2.725514      3.197165      1.928896
  H       1.642012      2.761228      0.584514
  C       3.693902      3.240392     -0.023339
  H       4.735793      3.052636      0.338718
  H       3.568760      4.351066     -0.011413
  C       3.555478      2.742776     -1.485180
  H       2.502201      2.882423     -1.824556
  H       3.745499      1.645750     -1.544694
  C       4.504150      3.481454     -2.480916
  H       5.556702      3.359801     -2.124563
  H       4.287035      4.574323     -2.437984
  C       4.395466      2.957807     -3.904885
  H       4.937420      2.009943     -4.103786
  C       3.681539      3.494673     -4.926996
  H       3.696161      2.954585     -5.895231
  C       2.823233      4.750303     -4.878140
  H       2.971589      5.337046     -5.818193
  H       3.148795      5.413060     -4.044026
  C       1.294060      4.465101     -4.713013
  H       0.767701      5.438005     -4.552625
  H       1.137117      3.872791     -3.779843
  C       0.638081      3.729153     -5.908860
  H       1.151521      2.752475     -6.084431
  H       0.797669      4.327920     -6.840143
  C      -0.879418      3.471902     -5.714970
  H      -1.397545      4.441773     -5.508262
  H      -1.023573      2.850958     -4.798933
  C      -1.549963      2.782480     -6.932149
  H      -1.061369      1.792019     -7.108467
  H      -1.338849      3.387424     -7.847589
  C      -3.086902      2.583243     -6.810681
  H      -3.467638      2.154802     -7.770341
  H      -3.580871      3.581850     -6.706991
  C      -3.541462      1.671205     -5.639458
  H      -3.244772      2.130233     -4.667701
  H      -2.994481      0.698518     -5.694145
  C      -5.066828      1.406602     -5.626176
  H      -5.363734      0.765888     -4.763482
  H      -5.400092      0.892222     -6.558534
  H      -5.643892      2.358526     -5.550195
  C      -4.934986      0.746276      1.712426
  H      -4.803117      1.848469      1.597408
  H      -5.888623      0.625863      2.276140
  C      -5.070367      0.081929      0.306743
  H      -6.143795      0.113140      0.004628
  H      -4.810990     -1.003702      0.377001
  C      -4.247285      0.743991     -0.835802
  H      -4.577281      1.807395     -0.943893
  H      -4.517478      0.247092     -1.800529
  C      -2.704844      0.711289     -0.678737
  H      -2.401828      1.281232      0.232125
  H      -2.373219     -0.341855     -0.511389
  C      -1.959550      1.308931     -1.900792
  H      -2.174244      0.694541     -2.807200
  H      -2.374714      2.324990     -2.111560
  C      -0.414588      1.442521     -1.715877
  H      -0.231261      2.103139     -0.831205
  H       0.003515      1.981676     -2.593372
  C       0.306931      0.121124     -1.503159
  H       0.037014     -0.421952     -0.575817
  C       1.228021     -0.454595     -2.317024
  H       1.638848     -1.439357     -2.009147
  C       1.770909      0.073151     -3.635074
  H       2.886087      0.094773     -3.579268
  H       1.459644      1.126388     -3.808212
  C       1.361322     -0.797208     -4.863674
  H       1.718463     -1.842967     -4.701940
  H       1.909518     -0.424329     -5.763849
  C      -0.161797     -0.790697     -5.149927
  H      -0.707479     -1.210500     -4.272670
  H      -0.505113      0.267573     -5.232671
  C      -0.576224     -1.542320     -6.446797
  H      -1.680761     -1.437400     -6.583924
  H      -0.112663     -1.028331     -7.324666
  C      -0.204383     -3.051719     -6.500087
  H       0.904857     -3.168956     -6.441509
  H      -0.491796     -3.454463     -7.502143
  C      -0.869163     -3.920248     -5.401149
  H      -0.588133     -3.538546     -4.389382
  H      -1.980879     -3.810309     -5.466794
  C      -0.496212     -5.422816     -5.489192
  H      -0.770485     -5.814082     -6.500111
  H       0.614519     -5.528461     -5.416243
  C      -1.171922     -6.288554     -4.397520
  H      -0.885500     -5.947500     -3.374483
  H      -2.284033     -6.230237     -4.465189
  H      -0.886135     -7.362064     -4.486404
138
Coordinates from ORCA-job /wrk/rja7/qm_final_3_replicates/qm_final_1.1/qm/1/freq E -2722.585858678718
  N       2.003678     -4.593758      8.866193
  C       2.743468     -3.486297      8.031695
  H       3.476112     -4.026975      7.390799
  H       3.258606     -2.842941      8.773206
  C       0.924881     -5.284175      8.037090
  H       1.378059     -5.678840      7.104229
  H       0.503455     -6.117562      8.636890
  H       0.140293     -4.538328      7.806082
  C       1.351949     -4.018390     10.142926
  H       2.078027     -3.347115     10.640417
  H       0.459796     -3.422468      9.875201
  H       1.075180     -4.878166     10.789643
  C       3.052426     -5.612844      9.291578
  H       3.830605     -5.091412      9.885300
  H       3.509371     -6.069963      8.389925
  H       2.569841     -6.397304      9.910757
  C       1.823576     -2.603506      7.150327
  H       2.486421     -1.792253      6.754782
  H       1.461115     -3.165537      6.257204
  P       0.915172     -0.872003      9.090183
  O       2.358920     -0.996062      9.576181
  O      -0.336405     -1.035525      9.940630
  O       0.686986     -2.113941      7.845385
  O       0.845922      0.521451      8.128135
  C      -0.443735      1.020090      7.729697
  H      -0.377163      2.135229      7.706519
  H      -1.227651      0.727468      8.469390
  C      -0.853178      0.504093      6.328699
  H      -0.767838     -0.602449      6.291188
  O       0.064315      1.093499      5.334235
  C       0.828761      0.272099      4.550016
  O       0.820679     -0.953013      4.589432
  C       1.721434      1.100262      3.607898
  H       2.732798      1.151603      4.084385
  H       1.342371      2.143936      3.566181
  C      -2.275810      0.942518      5.945241
  H      -2.365514      2.052064      5.892439
  H      -3.010192      0.575883      6.701727
  O      -2.582356      0.356663      4.640978
  C      -3.656189      0.872828      3.952125
  O      -4.383821      1.757177      4.380663
  C      -3.790066      0.175860      2.587717
  H      -2.799797      0.234700      2.081670
  H      -3.946260     -0.914242      2.777791
  C       1.840853      0.462253      2.197789
  H       0.844496      0.503408      1.693127
  H       2.074271     -0.619736      2.323796
  C       2.908228      1.113961      1.277895
  H       2.924812      0.540482      0.322257
  H       3.920949      0.984916      1.736594
  C       2.679208      2.619378      0.978092
  H       2.726130      3.199237      1.930296
  H       1.641439      2.764657      0.586420
  C       3.693321      3.242612     -0.022588
  H       4.735286      3.055179      0.339438
  H       3.568046      4.353277     -0.011236
  C       3.554907      2.744057     -1.484104
  H       2.501447      2.882590     -1.823325
  H       3.745786      1.647157     -1.543018
  C       4.502538      3.482880     -2.480738
  H       5.555301      3.363163     -2.124360
  H       4.283898      4.575494     -2.439141
  C       4.394024      2.957134     -3.903919
  H       4.936135      2.008997     -4.101130
  C       3.680241      3.492320     -4.927001
  H       3.695052      2.950684     -5.894367
  C       2.822102      4.748212     -4.880545
  H       2.971269      5.333334     -5.821485
  H       3.147318      5.412265     -4.047330
  C       1.292689      4.464140     -4.715728
  H       0.767002      5.437719     -4.557122
  H       1.134667      3.873492     -3.781649
  C       0.636492      3.726856     -5.910652
  H       1.150133      2.750097     -6.085239
  H       0.795864      4.324463     -6.842712
  C      -0.880986      3.469889     -5.716176
  H      -1.398772      4.440124     -5.510232
  H      -1.025184      2.849981     -4.799507
  C      -1.551925      2.779405     -6.932412
  H      -1.063556      1.788771     -7.108236
  H      -1.341297      3.383505     -7.848476
  C      -3.088738      2.580472     -6.809891
  H      -3.470073      2.150593     -7.768672
  H      -3.582555      3.579299     -6.707504
  C      -3.542558      1.670292     -5.636942
  H      -3.245257      2.130952     -4.666085
  H      -2.995539      0.697564     -5.690506
  C      -5.067921      1.405816     -5.622287
  H      -5.364466      0.766723     -4.758278
  H      -5.401722      0.889747     -6.553535
  H      -5.644881      2.357919     -5.547920
  C      -4.933368      0.747620      1.712667
  H      -4.800504      1.849646      1.597272
  H      -5.887254      0.628209      2.276167
  C      -5.068925      0.082971      0.307124
  H      -6.142357      0.114329      0.005025
  H      -4.809748     -1.002701      0.377362
  C      -4.245556      0.744726     -0.835371
  H      -4.575297      1.808176     -0.943767
  H      -4.515598      0.247710     -1.800085
  C      -2.703156      0.711403     -0.677983
  H      -2.400031      1.281541      0.232767
  H      -2.372105     -0.341851     -0.510207
  C      -1.957410      1.308237     -1.900159
  H      -2.172395      0.693703     -2.806413
  H      -2.372004      2.324459     -2.111252
  C      -0.412393      1.440979     -1.715402
  H      -0.228446      2.101777     -0.831004
  H       0.005804      1.979661     -2.593174
  C       0.308291      0.119127     -1.502675
  H       0.037337     -0.424187     -0.575759
  C       1.229526     -0.456946     -2.316146
  H       1.639237     -1.442227     -2.008433
  C       1.773507      0.070981     -3.633653
  H       2.888704      0.091219     -3.577406
  H       1.463592      1.124646     -3.806220
  C       1.363219     -0.797944     -4.863005
  H       1.719992     -1.844026     -4.702664
  H       1.911091     -0.424235     -5.763053
  C      -0.160113     -0.790529     -5.148314
  H      -0.705249     -1.211546     -4.271290
  H      -0.503345      0.267900     -5.229139
  C      -0.575503     -1.540179     -6.445991
  H      -1.680046     -1.434532     -6.582625
  H      -0.111910     -1.025240     -7.323287
  C      -0.204119     -3.049560     -6.501547
  H       0.905100     -3.167107     -6.443362
  H      -0.491854     -3.450879     -7.504081
  C      -0.868702     -3.919460     -5.403663
  H      -0.587959     -3.538756     -4.391438
  H      -1.980461     -3.809965     -5.469316
  C      -0.495028     -5.421701     -5.493359
  H      -0.768880     -5.812009     -6.504756
  H       0.615744     -5.526850     -5.420313
  C      -1.170577     -6.288851     -4.402790
  H      -0.884999     -5.948363     -3.379327
  H      -2.282701     -6.231400     -4.471028
  H      -0.883864     -7.362059     -4.492335
138
Coordinates from ORCA-job /wrk/rja7/qm_final_3_replicates/qm_final_1.1/qm/1/freq E -2722.585858876995
  N       2.003202     -4.594928      8.868904
  C       2.743342     -3.488007      8.033995
  H       3.476065     -4.029064      7.393501
  H       3.258410     -2.844365      8.775295
  C       0.924145     -5.285333      8.040123
  H       1.377097     -5.680543      7.107382
  H       0.502460     -6.118322      8.640291
  H       0.139814     -4.539290      7.808893
  C       1.351602     -4.018863     10.145391
  H       2.077838     -3.347629     10.642700
  H       0.459633     -3.422772      9.877420
  H       1.074571     -4.878326     10.792405
  C       3.051618     -5.614164      9.294707
  H       3.829913     -5.092735      9.888277
  H       3.508464     -6.071735      8.393234
  H       2.568747     -6.398243      9.914137
  C       1.823788     -2.605507      7.151961
  H       2.486861     -1.794634      6.756033
  H       1.461369     -3.167972      6.259095
  P       0.915590     -0.872895      9.090886
  O       2.359233     -0.997145      9.577121
  O      -0.336137     -1.035759      9.941249
  O       0.687198     -2.115305      7.846567
  O       0.846800      0.520206      8.128271
  C      -0.442735      1.018947      7.729579
  H      -0.376135      2.134089      7.706490
  H      -1.226822      0.726350      8.469099
  C      -0.852035      0.503058      6.328501
  H      -0.766615     -0.603480      6.290913
  O       0.065451      1.092613      5.334097
  C       0.830662      0.271536      4.550277
  O       0.823182     -0.953581      4.589742
  C       1.723058      1.100080      3.608213
  H       2.734748      1.150779      4.084054
  H       1.344225      2.143861      3.567321
  C      -2.274717      0.941419      5.945125
  H      -2.364390      2.050977      5.892420
  H      -3.009064      0.574765      6.701629
  O      -2.581533      0.355706      4.640848
  C      -3.655436      0.872158      3.952278
  O      -4.382826      1.756561      4.381120
  C      -3.789778      0.175383      2.587821
  H      -2.799758      0.234581      2.081416
  H      -3.945598     -0.914790      2.777761
  C       1.841437      0.462873      2.197619
  H       0.844751      0.504518      1.693694
  H       2.074770     -0.619222      2.322860
  C       2.908175      1.114992      1.277231
  H       2.924246      0.541758      0.321441
  H       3.921211      0.986067      1.735271
  C       2.678717      2.620472      0.978015
  H       2.725719      3.199944      1.930452
  H       1.640864      2.765641      0.586659
  C       3.692349      3.244395     -0.022725
  H       4.734464      3.057314      0.339065
  H       3.566665      4.355006     -0.011174
  C       3.553827      2.745982     -1.484277
  H       2.500217      2.884085     -1.823320
  H       3.745172      1.649167     -1.543264
  C       4.500925      3.485170     -2.481167
  H       5.553769      3.366671     -2.124584
  H       4.281279      4.577600     -2.440185
  C       4.393154      2.958364     -3.904013
  H       4.934949      2.009783     -4.099933
  C       3.680350      3.492926     -4.928109
  H       3.695571      2.950407     -5.894973
  C       2.822676      4.749204     -4.883527
  H       2.972539      5.333130     -5.825097
  H       3.147716      5.414183     -4.050976
  C       1.293121      4.465887     -4.719045
  H       0.767711      5.439927     -4.562291
  H       1.134359      3.876925     -3.784046
  C       0.636994      3.727013     -5.913015
  H       1.150628      2.750009     -6.086349
  H       0.796549      4.323295     -6.845899
  C      -0.880490      3.470406     -5.718231
  H      -1.398060      4.440885     -5.512875
  H      -1.024592      2.851218     -4.801004
  C      -1.551847      2.779347     -6.933912
  H      -1.063517      1.788658     -7.109530
  H      -1.341606      3.383119     -7.850358
  C      -3.088661      2.580426     -6.810900
  H      -3.470334      2.150688     -7.769611
  H      -3.582363      3.579284     -6.708264
  C      -3.542314      1.670243     -5.637851
  H      -3.244613      2.130734     -4.667069
  H      -2.995541      0.697396     -5.691718
  C      -5.067725      1.406056     -5.622793
  H      -5.364196      0.767070     -4.758682
  H      -5.401861      0.889992     -6.553927
  H      -5.644486      2.358280     -5.548385
  C      -4.933462      0.747064      1.713193
  H      -4.801055      1.849189      1.598294
  H      -5.887246      0.626979      2.276732
  C      -5.068903      0.082964      0.307360
  H      -6.142388      0.113949      0.005421
  H      -4.809213     -1.002622      0.377021
  C      -4.245896      0.745525     -0.834988
  H      -4.576053      1.808873     -0.943087
  H      -4.515800      0.248712     -1.799852
  C      -2.703471      0.712658     -0.677642
  H      -2.400566      1.283128      0.232958
  H      -2.372220     -0.340490     -0.509604
  C      -1.957740      1.309239     -1.899962
  H      -2.172777      0.694472     -2.806050
  H      -2.372346      2.325420     -2.111264
  C      -0.412653      1.441780     -1.715338
  H      -0.228411      2.102524     -0.830958
  H       0.005605      1.980361     -2.593151
  C       0.307697      0.119776     -1.502582
  H       0.036524     -0.423377     -0.575635
  C       1.228692     -0.456755     -2.315990
  H       1.637908     -1.442180     -2.008096
  C       1.773166      0.070761     -3.633482
  H       2.888351      0.090578     -3.576844
  H       1.463625      1.124548     -3.806359
  C       1.363033     -0.798296     -4.862799
  H       1.719887     -1.844327     -4.702292
  H       1.910992     -0.424610     -5.762791
  C      -0.160240     -0.790926     -5.148446
  H      -0.705521     -1.212329     -4.271705
  H      -0.503601      0.267486     -5.228898
  C      -0.575185     -1.540352     -6.446397
  H      -1.679641     -1.434739     -6.583484
  H      -0.111260     -1.025212     -7.323418
  C      -0.203787     -3.049754     -6.501914
  H       0.905407     -3.167340     -6.443373
  H      -0.491225     -3.451045     -7.504541
  C      -0.868744     -3.919700     -5.404205
  H      -0.588122     -3.539116     -4.391909
  H      -1.980467     -3.809954     -5.470078
  C      -0.495424     -5.422058     -5.493903
  H      -0.769178     -5.812237     -6.505375
  H       0.615310     -5.527489     -5.420654
  C      -1.171403     -6.289206     -4.403542
  H      -0.886306     -5.948609     -3.379981
  H      -2.283500     -6.231838     -4.472277
  H      -0.884565     -7.362397     -4.492881
138
Coordinates from ORCA-job /wrk/rja7/qm_final_3_replicates/qm_final_1.1/qm/1/freq E -2722.585859001234
  N       2.003292     -4.595198      8.868010
  C       2.743163     -3.488130      8.033074
  H       3.475828     -4.029037      7.392388
  H       3.258277     -2.844495      8.774345
  C       0.923964     -5.285500      8.039466
  H       1.376604     -5.680508      7.106489
  H       0.502545     -6.118633      8.639619
  H       0.139525     -4.539442      7.808658
  C       1.352055     -4.019327     10.144777
  H       2.078392     -3.348122     10.641979
  H       0.459989     -3.423234      9.877137
  H       1.075238     -4.878890     10.791744
  C       3.051838     -5.614493      9.293334
  H       3.830349     -5.093149      9.886694
  H       3.508362     -6.071962      8.391646
  H       2.569175     -6.398641      9.912836
  C       1.823384     -2.605607      7.151276
  H       2.486335     -1.794654      6.755317
  H       1.460874     -3.168011      6.258405
  P       0.915430     -0.873208      9.090451
  O       2.359178     -0.997469      9.576385
  O      -0.336123     -1.036154      9.941064
  O       0.686860     -2.115576      7.846115
  O       0.846435      0.520020      8.128012
  C      -0.443143      1.018714      7.729373
  H      -0.376629      2.133865      7.706546
  H      -1.227225      0.725872      8.468801
  C      -0.852366      0.503133      6.328164
  H      -0.766921     -0.603394      6.290305
  O       0.065148      1.092943      5.333923
  C       0.830749      0.272026      4.550325
  O       0.823432     -0.953098      4.589757
  C       1.723285      1.100634      3.608452
  H       2.735094      1.150714      4.084089
  H       1.344843      2.144570      3.567987
  C      -2.275041      0.941587      5.944873
  H      -2.364616      2.051155      5.892199
  H      -3.009397      0.574986      6.701393
  O      -2.581991      0.355972      4.640572
  C      -3.655767      0.872783      3.952033
  O      -4.382756      1.757532      4.380836
  C      -3.790513      0.175918      2.587678
  H      -2.800521      0.234547      2.081184
  H      -3.946861     -0.914151      2.777795
  C       1.841176      0.463820      2.197617
  H       0.844425      0.505990      1.693888
  H       2.074118     -0.618396      2.322526
  C       2.908056      1.115735      1.277237
  H       2.923993      0.542494      0.321454
  H       3.921059      0.986572      1.735284
  C       2.679045      2.621294      0.977977
  H       2.726167      3.200802      1.930386
  H       1.641260      2.766786      0.586530
  C       3.692885      3.244785     -0.022789
  H       4.734954      3.057312      0.338929
  H       3.567648      4.355446     -0.011302
  C       3.553906      2.746326     -1.484260
  H       2.500262      2.884814     -1.823089
  H       3.744832      1.649435     -1.543180
  C       4.501060      3.485004     -2.481465
  H       5.553935      3.366306     -2.125029
  H       4.281738      4.577505     -2.440710
  C       4.392876      2.957808     -3.904114
  H       4.934356      2.009008     -4.099862
  C       3.679983      3.492241     -4.928185
  H       3.694847      2.949454     -5.894905
  C       2.822552      4.748671     -4.883780
  H       2.972313      5.332281     -5.825559
  H       3.147855      5.413885     -4.051522
  C       1.293011      4.465590     -4.718972
  H       0.767687      5.439770     -4.562748
  H       1.134162      3.877230     -3.783594
  C       0.636834      3.726100     -5.912484
  H       1.150418      2.748991     -6.085396
  H       0.796428      4.321885     -6.845688
  C      -0.880631      3.469641     -5.717635
  H      -1.398199      4.440108     -5.512233
  H      -1.024700      2.850412     -4.800426
  C      -1.551950      2.778644     -6.933353
  H      -1.063603      1.787975     -7.109054
  H      -1.341678      3.382503     -7.849691
  C      -3.088756      2.579714     -6.810246
  H      -3.470659      2.150442     -7.769068
  H      -3.582377      3.578556     -6.707055
  C      -3.542186      1.669044     -5.637511
  H      -3.244446      2.129242     -4.666610
  H      -2.995299      0.696294     -5.691773
  C      -5.067565      1.404654     -5.622414
  H      -5.363889      0.765493     -4.758381
  H      -5.401726      0.888692     -6.553591
  H      -5.644416      2.356809     -5.547766
  C      -4.934011      0.747936      1.713027
  H      -4.801493      1.850069      1.598359
  H      -5.887900      0.627832      2.276388
  C      -5.069347      0.084040      0.307093
  H      -6.142743      0.115413      0.004886
  H      -4.809983     -1.001625      0.376722
  C      -4.245900      0.746405     -0.835052
  H      -4.575635      1.809888     -0.943107
  H      -4.515889      0.249782     -1.799991
  C      -2.703496      0.712992     -0.677559
  H      -2.400455      1.283244      0.233120
  H      -2.372599     -0.340288     -0.509676
  C      -1.957539      1.309486     -1.899805
  H      -2.172646      0.694732     -2.805877
  H      -2.371950      2.325744     -2.111126
  C      -0.412459      1.441861     -1.715149
  H      -0.228128      2.102627     -0.830801
  H       0.005846      1.980343     -2.592986
  C       0.307785      0.119821     -1.502165
  H       0.036418     -0.423226     -0.575221
  C       1.228996     -0.456762     -2.315298
  H       1.638217     -1.442116     -2.007191
  C       1.773675      0.070705     -3.632707
  H       2.888859      0.090297     -3.575944
  H       1.464408      1.124546     -3.805536
  C       1.363484     -0.798163     -4.862154
  H       1.720321     -1.844227     -4.701820
  H       1.911464     -0.424316     -5.762071
  C      -0.159822     -0.790796     -5.147618
  H      -0.704893     -1.212401     -4.270847
  H      -0.503216      0.267619     -5.227806
  C      -0.575010     -1.539996     -6.445608
  H      -1.679485     -1.434294     -6.582508
  H      -0.111157     -1.024774     -7.322617
  C      -0.203643     -3.049389     -6.501396
  H       0.905555     -3.166975     -6.442949
  H      -0.491167     -3.450500     -7.504068
  C      -0.868519     -3.919516     -5.403790
  H      -0.587832     -3.539122     -4.391443
  H      -1.980248     -3.809741     -5.469559
  C      -0.495223     -5.421847     -5.493841
  H      -0.769126     -5.811794     -6.505364
  H       0.615516     -5.527318     -5.420751
  C      -1.171119     -6.289215     -4.403610
  H      -0.886010     -5.948773     -3.380001
  H      -2.283218     -6.231890     -4.472317
  H      -0.884216     -7.362369     -4.493162
138
Coordinates from ORCA-job /wrk/rja7/qm_final_3_replicates/qm_final_1.1/qm/1/freq E -2722.585859069007
  N       2.003162     -4.595376      8.867833
  C       2.743169     -3.488421      8.032874
  H       3.475764     -4.029398      7.392166
  H       3.258351     -2.844835      8.774138
  C       0.923575     -5.285458      8.039414
  H       1.375997     -5.680555      7.106368
  H       0.502109     -6.118530      8.639617
  H       0.139271     -4.539216      7.808749
  C       1.352131     -4.019410     10.144659
  H       2.078573     -3.348295     10.641831
  H       0.460132     -3.423184      9.877086
  H       1.075227     -4.878942     10.791630
  C       3.051540     -5.614888      9.293027
  H       3.830313     -5.093683      9.886167
  H       3.507745     -6.072563      8.391281
  H       2.568820     -6.398863      9.912705
  C       1.823469     -2.605783      7.151103
  H       2.486466     -1.794874      6.755145
  H       1.460931     -3.168138      6.258208
  P       0.915652     -0.873362      9.090312
  O       2.359382     -0.997794      9.576256
  O      -0.335921     -1.036174      9.940923
  O       0.686975     -2.115723      7.845977
  O       0.846832      0.519922      8.127912
  C      -0.442715      1.018735      7.729269
  H      -0.376077      2.133877      7.706447
  H      -1.226803      0.725940      8.468704
  C      -0.851992      0.503224      6.328048
  H      -0.766673     -0.603310      6.290134
  O       0.065544      1.092967      5.333797
  C       0.831264      0.271986      4.550398
  O       0.824003     -0.953136      4.589994
  C       1.723878      1.100470      3.608505
  H       2.735904      1.149802      4.083746
  H       1.345974      2.144617      3.568524
  C      -2.274596      0.941876      5.944795
  H      -2.363986      2.051449      5.891950
  H      -3.008957      0.575527      6.701429
  O      -2.581742      0.356097      4.640602
  C      -3.655613      0.872894      3.952190
  O      -4.382325      1.757904      4.380921
  C      -3.790912      0.175632      2.588105
  H      -2.801039      0.233742      2.081269
  H      -3.947553     -0.914332      2.778599
  C       1.840924      0.464053      2.197409
  H       0.844001      0.506845      1.694025
  H       2.073411     -0.618312      2.321892
  C       2.907812      1.115754      1.276907
  H       2.923574      0.542499      0.321133
  H       3.920853      0.986448      1.734840
  C       2.678984      2.621340      0.977645
  H       2.726118      3.200861      1.930048
  H       1.641193      2.766896      0.586186
  C       3.692933      3.244758     -0.023074
  H       4.734959      3.057491      0.338870
  H       3.567532      4.355405     -0.011819
  C       3.554315      2.745950     -1.484466
  H       2.500709      2.883976     -1.823463
  H       3.745670      1.649117     -1.543112
  C       4.501206      3.484782     -2.481788
  H       5.554128      3.366495     -2.125342
  H       4.281542      4.577223     -2.441205
  C       4.393099      2.957331     -3.904330
  H       4.934593      2.008507     -4.099914
  C       3.680267      3.491637     -4.928511
  H       3.695193      2.948730     -5.895165
  C       2.822814      4.748055     -4.884319
  H       2.972569      5.331526     -5.826186
  H       3.148138      5.413409     -4.052177
  C       1.293237      4.465073     -4.719501
  H       0.767965      5.439306     -4.563429
  H       1.134287      3.876877     -3.784009
  C       0.637016      3.725506     -5.912925
  H       1.150521      2.748369     -6.085859
  H       0.796639      4.321236     -6.846171
  C      -0.880468      3.469134     -5.718079
  H      -1.398041      4.439507     -5.512285
  H      -1.024444      2.849535     -4.801105
  C      -1.551899      2.778523     -6.933978
  H      -1.063644      1.787848     -7.109921
  H      -1.341629      3.382624     -7.850142
  C      -3.088704      2.579638     -6.810696
  H      -3.470895      2.150932     -7.769654
  H      -3.582203      3.578472     -6.706834
  C      -3.541923      1.668429     -5.638313
  H      -3.244124      2.128253     -4.667255
  H      -2.994966      0.695741     -5.692995
  C      -5.067281      1.403875     -5.623189
  H      -5.363459      0.764475     -4.759278
  H      -5.401482      0.888095     -6.554446
  H      -5.644188      2.355972     -5.548194
  C      -4.934570      0.747669      1.713665
  H      -4.802226      1.849839      1.599171
  H      -5.888390      0.627333      2.277100
  C      -5.070055      0.083946      0.307678
  H      -6.143465      0.115419      0.005537
  H      -4.810736     -1.001740      0.377170
  C      -4.246693      0.746427     -0.834446
  H      -4.576522      1.809892     -0.942415
  H      -4.516718      0.249870     -1.799408
  C      -2.704289      0.713151     -0.677015
  H      -2.401249      1.283522      0.233605
  H      -2.373301     -0.340091     -0.509082
  C      -1.958497      1.309686     -1.899345
  H      -2.173590      0.694865     -2.805374
  H      -2.373023      2.325887     -2.110694
  C      -0.413492      1.442269     -1.714667
  H      -0.229348      2.103138     -0.830356
  H       0.004816      1.980726     -2.592513
  C       0.306869      0.120300     -1.501523
  H       0.035358     -0.422802     -0.574657
  C       1.228365     -0.456148     -2.314455
  H       1.637634     -1.441458     -2.006272
  C       1.773318      0.071459     -3.631696
  H       2.888485      0.091153     -3.574607
  H       1.464065      1.125290     -3.804546
  C       1.363544     -0.797313     -4.861382
  H       1.720449     -1.843356     -4.701042
  H       1.911783     -0.423286     -5.761058
  C      -0.159698     -0.790118     -5.147201
  H      -0.704836     -1.211793     -4.270511
  H      -0.503172      0.268270     -5.227465
  C      -0.574602     -1.539374     -6.445250
  H      -1.679073     -1.433794     -6.582282
  H      -0.110659     -1.024150     -7.322210
  C      -0.203055     -3.048735     -6.500980
  H       0.906148     -3.166165     -6.442361
  H      -0.490377     -3.449844     -7.503711
  C      -0.868024     -3.918972     -5.403525
  H      -0.587482     -3.538644     -4.391113
  H      -1.979748     -3.809201     -5.469412
  C      -0.494697     -5.421279     -5.493711
  H      -0.768557     -5.811078     -6.505305
  H       0.616036     -5.526770     -5.420569
  C      -1.170673     -6.288787     -4.403648
  H      -0.885749     -5.948376     -3.379978
  H      -2.282765     -6.231554     -4.472521
  H      -0.883639     -7.361900     -4.493253
138
Coordinates from ORCA-job /wrk/rja7/qm_final_3_replicates/qm_final_1.1/qm/1/freq E -2722.585859104930
  N       2.002996     -4.595484      8.867600
  C       2.743227     -3.488538      8.032832
  H       3.475926     -4.029512      7.392243
  H       3.258309     -2.845019      8.774223
  C       0.923373     -5.285374      8.039049
  H       1.375814     -5.680521      7.106034
  H       0.501753     -6.118416      8.639183
  H       0.139205     -4.539005      7.808350
  C       1.351933     -4.019550     10.144418
  H       2.078425     -3.348628     10.641773
  H       0.460070     -3.423130      9.876819
  H       1.074789     -4.879104     10.791254
  C       3.051197     -5.615173      9.292794
  H       3.830013     -5.094135      9.886022
  H       3.507392     -6.072857      8.391047
  H       2.568317     -6.399121      9.912380
  C       1.823759     -2.605774      7.150947
  H       2.486875     -1.794877      6.755177
  H       1.461354     -3.168036      6.257942
  P       0.915723     -0.873410      9.090080
  O       2.359419     -0.997828      9.576115
  O      -0.335906     -1.036306      9.940590
  O       0.687172     -2.115695      7.845670
  O       0.846926      0.519939      8.127766
  C      -0.442629      1.018754      7.729125
  H      -0.376005      2.133897      7.706339
  H      -1.226717      0.725928      8.468547
  C      -0.851895      0.503284      6.327881
  H      -0.766608     -0.603249      6.289924
  O       0.065656      1.093041      5.333650
  C       0.831512      0.272081      4.550358
  O       0.824327     -0.953041      4.589997
  C       1.724138      1.100557      3.608467
  H       2.736342      1.149344      4.083374
  H       1.346590      2.144848      3.568895
  C      -2.274499      0.941994      5.944648
  H      -2.363872      2.051565      5.891813
  H      -3.008832      0.575652      6.701316
  O      -2.581732      0.356167      4.640490
  C      -3.655668      0.872909      3.952125
  O      -4.382258      1.758062      4.380766
  C      -3.791165      0.175417      2.588178
  H      -2.801346      0.233266      2.081245
  H      -3.947956     -0.914488      2.778895
  C       1.840507      0.464478      2.197150
  H       0.843470      0.507880      1.694071
  H       2.072531     -0.618026      2.321287
  C       2.907412      1.115928      1.276506
  H       2.922769      0.542807      0.320647
  H       3.920508      0.986203      1.734200
  C       2.679055      2.621647      0.977542
  H       2.726460      3.200961      1.930059
  H       1.641292      2.767605      0.586187
  C       3.693093      3.244930     -0.023150
  H       4.735091      3.057393      0.338730
  H       3.567945      4.355607     -0.011777
  C       3.554222      2.746301     -1.484575
  H       2.500614      2.884685     -1.823475
  H       3.745252      1.649418     -1.543313
  C       4.501307      3.484885     -2.481906
  H       5.554188      3.366351     -2.125426
  H       4.281917      4.577385     -2.441384
  C       4.393138      2.957353     -3.904415
  H       4.934578      2.008489     -4.099947
  C       3.680293      3.491606     -4.928616
  H       3.695173      2.948606     -5.895221
  C       2.822906      4.748066     -4.884520
  H       2.972686      5.331480     -5.826422
  H       3.148241      5.413468     -4.052419
  C       1.293323      4.465167     -4.719701
  H       0.768069      5.439435     -4.563812
  H       1.134353      3.877139     -3.784111
  C       0.637108      3.725390     -5.912993
  H       1.150595      2.748223     -6.085765
  H       0.796723      4.320966     -6.846341
  C      -0.880373      3.468988     -5.718099
  H      -1.398048      4.439322     -5.512402
  H      -1.024285      2.849439     -4.801082
  C      -1.551730      2.778126     -6.933911
  H      -1.063519      1.787374     -7.109525
  H      -1.341295      3.381987     -7.850189
  C      -3.088552      2.579329     -6.810726
  H      -3.470669      2.150326     -7.769579
  H      -3.582028      3.578214     -6.707232
  C      -3.541904      1.668528     -5.638077
  H      -3.244199      2.128675     -4.667139
  H      -2.994968      0.695797     -5.692330
  C      -5.067275      1.404010     -5.623029
  H      -5.363550      0.764929     -4.758913
  H      -5.401385      0.887897     -6.554129
  H      -5.644158      2.356147     -5.548409
  C      -4.934808      0.747397      1.713681
  H      -4.802522      1.849571      1.599151
  H      -5.888652      0.627040      2.277069
  C      -5.070171      0.083603      0.307722
  H      -6.143561      0.115013      0.005505
  H      -4.810812     -1.002068      0.377303
  C      -4.246780      0.746070     -0.834411
  H      -4.576651      1.809519     -0.942418
  H      -4.516765      0.249477     -1.799363
  C      -2.704373      0.712895     -0.676927
  H      -2.401426      1.283336      0.233675
  H      -2.373326     -0.340318     -0.508937
  C      -1.958564      1.309440     -1.899260
  H      -2.173581      0.694558     -2.805268
  H      -2.373197      2.325588     -2.110651
  C      -0.413540      1.442128     -1.714581
  H      -0.229410      2.103001     -0.830269
  H       0.004742      1.980604     -2.592429
  C       0.306874      0.120189     -1.501412
  H       0.035313     -0.422952     -0.574584
  C       1.228481     -0.456197     -2.314256
  H       1.637759     -1.441496     -2.006048
  C       1.773517      0.071415     -3.631445
  H       2.888684      0.090931     -3.574349
  H       1.464446      1.125303     -3.804256
  C       1.363628     -0.797220     -4.861189
  H       1.720537     -1.843285     -4.701000
  H       1.911803     -0.423086     -5.760858
  C      -0.159633     -0.789970     -5.146863
  H      -0.704683     -1.211662     -4.270128
  H      -0.503076      0.268434     -5.227050
  C      -0.574716     -1.539136     -6.444894
  H      -1.679211     -1.433519     -6.581730
  H      -0.110913     -1.023900     -7.321917
  C      -0.203213     -3.048509     -6.500733
  H       0.906002     -3.165953     -6.442351
  H      -0.490739     -3.449584     -7.503420
  C      -0.867967     -3.918737     -5.403152
  H      -0.587250     -3.538378     -4.390800
  H      -1.979705     -3.808980     -5.468828
  C      -0.494630     -5.421041     -5.493356
  H      -0.768624     -5.810857     -6.504907
  H       0.616112     -5.526527     -5.420363
  C      -1.170433     -6.288509     -4.403163
  H      -0.885414     -5.948014     -3.379548
  H      -2.282536     -6.231348     -4.471920
  H      -0.883345     -7.361611     -4.492734
138
Coordinates from ORCA-job /wrk/rja7/qm_final_3_replicates/qm_final_1.1/qm/1/freq E -2722.585859150533
  N       2.002847     -4.595568      8.868032
  C       2.743156     -3.488747      8.033178
  H       3.475871     -4.029806      7.392679
  H       3.258241     -2.845165      8.774514
  C       0.923092     -5.285371      8.039578
  H       1.375456     -5.680732      7.106613
  H       0.501349     -6.118269      8.639824
  H       0.139067     -4.538878      7.808796
  C       1.351905     -4.019492     10.144839
  H       2.078498     -3.348654     10.642159
  H       0.460113     -3.422954      9.877250
  H       1.074655     -4.878981     10.791717
  C       3.050949     -5.615363      9.293224
  H       3.829884     -5.094387      9.886349
  H       3.507005     -6.073190      8.391480
  H       2.568005     -6.399193      9.912910
  C       1.823754     -2.606030      7.151185
  H       2.486895     -1.795181      6.755366
  H       1.461348     -3.168354      6.258220
  P       0.915724     -0.873461      9.090130
  O       2.359407     -0.997860      9.576191
  O      -0.335927     -1.036249      9.940618
  O       0.687157     -2.115843      7.845834
  O       0.847001      0.519827      8.127698
  C      -0.442520      1.018647      7.728966
  H      -0.375883      2.133790      7.706172
  H      -1.226658      0.725826      8.468335
  C      -0.851677      0.503202      6.327672
  H      -0.766468     -0.603336      6.289695
  O       0.066008      1.092911      5.333537
  C       0.831967      0.271917      4.550380
  O       0.824756     -0.953204      4.590054
  C       1.724624      1.100305      3.608448
  H       2.737182      1.148018      4.082693
  H       1.347820      2.144889      3.569657
  C      -2.274212      0.942045      5.944321
  H      -2.363525      2.051621      5.891558
  H      -3.008622      0.575682      6.700909
  O      -2.581389      0.356299      4.640111
  C      -3.655456      0.872929      3.951862
  O      -4.382058      1.758045      4.380556
  C      -3.791154      0.175306      2.588000
  H      -2.801376      0.232884      2.080958
  H      -3.948138     -0.914549      2.778854
  C       1.839625      0.464881      2.196696
  H       0.842333      0.509432      1.694239
  H       2.070796     -0.617885      2.320142
  C       2.906556      1.115890      1.275791
  H       2.921119      0.543062      0.319745
  H       3.919762      0.985308      1.733007
  C       2.679095      2.621863      0.977445
  H       2.727068      3.200780      1.930176
  H       1.641340      2.768619      0.586369
  C       3.693310      3.244905     -0.023209
  H       4.735251      3.056952      0.338614
  H       3.568551      4.355626     -0.011670
  C       3.554199      2.746507     -1.484688
  H       2.500579      2.885152     -1.823466
  H       3.745012      1.649596     -1.543578
  C       4.501341      3.485003     -2.482023
  H       5.554221      3.366336     -2.125585
  H       4.282098      4.577531     -2.441501
  C       4.393077      2.957460     -3.904527
  H       4.934518      2.008604     -4.100097
  C       3.680137      3.491675     -4.928685
  H       3.694957      2.948640     -5.895272
  C       2.822737      4.748120     -4.884555
  H       2.972496      5.331570     -5.826439
  H       3.148059      5.413501     -4.052432
  C       1.293160      4.465206     -4.719730
  H       0.767899      5.439468     -4.563849
  H       1.134232      3.877179     -3.784135
  C       0.636917      3.725384     -5.912982
  H       1.150351      2.748187     -6.085727
  H       0.796485      4.320937     -6.846350
  C      -0.880558      3.468962     -5.717977
  H      -1.398257      4.439253     -5.512156
  H      -1.024380      2.849299     -4.801019
  C      -1.552013      2.778133     -6.933778
  H      -1.063856      1.787351     -7.109372
  H      -1.341551      3.381960     -7.850079
  C      -3.088833      2.579394     -6.810536
  H      -3.470974      2.150358     -7.769364
  H      -3.582293      3.578289     -6.707065
  C      -3.542161      1.668635     -5.637843
  H      -3.244377      2.128771     -4.666919
  H      -2.995276      0.695870     -5.692080
  C      -5.067545      1.404197     -5.622687
  H      -5.363780      0.765108     -4.758561
  H      -5.401739      0.888125     -6.553778
  H      -5.644379      2.356355     -5.547971
  C      -4.934773      0.747371      1.713519
  H      -4.802479      1.849553      1.599072
  H      -5.888626      0.626984      2.276887
  C      -5.070128      0.083682      0.307516
  H      -6.143512      0.115154      0.005280
  H      -4.810828     -1.002008      0.377048
  C      -4.246690      0.746213     -0.834547
  H      -4.576540      1.809680     -0.942444
  H      -4.516669      0.249722     -1.799552
  C      -2.704287      0.713000     -0.677019
  H      -2.401387      1.283442      0.233597
  H      -2.373275     -0.340220     -0.509013
  C      -1.958417      1.309544     -1.899317
  H      -2.173443      0.694708     -2.805356
  H      -2.373021      2.325708     -2.110683
  C      -0.413364      1.442118     -1.714602
  H      -0.229232      2.102938     -0.830253
  H       0.004965      1.980615     -2.592417
  C       0.306938      0.120108     -1.501506
  H       0.035305     -0.423071     -0.574721
  C       1.228535     -0.456295     -2.314340
  H       1.637686     -1.441666     -2.006189
  C       1.773705      0.071312     -3.631475
  H       2.888872      0.090672     -3.574350
  H       1.464790      1.125261     -3.804247
  C       1.363765     -0.797217     -4.861269
  H       1.720742     -1.843280     -4.701207
  H       1.911871     -0.422962     -5.760932
  C      -0.159498     -0.790001     -5.146884
  H      -0.704526     -1.211693     -4.270137
  H      -0.502954      0.268398     -5.227068
  C      -0.574610     -1.539147     -6.444914
  H      -1.679136     -1.433636     -6.581603
  H      -0.110993     -1.023838     -7.321988
  C      -0.203011     -3.048499     -6.500831
  H       0.906222     -3.165876     -6.442613
  H      -0.490637     -3.449578     -7.503489
  C      -0.867583     -3.918755     -5.403169
  H      -0.586732     -3.538384     -4.390856
  H      -1.979331     -3.809019     -5.468692
  C      -0.494224     -5.421054     -5.493381
  H      -0.768250     -5.810886     -6.504916
  H       0.616522     -5.526534     -5.420429
  C      -1.169952     -6.288502     -4.403127
  H      -0.884979     -5.947895     -3.379537
  H      -2.282060     -6.231462     -4.471898
  H      -0.882748     -7.361580     -4.492609
138
Coordinates from ORCA-job /wrk/rja7/qm_final_3_replicates/qm_final_1.1/qm/1/freq E -2722.585859227570
  N       2.002731     -4.595587      8.868873
  C       2.743114     -3.488910      8.033902
  H       3.475874     -4.030071      7.393540
  H       3.258179     -2.845223      8.775163
  C       0.922884     -5.285367      8.040521
  H       1.375221     -5.681047      7.107676
  H       0.500978     -6.118061      8.640939
  H       0.139019     -4.538768      7.809545
  C       1.351871     -4.019339     10.145631
  H       2.078550     -3.348559     10.642903
  H       0.460143     -3.422705      9.878022
  H       1.074513     -4.878739     10.792582
  C       3.050753     -5.615443      9.294129
  H       3.829800     -5.094477      9.887115
  H       3.506674     -6.073470      8.392417
  H       2.567761     -6.399120      9.913971
  C       1.823792     -2.606291      7.151744
  H       2.486950     -1.795489      6.755869
  H       1.461401     -3.168712      6.258835
  P       0.915702     -0.873468      9.090418
  O       2.359342     -0.997840      9.576592
  O      -0.336030     -1.036078      9.940803
  O       0.687163     -2.115972      7.846273
  O       0.847161      0.519726      8.127805
  C      -0.442269      1.018599      7.728885
  H      -0.375578      2.133740      7.706066
  H      -1.226525      0.725818      8.468145
  C      -0.851220      0.503182      6.327511
  H      -0.766187     -0.603370      6.289535
  O       0.066764      1.092746      5.333562
  C       0.832758      0.271614      4.550577
  O       0.825367     -0.953504      4.590303
  C       1.725525      1.099728      3.608523
  H       2.738862      1.145012      4.081305
  H       1.350445      2.144985      3.571432
  C      -2.273614      0.942262      5.943893
  H      -2.362790      2.051854      5.891234
  H      -3.008208      0.575890      6.700300
  O      -2.580621      0.356675      4.639570
  C      -3.655157      0.872811      3.951691
  O      -4.382031      1.757572      4.380657
  C      -3.791130      0.175041      2.587929
  H      -2.801435      0.232300      2.080700
  H      -3.948321     -0.914758      2.778964
  C       1.837458      0.465710      2.195831
  H       0.839596      0.512823      1.694768
  H       2.066712     -0.617631      2.317790
  C       2.904501      1.115653      1.274332
  H       2.917262      0.543439      0.317899
  H       3.917935      0.983100      1.730498
  C       2.679141      2.622179      0.977261
  H       2.728372      3.200289      1.930420
  H       1.641427      2.770755      0.586757
  C       3.693818      3.244556     -0.023325
  H       4.735615      3.055702      0.338445
  H       3.569941      4.355375     -0.011556
  C       3.554289      2.746514     -1.484885
  H       2.500645      2.885586     -1.823448
  H       3.744729      1.649557     -1.544022
  C       4.501512      3.484873     -2.482233
  H       5.554393      3.365986     -2.125875
  H       4.282497      4.577444     -2.441697
  C       4.393069      2.957360     -3.904749
  H       4.934510      2.008530     -4.100436
  C       3.679974      3.491581     -4.928806
  H       3.694689      2.948546     -5.895394
  C       2.822584      4.748024     -4.884528
  H       2.972311      5.331573     -5.826360
  H       3.147927      5.413314     -4.052340
  C       1.293001      4.465115     -4.719679
  H       0.767767      5.439367     -4.563694
  H       1.134148      3.876977     -3.784147
  C       0.636698      3.725380     -5.912966
  H       1.149988      2.748108     -6.085684
  H       0.796283      4.320946     -6.846314
  C      -0.880801      3.469033     -5.717899
  H      -1.398457      4.439320     -5.511973
  H      -1.024639      2.849256     -4.801022
  C      -1.552343      2.778279     -6.933728
  H      -1.064247      1.787463     -7.109306
  H      -1.341793      3.382070     -7.850043
  C      -3.089157      2.579619     -6.810501
  H      -3.471263      2.150543     -7.769328
  H      -3.582613      3.578517     -6.707074
  C      -3.542504      1.668881     -5.637797
  H      -3.244676      2.128987     -4.666867
  H      -2.995654      0.696091     -5.692015
  C      -5.067903      1.404529     -5.622567
  H      -5.364111      0.765371     -4.758482
  H      -5.402153      0.888568     -6.553699
  H      -5.644698      2.356694     -5.547706
  C      -4.934787      0.747191      1.713538
  H      -4.802565      1.849398      1.599251
  H      -5.888614      0.626671      2.276925
  C      -5.070177      0.083713      0.307446
  H      -6.143567      0.115309      0.005230
  H      -4.810994     -1.002015      0.376845
  C      -4.246714      0.746381     -0.834518
  H      -4.576564      1.809867     -0.942229
  H      -4.516686      0.250043     -1.799603
  C      -2.704313      0.713134     -0.676974
  H      -2.401459      1.283543      0.233677
  H      -2.373331     -0.340097     -0.508987
  C      -1.958383      1.309727     -1.899206
  H      -2.173468      0.695041     -2.805337
  H      -2.372903      2.325949     -2.110452
  C      -0.413286      1.442081     -1.714467
  H      -0.229119      2.102785     -0.830042
  H       0.005100      1.980634     -2.592224
  C       0.306811      0.119936     -1.501587
  H       0.035093     -0.423354     -0.574894
  C       1.228352     -0.456459     -2.314479
  H       1.637300     -1.441970     -2.006495
  C       1.773738      0.071250     -3.631485
  H       2.888902      0.090461     -3.574296
  H       1.464983      1.125278     -3.804135
  C       1.363823     -0.797065     -4.861421
  H       1.720945     -1.843117     -4.701612
  H       1.911841     -0.422550     -5.761035
  C      -0.159431     -0.789937     -5.147038
  H      -0.704484     -1.211645     -4.270317
  H      -0.502937      0.268445     -5.227239
  C      -0.574463     -1.539043     -6.445111
  H      -1.679037     -1.433767     -6.581643
  H      -0.111119     -1.023543     -7.322212
  C      -0.202600     -3.048325     -6.501209
  H       0.906665     -3.165524     -6.443177
  H      -0.490286     -3.449378     -7.503864
  C      -0.866887     -3.918744     -5.403516
  H      -0.585917     -3.538405     -4.391222
  H      -1.978657     -3.809135     -5.468864
  C      -0.493353     -5.420996     -5.493822
  H      -0.767356     -5.810827     -6.505363
  H       0.617407     -5.526359     -5.420907
  C      -1.168916     -6.288548     -4.403553
  H      -0.884094     -5.947796     -3.379968
  H      -2.281037     -6.231822     -4.472382
  H      -0.881414     -7.361556     -4.492932
138
Coordinates from ORCA-job /wrk/rja7/qm_final_3_replicates/qm_final_1.1/qm/1/freq E -2722.585859391469
  N       2.002479     -4.595588      8.870461
  C       2.743013     -3.489115      8.035364
  H       3.475869     -4.030417      7.395229
  H       3.258004     -2.845277      8.776548
  C       0.922590     -5.285376      8.042170
  H       1.374975     -5.681514      7.109540
  H       0.500411     -6.117771      8.642814
  H       0.138950     -4.538652      7.810842
  C       1.351607     -4.019081     10.147080
  H       2.078333     -3.348319     10.644304
  H       0.459955     -3.422380      9.879344
  H       1.074099     -4.878345     10.794148
  C       3.050376     -5.615497      9.295913
  H       3.829507     -5.094514      9.888775
  H       3.506205     -6.073792      8.394291
  H       2.567282     -6.398967      9.915936
  C       1.823848     -2.606635      7.152927
  H       2.487057     -1.795910      6.756994
  H       1.461500     -3.169191      6.260090
  P       0.915632     -0.873431      9.091165
  O       2.359165     -0.997848      9.577623
  O      -0.336299     -1.035672      9.941301
  O       0.687151     -2.116107      7.847243
  O       0.847553      0.519622      8.128261
  C      -0.441641      1.018680      7.728886
  H      -0.374780      2.133814      7.706034
  H      -1.226207      0.726033      8.467873
  C      -0.850159      0.503331      6.327348
  H      -0.765529     -0.603254      6.289422
  O       0.068510      1.092520      5.333797
  C       0.834402      0.271026      4.551094
  O       0.826488     -0.954091      4.590894
  C       1.727457      1.098466      3.608755
  H       2.742446      1.138478      4.078382
  H       1.356163      2.145180      3.575307
  C      -2.272219      0.942940      5.943109
  H      -2.360999      2.052571      5.890526
  H      -3.007258      0.576732      6.699163
  O      -2.578885      0.357595      4.638593
  C      -3.654450      0.872617      3.951511
  O      -4.381941      1.756584      4.381078
  C      -3.790887      0.174648      2.587894
  H      -2.801363      0.231466      2.080292
  H      -3.948330     -0.915069      2.779237
  C       1.832761      0.467469      2.194073
  H       0.833675      0.520070      1.696053
  H       2.057897     -0.617086      2.312859
  C       2.900043      1.115114      1.271281
  H       2.908922      0.544232      0.314023
  H       3.913948      0.978317      1.725188
  C       2.679255      2.622812      0.976896
  H       2.731172      3.199241      1.930933
  H       1.641651      2.775331      0.587582
  C       3.694994      3.243661     -0.023538
  H       4.736460      3.052762      0.338123
  H       3.573134      4.354700     -0.011286
  C       3.554559      2.746392     -1.485269
  H       2.500887      2.886395     -1.823406
  H       3.744169      1.649330     -1.544940
  C       4.501988      3.484456     -2.482622
  H       5.554866      3.365049     -2.126439
  H       4.283485      4.577123     -2.441976
  C       4.393126      2.957129     -3.905196
  H       4.934556      2.008363     -4.101216
  C       3.679690      3.491466     -4.928962
  H       3.694158      2.948550     -5.895618
  C       2.822282      4.747879     -4.884224
  H       2.971922      5.331728     -5.825886
  H       3.147659      5.412899     -4.051838
  C       1.292703      4.464883     -4.719346
  H       0.767470      5.439077     -4.563023
  H       1.133990      3.876420     -3.784005
  C       0.636320      3.725468     -5.912805
  H       1.149490      2.748158     -6.085665
  H       0.795873      4.321225     -6.846024
  C      -0.881183      3.469104     -5.717674
  H      -1.398827      4.439343     -5.511503
  H      -1.025018      2.849083     -4.800964
  C      -1.552814      2.778558     -6.933608
  H      -1.064740      1.787753     -7.109310
  H      -1.342204      3.382423     -7.849871
  C      -3.089606      2.579904     -6.810386
  H      -3.471682      2.150909     -7.769265
  H      -3.583096      3.578770     -6.706856
  C      -3.542902      1.668998     -5.637793
  H      -3.244930      2.128894     -4.666798
  H      -2.996119      0.696182     -5.692224
  C      -5.068324      1.404787     -5.622391
  H      -5.364453      0.765396     -4.758452
  H      -5.402726      0.889138     -6.553645
  H      -5.645042      2.356964     -5.547167
  C      -4.934731      0.746861      1.713762
  H      -4.802709      1.849118      1.599719
  H      -5.888447      0.626057      2.277275
  C      -5.070303      0.083705      0.307543
  H      -6.143737      0.115450      0.005483
  H      -4.811241     -1.002070      0.376702
  C      -4.246945      0.746600     -0.834356
  H      -4.576919      1.810068     -0.941868
  H      -4.516889      0.250386     -1.799512
  C      -2.704540      0.713461     -0.676858
  H      -2.401760      1.283902      0.233796
  H      -2.373496     -0.339747     -0.508857
  C      -1.958613      1.310104     -1.899055
  H      -2.173768      0.695567     -2.805275
  H      -2.373061      2.326380     -2.110186
  C      -0.413465      1.442239     -1.714320
  H      -0.229253      2.102832     -0.829824
  H       0.004946      1.980853     -2.592034
  C       0.306378      0.119933     -1.501712
  H       0.034594     -0.423460     -0.575102
  C       1.227806     -0.456491     -2.314705
  H       1.636485     -1.442181     -2.006928
  C       1.773508      0.071362     -3.631525
  H       2.888664      0.090504     -3.574170
  H       1.464856      1.125448     -3.804052
  C       1.363806     -0.796730     -4.861667
  H       1.721249     -1.842721     -4.702188
  H       1.911695     -0.421793     -5.761190
  C      -0.159423     -0.789885     -5.147364
  H      -0.704521     -1.211741     -4.270742
  H      -0.503122      0.268437     -5.227530
  C      -0.574210     -1.538872     -6.445577
  H      -1.678860     -1.434069     -6.581920
  H      -0.111288     -1.022934     -7.322641
  C      -0.201774     -3.047992     -6.502081
  H       0.907547     -3.164812     -6.444288
  H      -0.489470     -3.448945     -7.504774
  C      -0.865568     -3.918837     -5.404443
  H      -0.584455     -3.538651     -4.392130
  H      -1.977379     -3.809507     -5.469525
  C      -0.491655     -5.420975     -5.495092
  H      -0.765639     -5.810706     -6.506674
  H       0.619140     -5.526079     -5.422301
  C      -1.166861     -6.288886     -4.404890
  H      -0.882288     -5.948001     -3.381280
  H      -2.279007     -6.232743     -4.473785
  H      -0.878796     -7.361748     -4.494239
138
Coordinates from ORCA-job /wrk/rja7/qm_final_3_replicates/qm_final_1.1/qm/1/freq E -2722.585892387642
  N       1.999687     -4.595683      8.890544
  C       2.741741     -3.492047      8.053201
  H       3.475506     -4.035318      7.415756
  H       3.256166     -2.846095      8.792991
  C       0.918893     -5.285810      8.063719
  H       1.371493     -5.688156      7.133813
  H       0.493450     -6.114142      8.667707
  H       0.138068     -4.537555      7.827949
  C       1.349236     -4.015546     10.165509
  H       2.076774     -3.344828     10.661584
  H       0.458394     -3.418098      9.896421
  H       1.070144     -4.872880     10.814463
  C       3.046214     -5.616126      9.318303
  H       3.826685     -5.094733      9.909035
  H       3.500413     -6.078111      8.417748
  H       2.562123     -6.396763      9.941113
  C       1.824181     -2.611560      7.167436
  H       2.487867     -1.801931      6.770254
  H       1.461894     -3.176031      6.275833
  P       0.915468     -0.873078      9.100129
  O       2.357793     -0.998296      9.589674
  O      -0.338707     -1.030103      9.947576
  O       0.686974     -2.118161      7.859482
  O       0.853364      0.518023      8.133294
  C      -0.432699      1.019910      7.728414
  H      -0.363139      2.134908      7.704960
  H      -1.221115      0.729446      8.464184
  C      -0.836428      0.505513      6.324950
  H      -0.757879     -0.601557      6.287780
  O       0.091169      1.088952      5.336173
  C       0.854225      0.261976      4.556538
  O       0.838091     -0.963104      4.597134
  C       1.751237      1.079550      3.609860
  H       2.785733      1.047089      4.034278
  H       1.433896      2.144042      3.625566
  C      -2.253740      0.953024      5.932850
  H      -2.336512      2.063232      5.881119
  H      -2.994840      0.589691      6.684337
  O      -2.555993      0.370957      4.625834
  C      -3.645338      0.870531      3.949590
  O      -4.381255      1.743560      4.387207
  C      -3.787615      0.169663      2.588049
  H      -2.800322      0.220659      2.075568
  H      -3.948281     -0.918953      2.783658
  C       1.765965      0.493101      2.170582
  H       0.753223      0.620706      1.715977
  H       1.933192     -0.605640      2.246709
  C       2.835577      1.109264      1.229727
  H       2.791563      0.558211      0.262066
  H       3.853888      0.914269      1.652020
  C       2.678569      2.631030      0.971450
  H       2.766783      3.183695      1.936861
  H       1.643907      2.837382      0.598848
  C       3.709162      3.230274     -0.026748
  H       4.745474      3.011035      0.333774
  H       3.615331      4.343962     -0.007948
  C       3.557322      2.743800     -1.490881
  H       2.503766      2.896906     -1.824029
  H       3.735196      1.645320     -1.557759
  C       4.508333      3.477717     -2.487617
  H       5.560926      3.350911     -2.133299
  H       4.297079      4.571718     -2.445365
  C       4.394295      2.953238     -3.911078
  H       4.935437      2.005278     -4.111632
  C       3.676735      3.489629     -4.930964
  H       3.688028      2.948676     -5.898728
  C       2.819324      4.745762     -4.879704
  H       2.968018      5.333960     -5.818847
  H       3.145194      5.406801     -4.044388
  C       1.289735      4.461702     -4.714649
  H       0.764604      5.435088     -4.553506
  H       1.132752      3.868528     -3.782092
  C       0.632343      3.727021     -5.910706
  H       1.143791      2.749188     -6.085676
  H       0.791673      4.325531     -6.842011
  C      -0.885233      3.470620     -5.714827
  H      -1.402538      4.440303     -5.505348
  H      -1.029131      2.847321     -4.800392
  C      -1.558189      2.783100     -6.932194
  H      -1.070593      1.792392     -7.109735
  H      -1.346781      3.388008     -7.847736
  C      -3.094699      2.584783     -6.808883
  H      -3.476615      2.157084     -7.768453
  H      -3.588462      3.583298     -6.703734
  C      -3.547284      1.671554     -5.637824
  H      -3.247074      2.128418     -4.665963
  H      -3.001593      0.698301     -5.695380
  C      -5.073039      1.409488     -5.619864
  H      -5.368065      0.766910     -4.757929
  H      -5.409767      0.898252     -6.552757
  H      -5.648531      2.361917     -5.539514
  C      -4.933938      0.742482      1.717264
  H      -4.804579      1.845377      1.606335
  H      -5.886169      0.617939      2.282477
  C      -5.071971      0.083457      0.309482
  H      -6.145988      0.117300      0.009503
  H      -4.814670     -1.002958      0.375483
  C      -4.249830      0.749221     -0.831459
  H      -4.581412      1.812442     -0.936441
  H      -4.519297      0.254584     -1.797561
  C      -2.707345      0.717289     -0.674592
  H      -2.405200      1.288117      0.236089
  H      -2.375598     -0.335653     -0.506394
  C      -1.961717      1.314638     -1.896388
  H      -2.178018      0.702256     -2.803850
  H      -2.375062      2.331738     -2.105828
  C      -0.416027      1.443789     -1.711840
  H      -0.231271      2.102776     -0.826307
  H       0.002614      1.983333     -2.588943
  C       0.300534      0.119357     -1.503236
  H       0.028133     -0.425642     -0.577807
  C       1.220338     -0.457094     -2.317937
  H       1.625679     -1.445165     -2.013273
  C       1.769813      0.073108     -3.632292
  H       2.884856      0.091859     -3.572892
  H       1.461989      1.127849     -3.803015
  C       1.363108     -0.792081     -4.865158
  H       1.725124     -1.837137     -4.710086
  H       1.909084     -0.411432     -5.763532
  C      -0.159803     -0.789357     -5.151801
  H      -0.705322     -1.213079     -4.276346
  H      -0.506293      0.268062     -5.231724
  C      -0.571273     -1.537266     -6.451584
  H      -1.676958     -1.439220     -6.585281
  H      -0.114323     -1.015628     -7.328384
  C      -0.190656     -3.044041     -6.512976
  H       0.919468     -3.155366     -6.458906
  H      -0.478879     -3.444315     -7.515812
  C      -0.846861     -3.920149     -5.415176
  H      -0.563305     -3.541323     -4.403030
  H      -1.959286     -3.814948     -5.476044
  C      -0.467457     -5.420663     -5.509744
  H      -0.741988     -5.809862     -6.521355
  H       0.643900     -5.521866     -5.439574
  C      -1.136541     -6.292792     -4.419186
  H      -0.854378     -5.949370     -3.395745
  H      -2.249077     -6.244800     -4.487882
  H      -0.840749     -7.363640     -4.507685
138
Coordinates from ORCA-job /wrk/rja7/qm_final_3_replicates/qm_final_1.1/qm/1/freq E -2722.585959491477
  N       1.996350     -4.595960      8.900874
  C       2.739898     -3.494257      8.062725
  H       3.473837     -4.038723      7.426499
  H       3.254518     -2.847658      8.801842
  C       0.914084     -5.284707      8.074908
  H       1.366217     -5.691526      7.146691
  H       0.485650     -6.110050      8.680897
  H       0.136036     -4.534414      7.836569
  C       1.346988     -4.013885     10.175281
  H       2.075626     -3.344019     10.670843
  H       0.457004     -3.415119      9.906016
  H       1.066370     -4.870147     10.824999
  C       3.041285     -5.617914      9.329002
  H       3.823559     -5.097279      9.918022
  H       3.493307     -6.082443      8.428673
  H       2.556233     -6.396465      9.953687
  C       1.823335     -2.614359      7.175872
  H       2.487303     -1.805410      6.777966
  H       1.460225     -3.179341      6.285023
  P       0.916787     -0.873560      9.106614
  O       2.357784     -1.002243      9.598854
  O      -0.339627     -1.024523      9.951458
  O       0.686428     -2.119077      7.867573
  O       0.862475      0.516264      8.137079
  C      -0.419700      1.023883      7.727962
  H      -0.343834      2.138437      7.701905
  H      -1.211719      0.739400      8.462211
  C      -0.822382      0.509207      6.324123
  H      -0.756193     -0.598782      6.290204
  O       0.117366      1.079365      5.338987
  C       0.869333      0.241528      4.560194
  O       0.832077     -0.983255      4.597005
  C       1.778606      1.043954      3.612947
  H       2.823205      0.940567      3.998307
  H       1.518410      2.122302      3.671133
  C      -2.232415      0.971811      5.923494
  H      -2.302646      2.082841      5.869340
  H      -2.981384      0.618150      6.671760
  O      -2.534450      0.390303      4.616133
  C      -3.631475      0.881450      3.946714
  O      -4.369097      1.751410      4.387662
  C      -3.781696      0.174849      2.588894
  H      -2.797351      0.219173      2.070254
  H      -3.945095     -0.912253      2.791046
  C       1.715591      0.504318      2.155452
  H       0.695255      0.696030      1.742460
  H       1.832074     -0.603022      2.192484
  C       2.783334      1.098731      1.199027
  H       2.696351      0.568014      0.223222
  H       3.803675      0.858593      1.592735
  C       2.674397      2.629241      0.972176
  H       2.790386      3.159876      1.946977
  H       1.642957      2.875316      0.615124
  C       3.713670      3.215929     -0.024367
  H       4.746333      2.976394      0.333827
  H       3.639116      4.330933      0.001900
  C       3.553762      2.740255     -1.491180
  H       2.500544      2.903391     -1.820692
  H       3.723278      1.641001     -1.565189
  C       4.507331      3.473459     -2.485716
  H       5.559565      3.342006     -2.132063
  H       4.300214      4.568108     -2.441090
  C       4.391657      2.952772     -3.910636
  H       4.933135      2.005830     -4.114964
  C       3.672418      3.491863     -4.928091
  H       3.682912      2.953559     -5.897291
  C       2.814228      4.747244     -4.871483
  H       2.962472      5.339705     -5.808053
  H       3.139364      5.404693     -4.033115
  C       1.284565      4.461155     -4.707790
  H       0.758585      5.433429     -4.543187
  H       1.128556      3.863911     -3.777716
  C       0.628185      3.730154     -5.906895
  H       1.139076      2.752276     -6.083258
  H       0.787974      4.331290     -6.836260
  C      -0.889471      3.472233     -5.712358
  H      -1.407865      4.440898     -5.501044
  H      -1.033967      2.846210     -4.799924
  C      -1.561049      2.786342     -6.931912
  H      -1.072897      1.795993     -7.109732
  H      -1.347614      3.391915     -7.846697
  C      -3.097298      2.587052     -6.811352
  H      -3.476929      2.160439     -7.772362
  H      -3.592391      3.584766     -6.705354
  C      -3.550416      1.670941     -5.642805
  H      -3.250781      2.125284     -4.669458
  H      -3.004313      0.697991     -5.702180
  C      -5.076172      1.408774     -5.625677
  H      -5.371070      0.762975     -4.766121
  H      -5.412423      0.901022     -6.560678
  H      -5.651995      2.360636     -5.541836
  C      -4.931497      0.746674      1.721771
  H      -4.803854      1.849679      1.610094
  H      -5.881311      0.621273      2.290871
  C      -5.075271      0.087324      0.314863
  H      -6.150516      0.122462      0.019215
  H      -4.819727     -0.999550      0.380458
  C      -4.256678      0.752214     -0.829027
  H      -4.590468      1.814678     -0.934671
  H      -4.527047      0.255606     -1.793873
  C      -2.713888      0.722538     -0.674790
  H      -2.411505      1.296667      0.233745
  H      -2.380945     -0.329508     -0.503465
  C      -1.969719      1.317360     -1.898479
  H      -2.187296      0.704508     -2.805378
  H      -2.382423      2.334547     -2.108881
  C      -0.423689      1.444846     -1.714730
  H      -0.238747      2.103625     -0.829089
  H      -0.005218      1.984297     -2.592064
  C       0.290848      0.119286     -1.508484
  H       0.018143     -0.426789     -0.583822
  C       1.210100     -0.456605     -2.324032
  H       1.613527     -1.446184     -2.021610
  C       1.763022      0.076123     -3.635945
  H       2.877911      0.096311     -3.574090
  H       1.454194      1.130867     -3.805594
  C       1.360948     -0.787432     -4.871114
  H       1.727280     -1.831338     -4.718602
  H       1.906060     -0.402266     -5.768163
  C      -0.161292     -0.789002     -5.160093
  H      -0.707888     -1.212551     -4.285229
  H      -0.510324      0.267377     -5.242333
  C      -0.568699     -1.538825     -6.459827
  H      -1.675270     -1.447487     -6.591768
  H      -0.116897     -1.014089     -7.337422
  C      -0.180099     -3.043415     -6.521634
  H       0.930908     -3.148908     -6.473083
  H      -0.470935     -3.446695     -7.522511
  C      -0.825901     -3.920542     -5.418720
  H      -0.537484     -3.538962     -4.409009
  H      -1.939082     -3.819957     -5.472941
  C      -0.440861     -5.419623     -5.512056
  H      -0.720359     -5.813051     -6.520626
  H       0.671375     -5.516178     -5.448940
  C      -1.098404     -6.290922     -4.413946
  H      -0.813435     -5.940523     -3.393639
  H      -2.211596     -6.251187     -4.477001
  H      -0.795528     -7.360129     -4.498433
138
Coordinates from ORCA-job /wrk/rja7/qm_final_3_replicates/qm_final_1.1/qm/1/freq E -2722.585964798551
  N       1.990515     -4.594300      8.906360
  C       2.736841     -3.492652      8.071174
  H       3.471290     -4.036817      7.435315
  H       3.251139     -2.847518      8.811780
  C       0.907668     -5.279455      8.078177
  H       1.360078     -5.687433      7.150595
  H       0.476168     -6.103954      8.683143
  H       0.132258     -4.526687      7.839202
  C       1.340505     -4.013405     10.180804
  H       2.069558     -3.345823     10.678720
  H       0.451965     -3.412485      9.911488
  H       1.057188     -4.870174     10.828685
  C       3.033027     -5.618943      9.333864
  H       3.816065     -5.100727      9.923999
  H       3.484480     -6.083467      8.433272
  H       2.545973     -6.397203      9.957391
  C       1.822050     -2.610958      7.184905
  H       2.486855     -1.801996      6.788425
  H       1.458462     -3.174250      6.293290
  P       0.917327     -0.872859      9.118396
  O       2.356044     -1.007844      9.615200
  O      -0.342597     -1.018214      9.958669
  O       0.685423     -2.115254      7.877087
  O       0.873165      0.517001      8.148613
  C      -0.404486      1.032106      7.735798
  H      -0.320006      2.145950      7.705657
  H      -1.200223      0.756240      8.469315
  C      -0.807544      0.515321      6.332807
  H      -0.757524     -0.593700      6.304541
  O       0.148082      1.066821      5.352184
  C       0.880505      0.215281      4.569581
  O       0.806527     -1.008208      4.591788
  C       1.815035      1.000341      3.633239
  H       2.858169      0.835787      3.999712
  H       1.605951      2.087880      3.723918
  C      -2.209062      0.995933      5.922231
  H      -2.263369      2.107599      5.861925
  H      -2.966625      0.656898      6.668590
  O      -2.514971      0.410298      4.617349
  C      -3.610484      0.903432      3.947137
  O      -4.341744      1.780722      4.384243
  C      -3.769763      0.188366      2.594435
  H      -2.788526      0.225218      2.069803
  H      -3.935649     -0.896810      2.804819
  C       1.707479      0.505083      2.162619
  H       0.684376      0.736970      1.777582
  H       1.793482     -0.605997      2.164990
  C       2.772372      1.098408      1.202027
  H       2.670055      0.579460      0.222115
  H       3.794336      0.846057      1.583665
  C       2.670921      2.631218      0.987771
  H       2.792104      3.154177      1.966086
  H       1.639835      2.881235      0.634904
  C       3.707049      3.220923     -0.010125
  H       4.740836      2.982076      0.345406
  H       3.631120      4.335740      0.018169
  C       3.545358      2.745033     -1.477071
  H       2.491690      2.907600     -1.806017
  H       3.715330      1.645789     -1.550508
  C       4.497410      3.478719     -2.472560
  H       5.550043      3.348733     -2.119492
  H       4.289037      4.573110     -2.428521
  C       4.382454      2.957340     -3.897596
  H       4.923138      2.009738     -4.101028
  C       3.664821      3.496602     -4.916516
  H       3.676234      2.957531     -5.885207
  C       2.807108      4.752460     -4.861810
  H       2.955996      5.344183     -5.798769
  H       3.131476      5.410601     -4.023762
  C       1.277031      4.466091     -4.699874
  H       0.750258      5.438422     -4.538355
  H       1.119918      3.870716     -3.768923
  C       0.623530      3.733182     -5.899703
  H       1.134897      2.755033     -6.073269
  H       0.785347      4.333341     -6.829229
  C      -0.894413      3.473068     -5.709068
  H      -1.415275      4.440782     -5.499638
  H      -1.040736      2.846685     -4.797168
  C      -1.560841      2.785991     -6.931352
  H      -1.070625      1.796295     -7.106667
  H      -1.343307      3.391585     -7.845412
  C      -3.097061      2.583746     -6.818430
  H      -3.470713      2.157919     -7.782191
  H      -3.594978      3.580046     -6.713136
  C      -3.553820      1.664033     -5.654107
  H      -3.259757      2.116695     -4.678237
  H      -3.005328      0.692243     -5.712759
  C      -5.079184      1.399001     -5.644218
  H      -5.376503      0.750691     -4.787399
  H      -5.410130      0.892794     -6.581977
  H      -5.657311      2.349444     -5.560597
  C      -4.922845      0.758174      1.729844
  H      -4.794395      1.860380      1.611923
  H      -5.869673      0.637051      2.304875
  C      -5.076165      0.092047      0.327165
  H      -6.153234      0.128247      0.038144
  H      -4.823298     -0.995209      0.396807
  C      -4.263950      0.749942     -0.825467
  H      -4.596819      1.812429     -0.933583
  H      -4.541236      0.249298     -1.786278
  C      -2.720339      0.718339     -0.680446
  H      -2.412325      1.295447      0.224016
  H      -2.388503     -0.333609     -0.506507
  C      -1.980174      1.307942     -1.909035
  H      -2.202403      0.693996     -2.814132
  H      -2.391243      2.325624     -2.120212
  C      -0.433240      1.432190     -1.729823
  H      -0.245180      2.088992     -0.843215
  H      -0.015965      1.972617     -2.607240
  C       0.278561      0.104616     -1.529500
  H       0.003747     -0.445715     -0.607975
  C       1.198267     -0.468474     -2.346252
  H       1.599100     -1.460508     -2.048395
  C       1.755721      0.070333     -3.653679
  H       2.870479      0.090997     -3.588611
  H       1.446601      1.125767     -3.819533
  C       1.357783     -0.787752     -4.893661
  H       1.726218     -1.831489     -4.745371
  H       1.903486     -0.397154     -5.788086
  C      -0.163735     -0.789931     -5.185088
  H      -0.711971     -1.211892     -4.310505
  H      -0.512794      0.266175     -5.269406
  C      -0.569795     -1.541729     -6.483812
  H      -1.676799     -1.452647     -6.614164
  H      -0.120587     -1.017150     -7.362832
  C      -0.179001     -3.045986     -6.543518
  H       0.932545     -3.149328     -6.502434
  H      -0.475972     -3.453178     -7.540972
  C      -0.815017     -3.920132     -5.432471
  H      -0.518388     -3.534995     -4.426586
  H      -1.928698     -3.820735     -5.477746
  C      -0.429445     -5.419362     -5.522762
  H      -0.719357     -5.818244     -6.526182
  H       0.683543     -5.514504     -5.471033
  C      -1.073461     -6.285592     -4.412559
  H      -0.779058     -5.927960     -3.397450
  H      -2.187361     -6.249488     -4.464316
  H      -0.768425     -7.354487     -4.493211
138
Coordinates from ORCA-job /wrk/rja7/qm_final_3_replicates/qm_final_1.1/qm/1/freq E -2722.585993487498
  N       1.985907     -4.602750      8.912380
  C       2.734550     -3.502097      8.077015
  H       3.468827     -4.047948      7.442340
  H       3.249048     -2.857380      8.817936
  C       0.902526     -5.287643      8.084069
  H       1.354750     -5.695696      7.156422
  H       0.470634     -6.111816      8.689205
  H       0.127469     -4.534446      7.845177
  C       1.336182     -4.020386     10.186574
  H       2.065940     -3.353371     10.684388
  H       0.448446     -3.418604      9.916657
  H       1.051866     -4.876564     10.834794
  C       3.026977     -5.628409      9.341271
  H       3.809388     -5.110821      9.932772
  H       3.479531     -6.092956      8.441198
  H       2.538289     -6.406419      9.963757
  C       1.823392     -2.617939      7.188449
  H       2.491105     -1.810325      6.793676
  H       1.460941     -3.180424      6.295682
  P       0.915943     -0.876090      9.118710
  O       2.356061     -1.006512      9.612994
  O      -0.342089     -1.026992      9.961231
  O       0.686137     -2.119596      7.877469
  O       0.864207      0.515285      8.151069
  C      -0.417040      1.022768      7.739406
  H      -0.342750      2.137544      7.715910
  H      -1.210928      0.735467      8.470543
  C      -0.814456      0.510055      6.333446
  H      -0.744250     -0.597649      6.296867
  O       0.126682      1.085665      5.352793
  C       0.878291      0.251024      4.570304
  O       0.838279     -0.973920      4.599931
  C       1.793222      1.056518      3.631267
  H       2.838870      0.923718      4.004405
  H       1.554120      2.138367      3.714263
  C      -2.225758      0.966965      5.931092
  H      -2.300981      2.077748      5.878742
  H      -2.974794      0.608441      6.677023
  O      -2.523005      0.386725      4.622118
  C      -3.623182      0.872169      3.953809
  O      -4.366135      1.736652      4.396622
  C      -3.771275      0.165516      2.595974
  H      -2.786070      0.208331      2.079026
  H      -3.936254     -0.921406      2.797796
  C       1.707623      0.548165      2.163900
  H       0.686392      0.763448      1.762189
  H       1.806055     -0.561727      2.176988
  C       2.778833      1.142742      1.210626
  H       2.691872      0.613293      0.234763
  H       3.797742      0.902192      1.607041
  C       2.669622      2.673062      0.978308
  H       2.780258      3.208954      1.950963
  H       1.640244      2.913530      0.613441
  C       3.710666      3.254222     -0.019749
  H       4.743224      3.020006      0.342357
  H       3.633231      4.369137     -0.002983
  C       3.553598      2.764542     -1.482608
  H       2.499842      2.920988     -1.814788
  H       3.726867      1.665162     -1.545797
  C       4.505564      3.490301     -2.484259
  H       5.558467      3.362193     -2.131487
  H       4.297718      4.585173     -2.448111
  C       4.387379      2.957631     -3.904798
  H       4.926673      2.007745     -4.101155
  C       3.668248      3.488500     -4.926578
  H       3.677329      2.941358     -5.890843
  C       2.813370      4.746461     -4.881778
  H       2.964668      5.330700     -5.822991
  H       3.138590      5.410347     -4.048496
  C       1.283101      4.464733     -4.718848
  H       0.758895      5.439378     -4.562556
  H       1.123597      3.875211     -3.784628
  C       0.627014      3.726984     -5.914007
  H       1.137172      2.747747     -6.084728
  H       0.787792      4.322611     -6.846720
  C      -0.890573      3.470453     -5.717664
  H      -1.407953      4.439684     -5.506318
  H      -1.034194      2.844959     -4.804595
  C      -1.564920      2.784639     -6.935708
  H      -1.077629      1.793990     -7.114338
  H      -1.352725      3.390297     -7.850937
  C      -3.101202      2.585970     -6.811703
  H      -3.483284      2.159984     -7.772035
  H      -3.595443      3.583917     -6.704206
  C      -3.552545      1.669960     -5.642099
  H      -3.248524      2.122994     -4.669534
  H      -3.009023      0.695748     -5.703799
  C      -5.078929      1.411746     -5.619726
  H      -5.372621      0.766969     -4.758992
  H      -5.419549      0.904668     -6.553524
  H      -5.651767      2.365240     -5.534201
  C      -4.918758      0.738985      1.726979
  H      -4.790515      1.842096      1.617357
  H      -5.869800      0.612955      2.293950
  C      -5.060364      0.082092      0.318737
  H      -6.135025      0.119545      0.021282
  H      -4.806783     -1.005320      0.382849
  C      -4.239471      0.748253     -0.822790
  H      -4.566828      1.813362     -0.921395
  H      -4.515345      0.258971     -1.789835
  C      -2.696121      0.707704     -0.674846
  H      -2.384722      1.272917      0.236427
  H      -2.368982     -0.347624     -0.512886
  C      -1.955279      1.307567     -1.898163
  H      -2.179528      0.701574     -2.808109
  H      -2.365509      2.327530     -2.099555
  C      -0.407743      1.428564     -1.721421
  H      -0.216427      2.080863     -0.832253
  H       0.008678      1.972196     -2.597074
  C       0.302014      0.098736     -1.526741
  H       0.026460     -0.454035     -0.606896
  C       1.218519     -0.475285     -2.346593
  H       1.616594     -1.469107     -2.051098
  C       1.772237      0.061973     -3.656281
  H       2.887293      0.077954     -3.595440
  H       1.467132      1.118845     -3.820617
  C       1.365094     -0.794691     -4.894791
  H       1.732836     -1.839114     -4.749686
  H       1.905903     -0.403816     -5.791979
  C      -0.158626     -0.795466     -5.176838
  H      -0.701341     -1.219399     -4.299808
  H      -0.507359      0.261185     -5.256017
  C      -0.573408     -1.545003     -6.474620
  H      -1.680305     -1.451405     -6.601363
  H      -0.124885     -1.021377     -7.354575
  C      -0.189208     -3.051108     -6.537588
  H       0.921598     -3.159867     -6.492560
  H      -0.484080     -3.452852     -7.537907
  C      -0.835527     -3.928031     -5.434297
  H      -0.542258     -3.550202     -4.424612
  H      -1.948388     -3.822334     -5.485063
  C      -0.458012     -5.429125     -5.531958
  H      -0.741244     -5.818724     -6.540973
  H       0.653843     -5.531211     -5.471201
  C      -1.118133     -6.300671     -4.435099
  H      -0.831075     -5.953424     -3.414315
  H      -2.231226     -6.256654     -4.497116
  H      -0.819303     -7.370826     -4.522085
138
Coordinates from ORCA-job /wrk/rja7/qm_final_3_replicates/qm_final_1.1/qm/1/freq E -2722.586001906584
  N       1.986751     -4.596684      8.909903
  C       2.735739     -3.496050      8.075076
  H       3.468743     -4.042054      7.439036
  H       3.251538     -2.852807      8.816397
  C       0.902583     -5.279323      8.081104
  H       1.354063     -5.685404      7.152231
  H       0.470384     -6.104532      8.684623
  H       0.127680     -4.525350      7.844089
  C       1.338330     -4.014739     10.185009
  H       2.068705     -3.347812     10.682100
  H       0.450483     -3.412642      9.916110
  H       1.054576     -4.871232     10.833049
  C       3.027140     -5.623708      9.337073
  H       3.810414     -5.107339      9.928529
  H       3.478788     -6.087716      8.436253
  H       2.538218     -6.401929      9.959106
  C       1.824195     -2.610883      7.187983
  H       2.491878     -1.802765      6.794231
  H       1.461937     -3.172289      6.294484
  P       0.916553     -0.869920      9.118408
  O       2.357017     -1.000506      9.612012
  O      -0.341020     -1.020979      9.961586
  O       0.686745     -2.114015      7.877485
  O       0.864612      0.520685      8.149895
  C      -0.416391      1.027904      7.736376
  H      -0.340782      2.142446      7.709121
  H      -1.210638      0.744114      8.468509
  C      -0.814476      0.510731      6.332150
  H      -0.748644     -0.597306      6.300653
  O       0.130258      1.077964      5.350302
  C       0.879650      0.237214      4.571987
  O       0.835099     -0.987423      4.605826
  C       1.798594      1.037047      3.632132
  H       2.841811      0.913208      4.015528
  H       1.554646      2.118546      3.703580
  C      -2.223192      0.972616      5.925858
  H      -2.292811      2.083532      5.868518
  H      -2.974568      0.621213      6.672795
  O      -2.522697      0.388288      4.619020
  C      -3.617427      0.879914      3.945681
  O      -4.354946      1.751641      4.383341
  C      -3.765464      0.171476      2.588525
  H      -2.780666      0.216811      2.071048
  H      -3.927280     -0.915599      2.791832
  C       1.725537      0.515828      2.169551
  H       0.704471      0.716310      1.761945
  H       1.835961     -0.592779      2.190367
  C       2.790636      1.117683      1.214387
  H       2.708083      0.586216      0.238788
  H       3.811894      0.887610      1.610737
  C       2.668007      2.647634      0.984674
  H       2.774618      3.181068      1.959081
  H       1.636402      2.881529      0.621137
  C       3.703939      3.240305     -0.011645
  H       4.738357      3.010085      0.347604
  H       3.620721      4.354726      0.010955
  C       3.545800      2.759472     -1.477164
  H       2.491059      2.916014     -1.806356
  H       3.721203      1.660818     -1.547976
  C       4.496595      3.492666     -2.474576
  H       5.549161      3.366609     -2.119889
  H       4.285232      4.586702     -2.434572
  C       4.384092      2.965165     -3.897329
  H       4.926757      2.017534     -4.095444
  C       3.666768      3.497691     -4.919481
  H       3.680095      2.953729     -5.885527
  C       2.807313      4.752541     -4.873141
  H       2.959054      5.340025     -5.812267
  H       3.128815      5.414740     -4.037076
  C       1.277319      4.467125     -4.713854
  H       0.751174      5.440179     -4.554008
  H       1.117465      3.873232     -3.782348
  C       0.623552      3.733128     -5.912506
  H       1.136682      2.756137     -6.087509
  H       0.782650      4.333378     -6.842588
  C      -0.893656      3.473142     -5.717657
  H      -1.412942      4.441090     -5.505008
  H      -1.036563      2.846455     -4.805491
  C      -1.566071      2.787691     -6.936704
  H      -1.077015      1.798143     -7.116710
  H      -1.355511      3.394580     -7.851141
  C      -3.101935      2.586536     -6.812701
  H      -3.483753      2.160410     -7.773034
  H      -3.597722      3.583722     -6.704620
  C      -3.551301      1.669213     -5.643611
  H      -3.247901      2.122212     -4.670829
  H      -3.005946      0.696172     -5.706502
  C      -5.077092      1.407790     -5.621371
  H      -5.369357      0.761197     -4.761510
  H      -5.417026      0.901310     -6.555718
  H      -5.651984      2.359960     -5.534492
  C      -4.914850      0.740731      1.719060
  H      -4.787302      1.843523      1.605147
  H      -5.865123      0.616407      2.287681
  C      -5.057456      0.078348      0.313191
  H      -6.132798      0.110885      0.017685
  H      -4.799511     -1.007841      0.380439
  C      -4.240506      0.742637     -0.832239
  H      -4.573520      1.805418     -0.937137
  H      -4.513173      0.246326     -1.796604
  C      -2.697403      0.711076     -0.681805
  H      -2.391928      1.282361      0.227313
  H      -2.365319     -0.341812     -0.513920
  C      -1.955432      1.308056     -1.906132
  H      -2.174292      0.696151     -2.813412
  H      -2.369966      2.325019     -2.114008
  C      -0.408295      1.436489     -1.726489
  H      -0.221206      2.093682     -0.840219
  H       0.007501      1.977715     -2.603879
  C       0.307384      0.110717     -1.524297
  H       0.036711     -0.436911     -0.599901
  C       1.223693     -0.464823     -2.343469
  H       1.627702     -1.454811     -2.043176
  C       1.771408      0.068517     -3.657225
  H       2.886630      0.087778     -3.599480
  H       1.462572      1.123567     -3.824650
  C       1.363445     -0.793986     -4.891561
  H       1.730079     -1.838160     -4.741769
  H       1.904739     -0.407872     -5.790486
  C      -0.160394     -0.795299     -5.173691
  H      -0.703210     -1.217738     -4.295920
  H      -0.509159      0.261259     -5.255258
  C      -0.574372     -1.545901     -6.471136
  H      -1.681038     -1.451293     -6.599975
  H      -0.123316     -1.023694     -7.350603
  C      -0.190845     -3.051842     -6.533050
  H       0.919757     -3.161110     -6.483829
  H      -0.482527     -3.453404     -7.534393
  C      -0.841129     -3.928395     -5.432270
  H      -0.552677     -3.549865     -4.421397
  H      -1.953891     -3.823866     -5.487837
  C      -0.461451     -5.428712     -5.528696
  H      -0.739779     -5.818338     -6.539095
  H       0.650220     -5.529530     -5.462944
  C      -1.125760     -6.301142     -4.435458
  H      -0.843334     -5.954682     -3.413103
  H      -2.238595     -6.257639     -4.502384
  H      -0.826046     -7.371067     -4.522044
138
Coordinates from ORCA-job /wrk/rja7/qm_final_3_replicates/qm_final_1.1/qm/1/freq E -2722.585996516792
  N       1.988475     -4.593795      8.920011
  C       2.736838     -3.494618      8.082855
  H       3.469705     -4.041510      7.447406
  H       3.252863     -2.849952      8.822741
  C       0.903734     -5.277258      8.092865
  H       1.354844     -5.685555      7.164774
  H       0.470956     -6.100956      8.698059
  H       0.129414     -4.523145      7.854434
  C       1.340971     -4.009518     10.194422
  H       2.071737     -3.341662     10.689663
  H       0.452845     -3.407888      9.925142
  H       1.057732     -4.864803     10.844263
  C       3.029061     -5.620329      9.347919
  H       3.813174     -5.103113      9.937535
  H       3.479534     -6.086194      8.447472
  H       2.540571     -6.397234      9.971953
  C       1.824346     -2.611454      7.194841
  H       2.491466     -1.803588      6.799709
  H       1.461705     -3.174332      6.302492
  P       0.917473     -0.867830      9.122923
  O       2.358141     -0.997931      9.616010
  O      -0.339799     -1.017336      9.966668
  O       0.687060     -2.113910      7.884319
  O       0.865914      0.521439      8.152245
  C      -0.414404      1.028986      7.737063
  H      -0.337929      2.143420      7.708965
  H      -1.209524      0.746359      8.468733
  C      -0.811548      0.511393      6.332551
  H      -0.748970     -0.596845      6.302368
  O       0.136576      1.074746      5.351779
  C       0.882686      0.230640      4.573842
  O       0.832667     -0.993761      4.607493
  C       1.802167      1.025211      3.630206
  H       2.848875      0.872510      3.992848
  H       1.582975      2.110471      3.719861
  C      -2.217608      0.977433      5.922618
  H      -2.283933      2.088576      5.864897
  H      -2.971879      0.628404      6.667723
  O      -2.514249      0.393809      4.614883
  C      -3.612685      0.879549      3.943590
  O      -4.354039      1.747339      4.382628
  C      -3.759833      0.169570      2.587164
  H      -2.774994      0.214604      2.069363
  H      -3.921086     -0.917345      2.792011
  C       1.692844      0.525197      2.162242
  H       0.670593      0.755517      1.773793
  H       1.777052     -0.585876      2.167130
  C       2.757244      1.113048      1.197945
  H       2.652673      0.590625      0.219505
  H       3.778329      0.859420      1.580427
  C       2.662499      2.646870      0.982563
  H       2.783538      3.169243      1.961232
  H       1.633463      2.903726      0.626219
  C       3.705926      3.229706     -0.011828
  H       4.737254      2.985765      0.347141
  H       3.636217      4.345026      0.014723
  C       3.543809      2.756160     -1.479222
  H       2.489795      2.919571     -1.806540
  H       3.713314      1.656945     -1.555321
  C       4.497207      3.489236     -2.474041
  H       5.549142      3.359769     -2.118760
  H       4.288735      4.583738     -2.432137
  C       4.384605      2.964956     -3.897869
  H       4.928082      2.018366     -4.098679
  C       3.666330      3.499494     -4.918256
  H       3.679458      2.957871     -5.885622
  C       2.805724      4.753412     -4.867756
  H       2.957114      5.344281     -5.804837
  H       3.126459      5.412857     -4.029228
  C       1.275809      4.466306     -4.709335
  H       0.749063      5.438311     -4.545379
  H       1.116988      3.868127     -3.780280
  C       0.622308      3.735965     -5.910428
  H       1.135515      2.759458     -6.087940
  H       0.780925      4.339106     -6.838668
  C      -0.894926      3.475230     -5.716047
  H      -1.414482      4.442761     -5.502201
  H      -1.037972      2.847288     -4.804862
  C      -1.567028      2.790527     -6.935757
  H      -1.077638      1.801219     -7.116228
  H      -1.356426      3.397589     -7.850013
  C      -3.102733      2.589122     -6.812155
  H      -3.483923      2.162229     -7.772400
  H      -3.599028      3.586164     -6.704915
  C      -3.552054      1.672073     -5.642927
  H      -3.248983      2.125274     -4.670088
  H      -3.006283      0.699184     -5.705555
  C      -5.077737      1.410103     -5.620882
  H      -5.369738      0.762397     -4.761767
  H      -5.417428      0.904593     -6.555851
  H      -5.653140      2.361853     -5.532952
  C      -4.909923      0.736794      1.717326
  H      -4.783779      1.839693      1.602641
  H      -5.859953      0.611679      2.286132
  C      -5.052008      0.073147      0.312061
  H      -6.127518      0.103917      0.016940
  H      -4.792576     -1.012642      0.380194
  C      -4.236192      0.737754     -0.833805
  H      -4.571593      1.799671     -0.939996
  H      -4.507206      0.239702     -1.797724
  C      -2.693242      0.709692     -0.682207
  H      -2.389944      1.282550      0.226763
  H      -2.359034     -0.342317     -0.512887
  C      -1.951646      1.306807     -1.906562
  H      -2.170021      0.694718     -2.813818
  H      -2.366521      2.323543     -2.114954
  C      -0.404697      1.435708     -1.726438
  H      -0.218726      2.093176     -0.840258
  H       0.010980      1.976950     -2.603895
  C       0.311173      0.110061     -1.524432
  H       0.042364     -0.436871     -0.599109
  C       1.226086     -0.465760     -2.344925
  H       1.630801     -1.455616     -2.045094
  C       1.772721      0.067830     -3.659011
  H       2.888016      0.087059     -3.602423
  H       1.463757      1.122859     -3.825814
  C       1.363878     -0.794391     -4.893174
  H       1.730329     -1.838763     -4.744117
  H       1.904816     -0.408222     -5.792305
  C      -0.159898     -0.794942     -5.175164
  H      -0.703393     -1.217881     -4.298017
  H      -0.508204      0.261875     -5.256295
  C      -0.573500     -1.543232     -6.473986
  H      -1.680312     -1.449094     -6.602473
  H      -0.123083     -1.018973     -7.352539
  C      -0.189130     -3.048561     -6.538952
  H       0.921515     -3.157481     -6.489311
  H      -0.480083     -3.448481     -7.541182
  C      -0.839383     -3.926752     -5.439756
  H      -0.551788     -3.549092     -4.428262
  H      -1.952179     -3.822981     -5.495905
  C      -0.458281     -5.426490     -5.537445
  H      -0.734509     -5.815222     -6.548767
  H       0.653358     -5.526535     -5.469919
  C      -1.123604     -6.300467     -4.446265
  H      -0.844315     -5.953996     -3.423039
  H      -2.236351     -6.259013     -4.515836
  H      -0.821718     -7.369813     -4.532494
138
Coordinates from ORCA-job /wrk/rja7/qm_final_3_replicates/qm_final_1.1/qm/1/freq E -2722.586009987780
  N       1.990131     -4.597741      8.914494
  C       2.738445     -3.494966      8.082074
  H       3.474387     -4.038627      7.447466
  H       3.250763     -2.850708      8.824754
  C       0.910334     -5.283151      8.082435
  H       1.365764     -5.688206      7.155064
  H       0.478373     -6.109406      8.684696
  H       0.134365     -4.531114      7.842931
  C       1.336272     -4.017574     10.187503
  H       2.063325     -3.348860     10.686897
  H       0.447555     -3.417879      9.915985
  H       1.052863     -4.874781     10.834722
  C       3.032109     -5.621924      9.344529
  H       3.812440     -5.103569      9.938135
  H       3.487384     -6.084794      8.444984
  H       2.543556     -6.401472      9.965264
  C       1.826130     -2.611873      7.193909
  H       2.492754     -1.802219      6.801523
  H       1.466030     -3.173718      6.299968
  P       0.913741     -0.874833      9.125925
  O       2.352815     -1.005889      9.623077
  O      -0.345945     -1.026933      9.965579
  O       0.687202     -2.117153      7.882752
  O       0.864074      0.516733      8.158757
  C      -0.415721      1.025770      7.744314
  H      -0.338200      2.140183      7.718325
  H      -1.211329      0.742467      8.475185
  C      -0.812296      0.510645      6.338818
  H      -0.750890     -0.597707      6.307051
  O       0.138185      1.075006      5.360739
  C       0.879105      0.232146      4.576493
  O       0.819292     -0.992001      4.598881
  C       1.804707      1.028151      3.639963
  H       2.848555      0.876531      4.010959
  H       1.583660      2.113264      3.729445
  C      -2.218103      0.977775      5.928791
  H      -2.284430      2.089012      5.872856
  H      -2.972888      0.627492      6.672804
  O      -2.514429      0.395291      4.620517
  C      -3.610193      0.884179      3.947306
  O      -4.350946      1.752675      4.385927
  C      -3.755981      0.176014      2.589789
  H      -2.771031      0.223771      2.072266
  H      -3.915077     -0.911611      2.792437
  C       1.707436      0.529327      2.171056
  H       0.685677      0.753445      1.776480
  H       1.798212     -0.581393      2.175280
  C       2.774490      1.123645      1.213042
  H       2.681495      0.597019      0.236200
  H       3.795253      0.881836      1.604050
  C       2.664758      2.654800      0.986752
  H       2.777027      3.186269      1.961504
  H       1.634331      2.896401      0.624893
  C       3.704066      3.240206     -0.010578
  H       4.737178      3.004769      0.348855
  H       3.626705      4.355142      0.010914
  C       3.545720      2.757237     -1.475623
  H       2.491760      2.914515     -1.805547
  H       3.719346      1.658209     -1.545014
  C       4.496569      3.489825     -2.473249
  H       5.549216      3.362855     -2.119226
  H       4.286014      4.583986     -2.432718
  C       4.382433      2.963776     -3.896319
  H       4.924711      2.016397     -4.096555
  C       3.664261      3.498506     -4.916841
  H       3.676226      2.956356     -5.883885
  C       2.805727      4.753895     -4.866631
  H       2.956185      5.343277     -5.804789
  H       3.128332      5.414318     -4.029608
  C       1.275883      4.467474     -4.706364
  H       0.749014      5.439643     -4.544086
  H       1.117884      3.871109     -3.776097
  C       0.623101      3.734962     -5.906658
  H       1.135873      2.757846     -6.081688
  H       0.783936      4.336289     -6.835712
  C      -0.894681      3.474697     -5.715532
  H      -1.414901      4.442557     -5.504995
  H      -1.040136      2.848241     -4.803618
  C      -1.562592      2.788105     -6.936660
  H      -1.072334      1.798657     -7.113669
  H      -1.348156      3.394399     -7.850772
  C      -3.098905      2.585942     -6.820148
  H      -3.474829      2.158092     -7.782070
  H      -3.596174      3.582812     -6.716275
  C      -3.554271      1.669493     -5.652637
  H      -3.258053      2.124261     -4.678496
  H      -3.006859      0.696965     -5.710324
  C      -5.079783      1.405575     -5.639984
  H      -5.376415      0.759136     -4.781500
  H      -5.412797      0.897785     -6.576128
  H      -5.656847      2.356794     -5.557506
  C      -4.907375      0.742826      1.721337
  H      -4.781641      1.845583      1.605205
  H      -5.856328      0.618144      2.292000
  C      -5.052035      0.077187      0.317417
  H      -6.128061      0.107604      0.024159
  H      -4.792695     -1.008509      0.387264
  C      -4.239019      0.739997     -0.831619
  H      -4.572681      1.802515     -0.937096
  H      -4.514676      0.242116     -1.794300
  C      -2.695698      0.710135     -0.685136
  H      -2.388642      1.282464      0.222947
  H      -2.361961     -0.342231     -0.517130
  C      -1.957556      1.306380     -1.911790
  H      -2.180111      0.695135     -2.818573
  H      -2.370496      2.324165     -2.118569
  C      -0.410533      1.432328     -1.734971
  H      -0.221704      2.088504     -0.848218
  H       0.005088      1.973596     -2.612492
  C       0.302638      0.105070     -1.534764
  H       0.031203     -0.443387     -0.611122
  C       1.218644     -0.470497     -2.354032
  H       1.620960     -1.461513     -2.054913
  C       1.769242      0.063865     -3.666116
  H       2.884357      0.083063     -3.606760
  H       1.460834      1.119027     -3.833588
  C       1.362722     -0.797931     -4.901078
  H       1.726907     -1.842818     -4.750009
  H       1.906668     -0.413483     -5.799128
  C      -0.160217     -0.795286     -5.186284
  H      -0.706278     -1.215185     -4.309319
  H      -0.505778      0.262158     -5.269999
  C      -0.573648     -1.546359     -6.483381
  H      -1.680014     -1.449939     -6.613337
  H      -0.121046     -1.025996     -7.363174
  C      -0.192622     -3.053074     -6.541887
  H       0.917914     -3.163930     -6.494753
  H      -0.487174     -3.457501     -7.541211
  C      -0.841109     -3.924104     -5.435517
  H      -0.548954     -3.541345     -4.427313
  H      -1.953843     -3.817973     -5.488121
  C      -0.463844     -5.425522     -5.525272
  H      -0.746856     -5.820252     -6.532353
  H       0.647971     -5.527502     -5.463507
  C      -1.124228     -6.290786     -4.423913
  H      -0.836622     -5.938817     -3.404881
  H      -2.237297     -6.246157     -4.485858
  H      -0.826351     -7.361611     -4.505657
138
Coordinates from ORCA-job /wrk/rja7/qm_final_3_replicates/qm_final_1.1/qm/1/freq E -2722.586016796108
  N       1.987386     -4.596927      8.920937
  C       2.736279     -3.496375      8.085760
  H       3.470126     -4.042411      7.450746
  H       3.251046     -2.852160      8.826914
  C       0.905207     -5.281903      8.091441
  H       1.358414     -5.687922      7.163413
  H       0.473517     -6.107298      8.695059
  H       0.129388     -4.529361      7.852875
  C       1.336745     -4.014263     10.194596
  H       2.065727     -3.345873     10.691716
  H       0.448500     -3.413623      9.923932
  H       1.053331     -4.870339     10.843333
  C       3.028456     -5.622200      9.350613
  H       3.810252     -5.104303      9.942669
  H       3.481993     -6.086462      8.450893
  H       2.539656     -6.400473      9.972677
  C       1.824979     -2.612288      7.197199
  H       2.492919     -1.804384      6.803384
  H       1.463541     -3.174555      6.303919
  P       0.915551     -0.870232      9.126239
  O       2.355524     -1.000565      9.621381
  O      -0.342815     -1.021140      9.968279
  O       0.687105     -2.115002      7.885590
  O       0.864150      0.519986      8.157275
  C      -0.416759      1.026312      7.742628
  H      -0.342283      2.140967      7.716705
  H      -1.211642      0.740923      8.473464
  C      -0.812144      0.509940      6.337350
  H      -0.745168     -0.598041      6.305178
  O       0.133712      1.078896      5.357565
  C       0.883038      0.239305      4.577768
  O       0.838850     -0.985354      4.609929
  C       1.801537      1.040171      3.638264
  H       2.845850      0.906470      4.015179
  H       1.565119      2.122795      3.718216
  C      -2.220891      0.970336      5.929483
  H      -2.292168      2.081242      5.873605
  H      -2.972872      0.616728      6.674767
  O      -2.517149      0.387704      4.621232
  C      -3.613505      0.876562      3.948519
  O      -4.354709      1.744182      4.388083
  C      -3.757929      0.171040      2.589491
  H      -2.772182      0.219410      2.073897
  H      -3.918238     -0.916790      2.789954
  C       1.717691      0.528587      2.172933
  H       0.696297      0.738925      1.770326
  H       1.819709     -0.581014      2.186279
  C       2.783477      1.127485      1.216380
  H       2.697739      0.596857      0.240892
  H       3.804571      0.894440      1.611507
  C       2.664610      2.657709      0.986590
  H       2.771381      3.191353      1.960861
  H       1.633887      2.893119      0.621722
  C       3.702473      3.247468     -0.009510
  H       4.736267      3.017094      0.351359
  H       3.620076      4.362022      0.010721
  C       3.545915      2.763626     -1.474362
  H       2.491070      2.917763     -1.804253
  H       3.723115      1.665128     -1.543251
  C       4.495479      3.497124     -2.472703
  H       5.548318      3.372592     -2.118332
  H       4.282686      4.590905     -2.433388
  C       4.382698      2.968604     -3.895060
  H       4.925753      2.021141     -4.092871
  C       3.664502      3.500199     -4.917123
  H       3.677556      2.955857     -5.882949
  C       2.804626      4.754770     -4.870822
  H       2.956297      5.342438     -5.809852
  H       3.125568      5.417071     -4.034636
  C       1.274800      4.468200     -4.712145
  H       0.747853      5.440635     -4.551390
  H       1.115233      3.873159     -3.781364
  C       0.622154      3.734829     -5.911835
  H       1.135950      2.758342     -6.087415
  H       0.781590      4.336040     -6.841262
  C      -0.895035      3.473612     -5.718378
  H      -1.415211      4.441033     -5.505636
  H      -1.038036      2.846168     -4.806692
  C      -1.565858      2.788271     -6.938311
  H      -1.075422      1.799468     -7.118685
  H      -1.355515      3.396277     -7.852178
  C      -3.101694      2.585062     -6.815792
  H      -3.481952      2.158676     -7.776632
  H      -3.598783      3.581631     -6.708082
  C      -3.551585      1.666973     -5.647395
  H      -3.250704      2.120547     -4.674108
  H      -3.004577      0.694728     -5.709177
  C      -5.077001      1.403093     -5.628025
  H      -5.369874      0.756049     -4.768712
  H      -5.414433      0.896020     -6.562962
  H      -5.653531      2.354380     -5.542308
  C      -4.907124      0.740263      1.719796
  H      -4.779675      1.843071      1.605895
  H      -5.857472      0.615952      2.288256
  C      -5.049589      0.077616      0.314058
  H      -6.124909      0.109966      0.018518
  H      -4.791485     -1.008495      0.381764
  C      -4.232909      0.741733     -0.831673
  H      -4.563602      1.805407     -0.934773
  H      -4.508336      0.247394     -1.796257
  C      -2.689716      0.706963     -0.683650
  H      -2.381540      1.275565      0.226301
  H      -2.359208     -0.346886     -0.518757
  C      -1.949196      1.304995     -1.908236
  H      -2.171284      0.695266     -2.816188
  H      -2.361914      2.323242     -2.113399
  C      -0.401770      1.430339     -1.731025
  H      -0.212249      2.085905     -0.844022
  H       0.013725      1.972112     -2.608218
  C       0.312043      0.103128     -1.531579
  H       0.041437     -0.445486     -0.607745
  C       1.226955     -0.472511     -2.352222
  H       1.629838     -1.463416     -2.053515
  C       1.774651      0.061818     -3.665604
  H       2.889925      0.079600     -3.608389
  H       1.467196      1.117538     -3.831724
  C       1.364875     -0.798843     -4.900603
  H       1.729057     -1.843947     -4.751378
  H       1.907109     -0.413435     -5.799263
  C      -0.158895     -0.796607     -5.182865
  H      -0.702672     -1.218942     -4.305657
  H      -0.505347      0.260759     -5.263342
  C      -0.574079     -1.545152     -6.481153
  H      -1.680268     -1.447285     -6.611081
  H      -0.120602     -1.023620     -7.359790
  C      -0.194514     -3.052228     -6.543591
  H       0.915604     -3.164534     -6.491340
  H      -0.484448     -3.451848     -7.546206
  C      -0.850237     -3.928434     -5.445548
  H      -0.564433     -3.551173     -4.433455
  H      -1.962595     -3.821722     -5.504700
  C      -0.473088     -5.429525     -5.541763
  H      -0.747906     -5.817428     -6.553788
  H       0.638090     -5.532526     -5.471432
  C      -1.143797     -6.301960     -4.452347
  H      -0.864837     -5.957521     -3.428363
  H      -2.256238     -6.255834     -4.523867
  H      -0.846148     -7.372446     -4.539172
138
Coordinates from ORCA-job /wrk/rja7/qm_final_3_replicates/qm_final_1.1/qm/1/freq E -2722.586022274550
  N       1.986188     -4.601598      8.912998
  C       2.735273     -3.499774      8.079765
  H       3.469282     -4.044822      7.444085
  H       3.249781     -2.856704      8.822069
  C       0.904603     -5.285606      8.082004
  H       1.358376     -5.690091      7.153579
  H       0.472837     -6.111984      8.684218
  H       0.128745     -4.532875      7.844188
  C       1.334813     -4.020727     10.187085
  H       2.063313     -3.352541     10.685203
  H       0.446363     -3.420167      9.916812
  H       1.051601     -4.877711     10.834702
  C       3.027278     -5.627225      9.341782
  H       3.808720     -5.109953      9.934862
  H       3.481285     -6.090262      8.441663
  H       2.538357     -6.406385      9.962659
  C       1.824042     -2.614521      7.192312
  H       2.492095     -1.806038      6.799875
  H       1.462911     -3.175511      6.298140
  P       0.914401     -0.874992      9.123484
  O       2.354160     -1.006538      9.618920
  O      -0.344289     -1.026624      9.964895
  O       0.686045     -2.118155      7.881135
  O       0.863930      0.516452      8.156244
  C      -0.416405      1.024341      7.741472
  H      -0.340739      2.138937      7.716624
  H      -1.211892      0.739098      8.471693
  C      -0.811690      0.509601      6.335550
  H      -0.746503     -0.598482      6.302829
  O       0.135685      1.077583      5.356730
  C       0.882696      0.236799      4.576006
  O       0.834970     -0.987727      4.606857
  C       1.802720      1.035543      3.636175
  H       2.847483      0.894181      4.009022
  H       1.573148      2.119244      3.720246
  C      -2.219123      0.972672      5.926644
  H      -2.288348      2.083733      5.870906
  H      -2.972485      0.620353      6.671139
  O      -2.514453      0.390857      4.617893
  C      -3.611433      0.878569      3.945493
  O      -4.353950      1.744814      4.385548
  C      -3.754588      0.173416      2.586214
  H      -2.769176      0.224678      2.070215
  H      -3.911850     -0.914954      2.786180
  C       1.710879      0.528820      2.169625
  H       0.689082      0.745449      1.771322
  H       1.807470     -0.581283      2.179215
  C       2.776152      1.125047      1.210878
  H       2.685811      0.596139      0.234806
  H       3.797440      0.887557      1.602958
  C       2.662482      2.656055      0.984132
  H       2.772131      3.187511      1.959253
  H       1.631996      2.895846      0.621046
  C       3.701703      3.244173     -0.011506
  H       4.734943      3.010817      0.348991
  H       3.622091      4.358922      0.009973
  C       3.544283      2.762485     -1.476946
  H       2.489536      2.917887     -1.806199
  H       3.720451      1.663932     -1.547580
  C       4.494369      3.496861     -2.474208
  H       5.546990      3.371727     -2.119400
  H       4.281873      4.590657     -2.433895
  C       4.382128      2.969785     -3.897035
  H       4.925673      2.022805     -4.095735
  C       3.664181      3.502361     -4.918694
  H       3.677634      2.959108     -5.885126
  C       2.804002      4.756686     -4.871211
  H       2.955660      5.345200     -5.809713
  H       3.124708      5.418292     -4.034381
  C       1.274244      4.469712     -4.712758
  H       0.747158      5.441827     -4.550590
  H       1.115081      3.873286     -3.782746
  C       0.621723      3.737476     -5.913205
  H       1.135782      2.761298     -6.089709
  H       0.781064      4.339636     -6.842043
  C      -0.895498      3.476049     -5.720244
  H      -1.415747      4.443410     -5.507403
  H      -1.038781      2.848462     -4.808756
  C      -1.565800      2.790557     -6.940336
  H      -1.075387      1.801666     -7.120249
  H      -1.355252      3.398259     -7.854269
  C      -3.101667      2.587461     -6.818268
  H      -3.481593      2.160579     -7.779012
  H      -3.598717      3.584143     -6.711262
  C      -3.551948      1.670029     -5.649579
  H      -3.251422      2.124079     -4.676411
  H      -3.004917      0.697716     -5.710656
  C      -5.077365      1.406051     -5.630702
  H      -5.370490      0.759332     -4.771226
  H      -5.414386      0.898529     -6.565536
  H      -5.653971      2.357342     -5.545625
  C      -4.905714      0.739930      1.717420
  H      -4.780516      1.842919      1.602714
  H      -5.855256      0.614057      2.286863
  C      -5.047916      0.076073      0.312261
  H      -6.123500      0.105779      0.017406
  H      -4.787267     -1.009386      0.380661
  C      -4.233171      0.741059     -0.834318
  H      -4.567055      1.803590     -0.939058
  H      -4.506910      0.244510     -1.798237
  C      -2.689917      0.711321     -0.685613
  H      -2.384075      1.282551      0.223535
  H      -2.356198     -0.341199     -0.518622
  C      -1.950733      1.309136     -1.911093
  H      -2.171289      0.697214     -2.817932
  H      -2.365708      2.326063     -2.118156
  C      -0.403683      1.438117     -1.733937
  H      -0.215478      2.096300     -0.848606
  H       0.011008      1.978380     -2.612422
  C       0.312453      0.112682     -1.530799
  H       0.043505     -0.433499     -0.605076
  C       1.227773     -0.463890     -2.350322
  H       1.632605     -1.453184     -2.048938
  C       1.773636      0.067351     -3.665729
  H       2.888884      0.088012     -3.609111
  H       1.463515      1.121658     -3.835341
  C       1.364820     -0.798426     -4.897410
  H       1.729280     -1.842822     -4.743819
  H       1.907114     -0.416688     -5.797566
  C      -0.158904     -0.797528     -5.179829
  H      -0.702585     -1.216440     -4.300924
  H      -0.505530      0.259510     -5.264647
  C      -0.573949     -1.551448     -6.474981
  H      -1.680233     -1.454729     -6.605068
  H      -0.120923     -1.033292     -7.355849
  C      -0.193415     -3.058403     -6.531102
  H       0.916901     -3.169652     -6.480561
  H      -0.485170     -3.463241     -7.531082
  C      -0.845904     -3.929146     -5.426894
  H      -0.557885     -3.546143     -4.417581
  H      -1.958472     -3.823418     -5.483870
  C      -0.467925     -5.430373     -5.515729
  H      -0.746156     -5.824457     -6.524424
  H       0.643584     -5.532139     -5.448815
  C      -1.133876     -6.296591     -4.418561
  H      -0.850970     -5.946045     -3.397732
  H      -2.246610     -6.251271     -4.485887
  H      -0.836142     -7.367451     -4.500318
138
Coordinates from ORCA-job /wrk/rja7/qm_final_3_replicates/qm_final_1.1/qm/1/freq E -2722.586027496470
  N       1.991621     -4.595129      8.924786
  C       2.738745     -3.493217      8.090021
  H       3.473747     -4.037727      7.455035
  H       3.251948     -2.848107      8.831374
  C       0.911995     -5.282295      8.094106
  H       1.367120     -5.686508      7.166241
  H       0.481624     -6.109048      8.696799
  H       0.134586     -4.531559      7.855055
  C       1.338267     -4.013354     10.197411
  H       2.065182     -3.343081     10.694955
  H       0.448903     -3.414915      9.925422
  H       1.056178     -4.869823     10.846188
  C       3.034504     -5.618017      9.355655
  H       3.814594     -5.098388      9.948460
  H       3.490018     -6.081350      8.456472
  H       2.546794     -6.397337      9.977305
  C       1.825452     -2.611189      7.201478
  H       2.492024     -1.802219      6.807555
  H       1.465018     -3.174330      6.308412
  P       0.913675     -0.870825      9.130942
  O       2.353174     -1.001050      9.627443
  O      -0.345334     -1.022169      9.971893
  O       0.686892     -2.115868      7.890122
  O       0.862790      0.519259      8.161930
  C      -0.417672      1.025907      7.745965
  H      -0.342593      2.140505      7.720611
  H      -1.213465      0.740743      8.475899
  C      -0.811709      0.510099      6.340037
  H      -0.748477     -0.598130      6.308998
  O       0.138435      1.075229      5.362196
  C       0.882355      0.232758      4.580279
  O       0.828775     -0.991588      4.607690
  C       1.804050      1.029253      3.640218
  H       2.849433      0.876389      4.006490
  H       1.584315      2.114435      3.731300
  C      -2.217645      0.975170      5.928152
  H      -2.285042      2.086331      5.871382
  H      -2.972858      0.624899      6.671700
  O      -2.511382      0.392274      4.619509
  C      -3.608197      0.878552      3.945799
  O      -4.352410      1.743706      4.385136
  C      -3.748849      0.172981      2.586389
  H      -2.763015      0.226893      2.071163
  H      -3.903492     -0.915784      2.786278
  C       1.700260      0.530976      2.171646
  H       0.678504      0.758773      1.779610
  H       1.787054     -0.580018      2.175134
  C       2.765810      1.122363      1.210205
  H       2.669281      0.595875      0.233514
  H       3.786980      0.878351      1.598748
  C       2.659869      2.654182      0.986046
  H       2.772854      3.183555      1.961890
  H       1.630141      2.899607      0.624083
  C       3.701660      3.238607     -0.009076
  H       4.733801      3.000656      0.351481
  H       3.626725      4.353689      0.013350
  C       3.543524      2.758521     -1.475035
  H       2.489476      2.916421     -1.804466
  H       3.717150      1.659611     -1.546893
  C       4.495005      3.492695     -2.471020
  H       5.547262      3.365710     -2.115812
  H       4.283981      4.586729     -2.429371
  C       4.382521      2.967913     -3.894535
  H       4.925246      2.020776     -4.094728
  C       3.664926      3.502906     -4.915213
  H       3.677757      2.961375     -5.882628
  C       2.805250      4.757525     -4.865110
  H       2.956614      5.347644     -5.802661
  H       3.126563      5.417558     -4.027263
  C       1.275363      4.470768     -4.706393
  H       0.748526      5.442698     -4.542327
  H       1.116630      3.872671     -3.777315
  C       0.622699      3.740381     -5.907871
  H       1.136798      2.764437     -6.085723
  H       0.782344      4.343898     -6.835790
  C      -0.894772      3.478843     -5.716531
  H      -1.415468      4.446154     -5.504604
  H      -1.039207      2.851435     -4.805159
  C      -1.562676      2.792856     -6.937645
  H      -1.070867      1.804529     -7.116822
  H      -1.351239      3.400877     -7.851090
  C      -3.098589      2.588169     -6.818907
  H      -3.475680      2.160375     -7.780365
  H      -3.596990      3.584376     -6.713689
  C      -3.551014      1.670716     -5.651106
  H      -3.254902      2.126126     -4.677272
  H      -3.001802      0.699358     -5.709549
  C      -5.075939      1.403570     -5.637533
  H      -5.370784      0.756670     -4.778776
  H      -5.408698      0.894841     -6.573239
  H      -5.654884      2.353683     -5.555020
  C      -4.901115      0.736439      1.716981
  H      -4.776767      1.839209      1.599056
  H      -5.850039      0.611606      2.287627
  C      -5.044345      0.068226      0.313968
  H      -6.120358      0.095448      0.020513
  H      -4.782008     -1.016629      0.385514
  C      -4.232331      0.730596     -0.836023
  H      -4.567481      1.792444     -0.943649
  H      -4.506955      0.230767     -1.797987
  C      -2.689087      0.703504     -0.688499
  H      -2.384078      1.277049      0.219375
  H      -2.353618     -0.348144     -0.519491
  C      -1.951139      1.299724     -1.915402
  H      -2.171852      0.686192     -2.821074
  H      -2.366425      2.316168     -2.124162
  C      -0.404438      1.429860     -1.738526
  H      -0.216711      2.088379     -0.853332
  H       0.009876      1.970275     -2.617108
  C       0.312885      0.105025     -1.535484
  H       0.044870     -0.441447     -0.609675
  C       1.228756     -0.470289     -2.355282
  H       1.635129     -1.459063     -2.054275
  C       1.774580      0.062807     -3.669867
  H       2.889888      0.082215     -3.613543
  H       1.465636      1.117668     -3.837628
  C       1.364516     -0.800498     -4.902864
  H       1.725457     -1.846226     -4.749857
  H       1.909047     -0.419782     -5.802122
  C      -0.158843     -0.794659     -5.186768
  H      -0.704637     -1.214483     -4.309565
  H      -0.502525      0.263552     -5.269336
  C      -0.574367     -1.543596     -6.484580
  H      -1.680189     -1.443241     -6.615980
  H      -0.118381     -1.024169     -7.363166
  C      -0.197520     -3.051275     -6.544712
  H       0.912433     -3.165312     -6.492190
  H      -0.488227     -3.452256     -7.546539
  C      -0.853992     -3.923771     -5.444309
  H      -0.568284     -3.543442     -4.433320
  H      -1.966295     -3.816732     -5.503992
  C      -0.477346     -5.425163     -5.535781
  H      -0.752834     -5.816236     -6.546395
  H       0.633848     -5.528233     -5.465637
  C      -1.147576     -6.293406     -4.442907
  H      -0.866940     -5.946234     -3.420299
  H      -2.260047     -6.246174     -4.513212
  H      -0.851313     -7.364494     -4.526917
138
Coordinates from ORCA-job /wrk/rja7/qm_final_3_replicates/qm_final_1.1/qm/1/freq E -2722.586034598939
  N       1.988913     -4.603702      8.912796
  C       2.736896     -3.500018      8.081125
  H       3.471702     -4.043411      7.444979
  H       3.250078     -2.857026      8.824337
  C       0.910816     -5.289969      8.079326
  H       1.367241     -5.690785      7.150656
  H       0.480952     -6.118907      8.679337
  H       0.132590     -4.539645      7.841611
  C       1.333739     -4.024491     10.185739
  H       2.059725     -3.354643     10.685225
  H       0.444468     -3.426104      9.913592
  H       1.051364     -4.882280     10.832647
  C       3.031640     -5.626868      9.343323
  H       3.810329     -5.108053      9.938666
  H       3.489117     -6.087882      8.443951
  H       2.543364     -6.407871      9.962412
  C       1.824478     -2.615226      7.194326
  H       2.491988     -1.806050      6.802355
  H       1.464145     -3.176132      6.299796
  P       0.913297     -0.878444      9.127555
  O       2.352593     -1.010824      9.624228
  O      -0.345950     -1.031201      9.968023
  O       0.686186     -2.120705      7.883679
  O       0.863182      0.513886      8.162007
  C      -0.417210      1.021509      7.746741
  H      -0.342322      2.136201      7.724533
  H      -1.213272      0.734266      8.475542
  C      -0.810494      0.508896      6.339537
  H      -0.746791     -0.599256      6.306265
  O       0.139644      1.076347      5.363071
  C       0.883462      0.235261      4.579623
  O       0.831135     -0.989166      4.606234
  C       1.804690      1.032903      3.640040
  H       2.850191      0.880171      4.006007
  H       1.584537      2.117951      3.731800
  C      -2.216570      0.973958      5.928186
  H      -2.284153      2.085186      5.872423
  H      -2.971836      0.623057      6.671372
  O      -2.509651      0.392600      4.618766
  C      -3.607356      0.878414      3.946071
  O      -4.353320      1.740941      4.387563
  C      -3.745399      0.176872      2.584358
  H      -2.759485      0.236290      2.069949
  H      -3.896275     -0.913102      2.780411
  C       1.701005      0.534927      2.171336
  H       0.678990      0.762035      1.779463
  H       1.788746     -0.575978      2.174726
  C       2.766023      1.127224      1.209770
  H       2.671348      0.599309      0.233726
  H       3.787519      0.886122      1.599295
  C       2.656538      2.658385      0.983201
  H       2.766388      3.189792      1.958317
  H       1.626625      2.900135      0.619267
  C       3.698243      3.244113     -0.011176
  H       4.730484      3.008737      0.350781
  H       3.620779      4.359038      0.009942
  C       3.542803      2.762422     -1.476911
  H       2.488640      2.917303     -1.807568
  H       3.719308      1.663906     -1.547717
  C       4.493515      3.498448     -2.472437
  H       5.545767      3.373254     -2.116577
  H       4.280390      4.592064     -2.430393
  C       4.382492      2.973914     -3.896078
  H       4.926093      2.027222     -4.095974
  C       3.665164      3.508647     -4.917010
  H       3.678907      2.967564     -5.884670
  C       2.804809      4.762808     -4.867212
  H       2.956126      5.352779     -5.804853
  H       3.125603      5.423282     -4.029511
  C       1.275183      4.475043     -4.708910
  H       0.747472      5.446595     -4.545351
  H       1.116466      3.877311     -3.779578
  C       0.623733      3.743769     -5.910412
  H       1.138981      2.768426     -6.088100
  H       0.783724      4.347159     -6.838430
  C      -0.893625      3.481233     -5.720343
  H      -1.415112      4.448222     -5.508911
  H      -1.038138      2.853880     -4.808916
  C      -1.559950      2.794752     -6.941860
  H      -1.067172      1.806858     -7.120835
  H      -1.348860      3.403400     -7.854928
  C      -3.095912      2.588634     -6.824019
  H      -3.472374      2.161183     -7.785853
  H      -3.594908      3.584522     -6.718454
  C      -3.548477      1.670486     -5.656815
  H      -3.253787      2.126154     -4.682713
  H      -2.998368      0.699623     -5.714822
  C      -5.073155      1.401706     -5.645030
  H      -5.368401      0.755244     -4.786077
  H      -5.404308      0.891728     -6.580607
  H      -5.653019      2.351409     -5.564111
  C      -4.899368      0.739130      1.716549
  H      -4.776271      1.842035      1.598439
  H      -5.847441      0.613335      2.288374
  C      -5.043350      0.070753      0.313663
  H      -6.119561      0.097016      0.020936
  H      -4.779885     -1.013819      0.385259
  C      -4.232648      0.733359     -0.837158
  H      -4.567811      1.795207     -0.944714
  H      -4.508377      0.233547     -1.798812
  C      -2.689196      0.706804     -0.691159
  H      -2.383480      1.280930      0.216084
  H      -2.353072     -0.344605     -0.522090
  C      -1.953076      1.302610     -1.919376
  H      -2.173700      0.687133     -2.823727
  H      -2.370035      2.318112     -2.129288
  C      -0.406639      1.435753     -1.744083
  H      -0.218672      2.096994     -0.860894
  H       0.006363      1.974275     -2.624400
  C       0.313552      0.112919     -1.537245
  H       0.047023     -0.431363     -0.609749
  C       1.230785     -0.462591     -2.355411
  H       1.639929     -1.449242     -2.051276
  C       1.774048      0.067442     -3.672313
  H       2.889298      0.090157     -3.616698
  H       1.462064      1.120793     -3.843773
  C       1.364708     -0.801590     -4.901532
  H       1.725250     -1.846631     -4.742968
  H       1.909618     -0.425700     -5.802532
  C      -0.158739     -0.797119     -5.185168
  H      -0.703740     -1.212244     -4.305241
  H      -0.502452      0.260641     -5.273220
  C      -0.575041     -1.554194     -6.477987
  H      -1.680667     -1.453576     -6.610424
  H      -0.118042     -1.041271     -7.359875
  C      -0.199050     -3.062538     -6.527586
  H       0.910898     -3.176625     -6.475523
  H      -0.491183     -3.470567     -7.526125
  C      -0.854237     -3.926909     -5.419872
  H      -0.567093     -3.539243     -4.412110
  H      -1.966613     -3.820086     -5.478700
  C      -0.477993     -5.428996     -5.501011
  H      -0.757054     -5.827670     -6.507665
  H       0.633422     -5.531578     -5.433853
  C      -1.144602     -6.288694     -4.399157
  H      -0.858592     -5.935169     -3.380229
  H      -2.257287     -6.239811     -4.464714
  H      -0.850663     -7.360844     -4.477494
138
Coordinates from ORCA-job /wrk/rja7/qm_final_3_replicates/qm_final_1.1/qm/1/freq E -2722.586043961934
  N       1.989710     -4.600722      8.926637
  C       2.736701     -3.496743      8.094277
  H       3.471948     -4.040085      7.458595
  H       3.249056     -2.852901      8.837311
  C       0.914281     -5.290566      8.092655
  H       1.372343     -5.689294      7.163915
  H       0.486849     -6.121001      8.692293
  H       0.133448     -4.543024      7.854615
  C       1.331787     -4.021290     10.198279
  H       2.055413     -3.348495     10.697276
  H       0.441182     -3.425977      9.924120
  H       1.051424     -4.879052     10.846109
  C       3.033971     -5.621073      9.359952
  H       3.810110     -5.099997      9.956650
  H       3.494564     -6.081299      8.461775
  H       2.546325     -6.402936      9.978434
  C       1.824175     -2.613173      7.205941
  H       2.491790     -1.804386      6.813308
  H       1.465341     -3.175427      6.311550
  P       0.910224     -0.874340      9.136229
  O       2.348831     -1.006571      9.635238
  O      -0.350093     -1.026290      9.975455
  O       0.684949     -2.118524      7.893240
  O       0.861277      0.516762      8.169236
  C      -0.418893      1.023368      7.751638
  H      -0.345424      2.138195      7.730522
  H      -1.216016      0.734782      8.478724
  C      -0.809162      0.510401      6.343920
  H      -0.741203     -0.597531      6.310579
  O       0.138834      1.081470      5.367510
  C       0.887563      0.243053      4.586106
  O       0.844457     -0.981683      4.617503
  C       1.803811      1.043770      3.644139
  H       2.850232      0.899549      4.010929
  H       1.576084      2.127604      3.732006
  C      -2.216673      0.970520      5.931959
  H      -2.287167      2.081526      5.874979
  H      -2.971338      0.618892      6.675370
  O      -2.507553      0.387519      4.622800
  C      -3.605760      0.870987      3.948916
  O      -4.355544      1.729986      4.390795
  C      -3.737210      0.173148      2.584725
  H      -2.750791      0.242249      2.072715
  H      -3.880430     -0.918566      2.776603
  C       1.704602      0.539643      2.176891
  H       0.682445      0.761415      1.782119
  H       1.796853     -0.570830      2.185158
  C       2.769172      1.132607      1.215249
  H       2.677869      0.601735      0.240477
  H       3.790815      0.895835      1.606948
  C       2.655682      2.662732      0.983806
  H       2.762043      3.197838      1.957357
  H       1.625768      2.900582      0.617307
  C       3.697325      3.247813     -0.010779
  H       4.729592      3.014392      0.352400
  H       3.618505      4.362667      0.007831
  C       3.542966      2.762894     -1.475536
  H       2.488661      2.915470     -1.807181
  H       3.721239      1.664444     -1.543939
  C       4.493337      3.498024     -2.472302
  H       5.545734      3.373394     -2.116604
  H       4.279932      4.591620     -2.430572
  C       4.381726      2.972579     -3.895464
  H       4.923864      2.024826     -4.094247
  C       3.665145      3.507401     -4.916760
  H       3.678190      2.965806     -5.884161
  C       2.806058      4.762428     -4.868337
  H       2.958611      5.351545     -5.806307
  H       3.127211      5.423291     -4.031056
  C       1.276226      4.476494     -4.710594
  H       0.749724      5.448661     -4.546506
  H       1.115949      3.878823     -3.781478
  C       0.623864      3.746964     -5.912393
  H       1.139713      2.772476     -6.092918
  H       0.783087      4.351812     -6.839728
  C      -0.893162      3.484208     -5.721706
  H      -1.414395      4.451042     -5.508895
  H      -1.036644      2.856274     -4.810466
  C      -1.560286      2.799200     -6.943169
  H      -1.066627      1.812273     -7.125025
  H      -1.352405      3.410362     -7.855207
  C      -3.095941      2.590917     -6.822474
  H      -3.474264      2.164718     -7.784106
  H      -3.595632      3.586207     -6.714267
  C      -3.545384      1.670966     -5.655416
  H      -3.250921      2.126996     -4.681426
  H      -2.993384      0.701337     -5.714665
  C      -5.069458      1.398790     -5.643027
  H      -5.363223      0.752868     -4.783168
  H      -5.400001      0.886769     -6.577682
  H      -5.651101      2.347558     -5.563430
  C      -4.893452      0.730357      1.716879
  H      -4.772703      1.833261      1.595983
  H      -5.840765      0.603937      2.289782
  C      -5.036637      0.058609      0.315437
  H      -6.113054      0.081083      0.023299
  H      -4.769595     -1.024949      0.388967
  C      -4.228159      0.720413     -0.837495
  H      -4.564928      1.781538     -0.947260
  H      -4.504063      0.218204     -1.797861
  C      -2.684457      0.696500     -0.692687
  H      -2.378947      1.271659      0.213989
  H      -2.346422     -0.354268     -0.523381
  C      -1.950256      1.292733     -1.921994
  H      -2.170510      0.675627     -2.825327
  H      -2.369246      2.307276     -2.132475
  C      -0.404087      1.428990     -1.748295
  H      -0.215625      2.090762     -0.865563
  H       0.007430      1.967894     -2.629080
  C       0.318954      0.107579     -1.541030
  H       0.053860     -0.436605     -0.613013
  C       1.236862     -0.466604     -2.359536
  H       1.648544     -1.451979     -2.054848
  C       1.777864      0.064134     -3.677172
  H       2.893173      0.086452     -3.622213
  H       1.466261      1.117694     -3.848046
  C       1.366734     -0.804569     -4.906268
  H       1.723412     -1.850679     -4.746137
  H       1.913782     -0.431662     -5.807129
  C      -0.156803     -0.795870     -5.190648
  H      -0.702331     -1.213885     -4.312419
  H      -0.498442      0.262923     -5.274052
  C      -0.574241     -1.547575     -6.486437
  H      -1.679013     -1.442105     -6.621398
  H      -0.112426     -1.033983     -7.365468
  C      -0.203551     -3.057192     -6.539791
  H       0.905630     -3.175265     -6.481825
  H      -0.491514     -3.460044     -7.541631
  C      -0.868364     -3.924333     -5.439880
  H      -0.587581     -3.541225     -4.428588
  H      -1.980079     -3.814835     -5.506150
  C      -0.495169     -5.426983     -5.525217
  H      -0.767269     -5.819789     -6.536098
  H       0.615419     -5.532549     -5.449774
  C      -1.173216     -6.290688     -4.433471
  H      -0.892768     -5.944838     -3.410388
  H      -2.285178     -6.236230     -4.506621
  H      -0.883571     -7.363620     -4.516754
138
Coordinates from ORCA-job /wrk/rja7/qm_final_3_replicates/qm_final_1.1/qm/1/freq E -2722.586046249907
  N       1.991049     -4.598592      8.929713
  C       2.737746     -3.495443      8.096006
  H       3.472147     -4.039473      7.459939
  H       3.250954     -2.851327      8.838210
  C       0.915680     -5.289529      8.096547
  H       1.373712     -5.688741      7.168013
  H       0.488627     -6.119663      8.696865
  H       0.134396     -4.542632      7.857909
  C       1.333204     -4.017827     10.200843
  H       2.056869     -3.344529     10.699093
  H       0.442657     -3.422818      9.925963
  H       1.052803     -4.874947     10.849497
  C       3.035507     -5.618352      9.363983
  H       3.811486     -5.096628      9.960307
  H       3.496320     -6.079143      8.466221
  H       2.548025     -6.399856      9.983031
  C       1.824633     -2.612214      7.207990
  H       2.492083     -1.803948      6.813967
  H       1.464793     -3.175061      6.314344
  P       0.912958     -0.871878      9.137954
  O       2.351983     -1.004101      9.635885
  O      -0.346626     -1.022813      9.978497
  O       0.686232     -2.117075      7.896168
  O       0.863487      0.518466      8.170008
  C      -0.417116      1.024419      7.752982
  H      -0.344048      2.139256      7.731203
  H      -1.213622      0.736010      8.480829
  C      -0.808365      0.510500      6.345908
  H      -0.740996     -0.597473      6.313354
  O       0.139474      1.080223      5.368445
  C       0.887106      0.241015      4.586859
  O       0.843438     -0.983719      4.618820
  C       1.803046      1.040926      3.643942
  H       2.849871      0.895547      4.009029
  H       1.576343      2.124944      3.732299
  C      -2.215939      0.970993      5.934467
  H      -2.285752      2.082026      5.876728
  H      -2.970438      0.620510      6.678565
  O      -2.507952      0.387429      4.625796
  C      -3.606583      0.871165      3.952733
  O      -4.356070      1.729940      4.395538
  C      -3.738481      0.174521      2.587942
  H      -2.752108      0.244297      2.075919
  H      -3.881687     -0.917374      2.778754
  C       1.701448      0.537311      2.176474
  H       0.679095      0.760536      1.783295
  H       1.792597     -0.573245      2.184541
  C       2.765557      1.129683      1.214062
  H       2.672895      0.599432      0.239076
  H       3.787380      0.891603      1.604494
  C       2.653189      2.660034      0.983415
  H       2.759398      3.194548      1.957314
  H       1.623579      2.898665      0.616602
  C       3.695456      3.245515     -0.010310
  H       4.727487      3.012345      0.353708
  H       3.616288      4.360335      0.008488
  C       3.542267      2.761068     -1.475321
  H       2.488138      2.913269     -1.807775
  H       3.721194      1.662742     -1.543872
  C       4.493006      3.496952     -2.471226
  H       5.545211      3.372456     -2.114921
  H       4.279194      4.590453     -2.428887
  C       4.382556      2.972398     -3.894817
  H       4.924725      2.024668     -4.093661
  C       3.666912      3.507956     -4.916393
  H       3.680678      2.966991     -5.884148
  C       2.808023      4.763142     -4.867982
  H       2.960747      5.352300     -5.805886
  H       3.129266      5.423903     -4.030658
  C       1.278141      4.477316     -4.710594
  H       0.751374      5.449628     -4.548085
  H       1.117347      3.880952     -3.780716
  C       0.626569      3.746253     -5.911880
  H       1.142602      2.771605     -6.091022
  H       0.786619      4.349950     -6.839847
  C      -0.890601      3.483834     -5.722156
  H      -1.412040      4.451052     -5.511546
  H      -1.034809      2.857586     -4.809864
  C      -1.556615      2.797068     -6.943243
  H      -1.062801      1.809912     -7.123416
  H      -1.347906      3.407161     -7.855744
  C      -3.092484      2.589052     -6.823844
  H      -3.469985      2.162114     -7.785462
  H      -3.592115      3.584518     -6.716962
  C      -3.543230      1.670169     -5.656462
  H      -3.249919      2.127162     -4.682628
  H      -2.991149      0.700531     -5.714191
  C      -5.067293      1.397851     -5.645570
  H      -5.361983      0.753001     -4.785216
  H      -5.396788      0.884615     -6.579919
  H      -5.649069      2.346703     -5.567767
  C      -4.894930      0.732618      1.720918
  H      -4.773234      1.835396      1.599729
  H      -5.841910      0.607199      2.294573
  C      -5.039805      0.060957      0.319610
  H      -6.116344      0.084907      0.028064
  H      -4.774155     -1.022953      0.393036
  C      -4.231307      0.721559     -0.833991
  H      -4.566255      1.783285     -0.943358
  H      -4.508993      0.219886     -1.794124
  C      -2.687552      0.695070     -0.690628
  H      -2.380255      1.269746      0.215701
  H      -2.351106     -0.356236     -0.521645
  C      -1.953490      1.290338     -1.920475
  H      -2.174732      0.673220     -2.823553
  H      -2.371757      2.305212     -2.130809
  C      -0.407154      1.425682     -1.747656
  H      -0.217770      2.086964     -0.864751
  H       0.004115      1.964725     -2.628423
  C       0.316133      0.104224     -1.541202
  H       0.051024     -0.440877     -0.613746
  C       1.234598     -0.468661     -2.360011
  H       1.646954     -1.454010     -2.056155
  C       1.775275      0.063891     -3.676989
  H       2.890561      0.086414     -3.621967
  H       1.463434      1.117567     -3.846442
  C       1.364576     -0.803263     -4.907344
  H       1.721325     -1.849543     -4.748392
  H       1.911898     -0.429061     -5.807501
  C      -0.158903     -0.794987     -5.191914
  H      -0.704057     -1.215299     -4.314558
  H      -0.501340      0.263699     -5.273041
  C      -0.575587     -1.544522     -6.489194
  H      -1.680326     -1.439114     -6.624465
  H      -0.113405     -1.029335     -7.367088
  C      -0.203951     -3.053836     -6.545124
  H       0.905301     -3.171188     -6.487117
  H      -0.491453     -3.454997     -7.547780
  C      -0.868214     -3.923795     -5.447124
  H      -0.588051     -3.542518     -4.434974
  H      -1.980021     -3.815225     -5.513351
  C      -0.493435     -5.425867     -5.535721
  H      -0.765228     -5.816687     -6.547461
  H       0.617263     -5.530389     -5.460629
  C      -1.170431     -6.292797     -4.445890
  H      -0.889336     -5.949661     -3.422073
  H      -2.282452     -6.238466     -4.518124
  H      -0.880516     -7.365397     -4.532383
138
Coordinates from ORCA-job /wrk/rja7/qm_final_3_replicates/qm_final_1.1/qm/1/freq E -2722.586048372341
  N       1.993376     -4.593804      8.933102
  C       2.739250     -3.490543      8.098896
  H       3.473612     -4.034383      7.462616
  H       3.252454     -2.846134      8.840833
  C       0.918538     -5.285936      8.100276
  H       1.376818     -5.685152      7.171860
  H       0.492142     -6.116186      8.700902
  H       0.136531     -4.539914      7.861262
  C       1.335080     -4.012981     10.204039
  H       2.058203     -3.338912     10.702029
  H       0.444107     -3.418811      9.928784
  H       1.055316     -4.870098     10.852967
  C       3.038572     -5.612633      9.367773
  H       3.814020     -5.090192      9.964163
  H       3.499968     -6.073131      8.470162
  H       2.551614     -6.394474      9.986804
  C       1.825363     -2.608035      7.210979
  H       2.492218     -1.799551      6.816362
  H       1.465593     -3.171359      6.317593
  P       0.913446     -0.867505      9.140473
  O       2.352403     -0.999512      9.638733
  O      -0.346224     -1.017823      9.980999
  O       0.686852     -2.113409      7.899337
  O       0.864252      0.522110      8.171503
  C      -0.416264      1.028230      7.754450
  H      -0.342487      2.142975      7.730995
  H      -1.212572      0.741452      8.483179
  C      -0.808938      0.512449      6.348471
  H      -0.742495     -0.595610      6.317499
  O       0.138869      1.079873      5.369501
  C       0.884229      0.239016      4.587630
  O       0.838052     -0.985649      4.619846
  C       1.800922      1.036932      3.643825
  H       2.847888      0.889579      4.007622
  H       1.576211      2.121364      3.732293
  C      -2.216364      0.973608      5.937200
  H      -2.284992      2.084650      5.877858
  H      -2.970966      0.625230      6.682157
  O      -2.509608      0.388309      4.629539
  C      -3.607991      0.872213      3.956221
  O      -4.357057      1.731597      4.398578
  C      -3.740177      0.174929      2.591742
  H      -2.754192      0.245702      2.079181
  H      -3.882116     -0.917063      2.782890
  C       1.696908      0.533692      2.176233
  H       0.674478      0.759005      1.784453
  H       1.786137     -0.577024      2.184317
  C       2.761448      1.124253      1.213329
  H       2.666588      0.595136      0.237929
  H       3.783062      0.883128      1.602447
  C       2.652763      2.655003      0.983509
  H       2.760323      3.188910      1.957587
  H       1.623738      2.896263      0.616897
  C       3.696220      3.238690     -0.010081
  H       4.727774      3.003473      0.353974
  H       3.619147      4.353648      0.009258
  C       3.542333      2.754947     -1.475219
  H       2.488752      2.909374     -1.808202
  H       3.719076      1.656272     -1.543823
  C       4.494774      3.489209     -2.470719
  H       5.546652      3.362429     -2.114244
  H       4.283161      4.583137     -2.427761
  C       4.383847      2.965789     -3.894671
  H       4.924704      2.017404     -4.093998
  C       3.669407      3.503164     -4.916145
  H       3.682882      2.962940     -5.884332
  C       2.812086      4.759417     -4.867195
  H       2.965146      5.348652     -5.804983
  H       3.134563      5.419535     -4.029818
  C       1.281870      4.475465     -4.709432
  H       0.756244      5.448500     -4.547379
  H       1.120270      3.879875     -3.779152
  C       0.629245      3.744885     -5.910450
  H       1.144290      2.769735     -6.089833
  H       0.789892      4.348350     -6.838491
  C      -0.888214      3.484340     -5.720619
  H      -1.408456      4.452266     -5.510224
  H      -1.033016      2.858677     -4.808027
  C      -1.555319      2.798517     -6.941666
  H      -1.062752      1.810843     -7.122335
  H      -1.346190      3.408715     -7.853996
  C      -3.091421      2.592279     -6.821843
  H      -3.469845      2.166424     -7.783574
  H      -3.589794      3.588286     -6.714127
  C      -3.542748      1.673246     -5.654811
  H      -3.248684      2.129445     -4.680865
  H      -2.991656      0.703087     -5.713274
  C      -5.067054      1.402301     -5.643576
  H      -5.362030      0.757607     -4.783194
  H      -5.397386      0.889501     -6.577860
  H      -5.647923      2.351690     -5.565339
  C      -4.897616      0.731746      1.725219
  H      -4.776324      1.834427      1.602711
  H      -5.844040      0.606653      2.299847
  C      -5.043426      0.058749      0.324672
  H      -6.120177      0.082362      0.033880
  H      -4.777538     -1.025057      0.398784
  C      -4.236002      0.718367     -0.830319
  H      -4.571264      1.779897     -0.940531
  H      -4.514340      0.215487     -1.789635
  C      -2.692115      0.692305     -0.688309
  H      -2.383937      1.268077      0.217023
  H      -2.355407     -0.358761     -0.518399
  C      -1.959063      1.286499     -1.919304
  H      -2.180635      0.668504     -2.821707
  H      -2.377613      2.301127     -2.130199
  C      -0.412714      1.422346     -1.747487
  H      -0.222992      2.083175     -0.864251
  H      -0.002099      1.961945     -2.628192
  C       0.311249      0.101054     -1.542128
  H       0.045951     -0.445331     -0.615497
  C       1.230537     -0.470149     -2.361210
  H       1.643561     -1.455537     -2.058388
  C       1.771518      0.064706     -3.677076
  H       2.886755      0.087654     -3.621312
  H       1.459267      1.118453     -3.845114
  C       1.362187     -0.800687     -4.909170
  H       1.720043     -1.846859     -4.751905
  H       1.909493     -0.424146     -5.808369
  C      -0.161224     -0.793835     -5.194058
  H      -0.705739     -1.217842     -4.318103
  H      -0.505360      0.264555     -5.271733
  C      -0.576590     -1.540204     -6.493569
  H      -1.681489     -1.436129     -6.628526
  H      -0.115087     -1.021807     -7.369932
  C      -0.202454     -3.048758     -6.553825
  H       0.907049     -3.164364     -6.497018
  H      -0.490101     -3.447670     -7.557341
  C      -0.864379     -3.923043     -5.457853
  H      -0.583782     -3.544448     -4.444820
  H      -1.976405     -3.815800     -5.522577
  C      -0.487580     -5.424289     -5.551591
  H      -0.760176     -5.812304     -6.564203
  H       0.623368     -5.527482     -5.478380
  C      -1.161823     -6.295712     -4.463639
  H      -0.878885     -5.956098     -3.439153
  H      -2.274020     -6.241889     -4.533439
  H      -0.871333     -7.367777     -4.554669
138
Coordinates from ORCA-job /wrk/rja7/qm_final_3_replicates/qm_final_1.1/qm/1/freq E -2722.586049927934
  N       1.994350     -4.590880      8.933136
  C       2.740462     -3.487529      8.099366
  H       3.474664     -4.031290      7.462819
  H       3.253812     -2.843590      8.841600
  C       0.919800     -5.282927      8.099905
  H       1.378374     -5.682189      7.171641
  H       0.493085     -6.113152      8.700354
  H       0.137877     -4.536921      7.860550
  C       1.335575     -4.010249     10.203990
  H       2.058331     -3.335872     10.702106
  H       0.444472     -3.416425      9.928433
  H       1.055978     -4.867506     10.852807
  C       3.039420     -5.609755      9.368021
  H       3.814533     -5.087395      9.964927
  H       3.501285     -6.069943      8.470486
  H       2.552240     -6.391831      9.986588
  C       1.826600     -2.604706      7.211797
  H       2.493394     -1.795987      6.817496
  H       1.466942     -3.167653      6.318140
  P       0.914740     -0.864758      9.141693
  O       2.353629     -0.997152      9.640117
  O      -0.345036     -1.014792      9.982094
  O       0.688007     -2.110458      7.900313
  O       0.866107      0.524729      8.172457
  C      -0.414144      1.031829      7.755820
  H      -0.338884      2.146421      7.730555
  H      -1.210179      0.747230      8.485712
  C      -0.809056      0.514436      6.351061
  H      -0.743301     -0.593692      6.321339
  O       0.138010      1.080064      5.370222
  C       0.880830      0.237773      4.587549
  O       0.832172     -0.986805      4.619780
  C       1.798001      1.033985      3.642828
  H       2.844958      0.886362      4.006565
  H       1.574008      2.118625      3.730458
  C      -2.216592      0.976107      5.940916
  H      -2.284285      2.087132      5.880071
  H      -2.970774      0.629592      6.687152
  O      -2.511799      0.389176      4.634393
  C      -3.608989      0.874790      3.960442
  O      -4.356262      1.736264      4.401792
  C      -3.742447      0.176505      2.596603
  H      -2.756966      0.247164      2.083030
  H      -3.883919     -0.915406      2.788475
  C       1.693482      0.529954      2.175513
  H       0.670903      0.755227      1.784029
  H       1.782458     -0.580783      2.184215
  C       2.758275      1.119641      1.212463
  H       2.662019      0.591445      0.236671
  H       3.779742      0.876525      1.600728
  C       2.652070      2.650709      0.983451
  H       2.760851      3.184125      1.957646
  H       1.623391      2.893937      0.617211
  C       3.696236      3.233152     -0.010224
  H       4.727512      2.996534      0.353712
  H       3.620598      4.348207      0.009534
  C       3.541747      2.749909     -1.475402
  H       2.488590      2.906087     -1.808826
  H       3.716774      1.650960     -1.543985
  C       4.495684      3.482701     -2.470581
  H       5.547238      3.354350     -2.113689
  H       4.285704      4.576956     -2.427568
  C       4.384841      2.959757     -3.894682
  H       4.924855      2.010885     -4.094028
  C       3.671738      3.498270     -4.916452
  H       3.685341      2.958399     -5.884836
  C       2.815577      4.755310     -4.867593
  H       2.969029      5.344356     -5.805422
  H       3.138768      5.415182     -4.030280
  C       1.285193      4.472532     -4.709811
  H       0.760072      5.446063     -4.548983
  H       1.122848      3.878177     -3.778841
  C       0.632306      3.741264     -5.910280
  H       1.146752      2.765650     -6.088932
  H       0.793695      4.343855     -6.838776
  C      -0.885381      3.482246     -5.720486
  H      -1.404755      4.450904     -5.511215
  H      -1.030791      2.857918     -4.807069
  C      -1.553252      2.796198     -6.940985
  H      -1.062363      1.807548     -7.120788
  H      -1.342921      3.405289     -7.853777
  C      -3.089753      2.592721     -6.821145
  H      -3.469000      2.167156     -7.782674
  H      -3.586294      3.589693     -6.713862
  C      -3.542624      1.675061     -5.653635
  H      -3.247483      2.131072     -4.679946
  H      -2.993390      0.703836     -5.711896
  C      -5.067409      1.406866     -5.641919
  H      -5.363258      0.763184     -4.781070
  H      -5.398959      0.894154     -6.575810
  H      -5.646538      2.357345     -5.563900
  C      -4.900670      0.732807      1.730842
  H      -4.779480      1.835420      1.607691
  H      -5.846603      0.607894      2.306323
  C      -5.047509      0.059246      0.330709
  H      -6.124472      0.082707      0.040672
  H      -4.781357     -1.024493      0.404788
  C      -4.241076      0.718609     -0.825129
  H      -4.576801      1.779959     -0.935624
  H      -4.519834      0.214999     -1.783944
  C      -2.697062      0.692896     -0.684374
  H      -2.387835      1.269318      0.220234
  H      -2.360131     -0.358034     -0.514016
  C      -1.965072      1.286508     -1.916292
  H      -2.187240      0.668161     -2.818318
  H      -2.383712      2.301093     -2.127159
  C      -0.418595      1.422160     -1.745598
  H      -0.228271      2.082318     -0.861950
  H      -0.008448      1.962204     -2.626223
  C       0.305104      0.100501     -1.541515
  H       0.039365     -0.446924     -0.615636
  C       1.224649     -0.469778     -2.360960
  H       1.637522     -1.455553     -2.059180
  C       1.766291      0.066863     -3.675781
  H       2.881448      0.090735     -3.618891
  H       1.453110      1.120446     -3.842976
  C       1.359208     -0.797294     -4.909490
  H       1.719615     -1.842893     -4.754125
  H       1.905844     -0.417489     -5.807714
  C      -0.164186     -0.793650     -5.194434
  H      -0.707377     -1.222126     -4.319847
  H      -0.511309      0.264010     -5.268452
  C      -0.577614     -1.537268     -6.496133
  H      -1.682795     -1.435587     -6.630649
  H      -0.117446     -1.015291     -7.371082
  C      -0.199793     -3.044707     -6.560499
  H       0.910078     -3.157678     -6.505520
  H      -0.487995     -3.442057     -7.564487
  C      -0.857988     -3.923226     -5.465663
  H      -0.575955     -3.546905     -4.452166
  H      -1.970314     -3.817493     -5.527721
  C      -0.478919     -5.423538     -5.564421
  H      -0.753879     -5.809403     -6.577228
  H       0.632422     -5.525048     -5.494835
  C      -1.148310     -6.299119     -4.476784
  H      -0.862113     -5.962219     -3.452305
  H      -2.260810     -6.246399     -4.542415
  H      -0.856827     -7.370533     -4.572129
138
Coordinates from ORCA-job /wrk/rja7/qm_final_3_replicates/qm_final_1.1/qm/1/freq E -2722.586050696963
  N       1.994944     -4.589477      8.931354
  C       2.741163     -3.485694      8.098261
  H       3.475264     -4.029162      7.461342
  H       3.254679     -2.842371      8.840912
  C       0.920274     -5.280902      8.097788
  H       1.378738     -5.679756      7.169288
  H       0.493419     -6.111386      8.697789
  H       0.138435     -4.534669      7.858879
  C       1.336350     -4.009576     10.202667
  H       2.059122     -3.335327     10.700946
  H       0.445122     -3.415721      9.927593
  H       1.057005     -4.867206     10.851097
  C       3.039941     -5.608716      9.365558
  H       3.815115     -5.086771      9.962751
  H       3.501746     -6.068376      8.467715
  H       2.552729     -6.391154      9.983644
  C       1.827409     -2.602210      7.211217
  H       2.494298     -1.793151      6.817714
  H       1.467909     -3.164435      6.317060
  P       0.915333     -0.863357      9.141961
  O       2.354216     -0.995994      9.640388
  O      -0.344477     -1.013807      9.982232
  O       0.688743     -2.108457      7.899935
  O       0.866681      0.526383      8.173082
  C      -0.413566      1.033933      7.756999
  H      -0.337549      2.148440      7.730725
  H      -1.209261      0.750474      8.487710
  C      -0.809900      0.515618      6.352970
  H      -0.744456     -0.592544      6.323955
  O       0.136671      1.080350      5.371090
  C       0.877669      0.237277      4.587497
  O       0.827479     -0.987232      4.619524
  C       1.795384      1.032579      3.642500
  H       2.842152      0.884542      4.006683
  H       1.572119      2.117393      3.729863
  C      -2.217626      0.977394      5.943636
  H      -2.285076      2.088382      5.882019
  H      -2.971351      0.631641      6.690697
  O      -2.514081      0.389473      4.637820
  C      -3.609786      0.876893      3.962806
  O      -4.355402      1.740471      4.402858
  C      -3.744096      0.177474      2.599630
  H      -2.758861      0.247489      2.085505
  H      -3.885667     -0.914257      2.792381
  C       1.690888      0.528340      2.175391
  H       0.668419      0.753821      1.783607
  H       1.779258     -0.582461      2.184115
  C       2.756194      1.117166      1.212318
  H       2.659280      0.589265      0.236449
  H       3.777455      0.873108      1.600528
  C       2.651615      2.648408      0.983492
  H       2.760964      3.181620      1.957722
  H       1.623301      2.892796      0.617133
  C       3.696433      3.229780     -0.010172
  H       4.727479      2.992094      0.353726
  H       3.621965      4.344916      0.009688
  C       3.541457      2.746738     -1.475365
  H       2.488571      2.904339     -1.808940
  H       3.715009      1.647556     -1.543910
  C       4.496431      3.478290     -2.470466
  H       5.547748      3.348833     -2.113271
  H       4.287634      4.572788     -2.427675
  C       4.385512      2.955284     -3.894531
  H       4.924891      2.005997     -4.093638
  C       3.673245      3.494260     -4.916642
  H       3.686847      2.954294     -5.884973
  C       2.817936      4.751900     -4.868214
  H       2.971703      5.340533     -5.806244
  H       3.141659      5.411822     -4.031133
  C       1.287378      4.470213     -4.710250
  H       0.762927      5.444173     -4.549795
  H       1.124570      3.876373     -3.779011
  C       0.633850      3.739082     -5.910488
  H       1.147582      2.763069     -6.089020
  H       0.795690      4.341362     -6.839118
  C      -0.884048      3.481419     -5.720534
  H      -1.402467      4.450541     -5.511033
  H      -1.029833      2.857191     -4.807100
  C      -1.552939      2.796312     -6.940997
  H      -1.063218      1.807173     -7.121282
  H      -1.342268      3.405414     -7.853740
  C      -3.089618      2.594502     -6.820561
  H      -3.469893      2.169877     -7.782093
  H      -3.584878      3.592025     -6.712491
  C      -3.542871      1.676798     -5.653236
  H      -3.246608      2.131964     -4.679486
  H      -2.994785      0.704975     -5.712322
  C      -5.067931      1.410259     -5.640709
  H      -5.363874      0.766382     -4.780030
  H      -5.400667      0.898442     -6.574666
  H      -5.646027      2.361286     -5.561674
  C      -4.902472      0.733447      1.733901
  H      -4.781279      1.836001      1.610324
  H      -5.848321      0.608769      2.309588
  C      -5.049511      0.059335      0.334042
  H      -6.126569      0.082252      0.044321
  H      -4.782783     -1.024249      0.408221
  C      -4.243716      0.718766     -0.822250
  H      -4.579834      1.779978     -0.932844
  H      -4.522643      0.214818     -1.780842
  C      -2.699620      0.693390     -0.682204
  H      -2.389820      1.270026      0.222094
  H      -2.362489     -0.357465     -0.511772
  C      -1.968307      1.286885     -1.914608
  H      -2.190981      0.668474     -2.816483
  H      -2.386959      2.301497     -2.125297
  C      -0.421739      1.422357     -1.744711
  H      -0.230961      2.082165     -0.860878
  H      -0.011941      1.962623     -2.625351
  C       0.301687      0.100401     -1.541566
  H       0.035605     -0.447787     -0.616242
  C       1.221296     -0.469364     -2.361303
  H       1.633845     -1.455514     -2.060297
  C       1.763477      0.068399     -3.675424
  H       2.878569      0.092933     -3.617742
  H       1.449621      1.121851     -3.842218
  C       1.357927     -0.795017     -4.910164
  H       1.720240     -1.840164     -4.756166
  H       1.903885     -0.412912     -5.807818
  C      -0.165490     -0.793687     -5.194897
  H      -0.707609     -1.224306     -4.320717
  H      -0.514615      0.263416     -5.267411
  C      -0.577852     -1.536631     -6.497312
  H      -1.683195     -1.436469     -6.631616
  H      -0.118521     -1.013164     -7.371820
  C      -0.197803     -3.043461     -6.563069
  H       0.912287     -3.154829     -6.509230
  H      -0.486449     -3.440618     -7.567005
  C      -0.853548     -3.923727     -5.468127
  H      -0.570579     -3.547911     -4.454701
  H      -1.966074     -3.819086     -5.528501
  C      -0.472952     -5.423514     -5.568695
  H      -0.749616     -5.809031     -6.581177
  H       0.638658     -5.523790     -5.501581
  C      -1.138923     -6.300708     -4.480250
  H      -0.850557     -5.964482     -3.456160
  H      -2.251626     -6.248952     -4.543137
  H      -0.846662     -7.371757     -4.577306
138
Coordinates from ORCA-job /wrk/rja7/qm_final_3_replicates/qm_final_1.1/qm/1/freq E -2722.586051234166
  N       1.995096     -4.589394      8.929159
  C       2.741757     -3.485289      8.096876
  H       3.475786     -4.028562      7.459705
  H       3.255384     -2.842612      8.840006
  C       0.920302     -5.279911      8.095013
  H       1.378735     -5.678226      7.166269
  H       0.493109     -6.110679      8.694384
  H       0.138739     -4.533227      7.856612
  C       1.336583     -4.010058     10.200792
  H       2.059368     -3.335955     10.699253
  H       0.445331     -3.416094      9.926044
  H       1.057326     -4.867952     10.848907
  C       3.039730     -5.609217      9.362851
  H       3.814978     -5.087844      9.960449
  H       3.501513     -6.068479      8.464788
  H       2.552217     -6.391889      9.980405
  C       1.828323     -2.600975      7.210283
  H       2.495514     -1.791678      6.817730
  H       1.468949     -3.162390      6.315589
  P       0.916159     -0.863198      9.142026
  O       2.355094     -0.996132      9.640249
  O      -0.343572     -1.014294      9.982303
  O       0.689651     -2.107561      7.899187
  O       0.867209      0.526986      8.173825
  C      -0.413148      1.034785      7.758322
  H      -0.336697      2.149245      7.731593
  H      -1.208505      0.751875      8.489605
  C      -0.810437      0.516118      6.354670
  H      -0.744902     -0.592045      6.325894
  O       0.135539      1.080785      5.372199
  C       0.875276      0.237545      4.587519
  O       0.824336     -0.986921      4.619037
  C       1.793019      1.032714      3.642365
  H       2.839636      0.884805      4.007138
  H       1.569924      2.117568      3.729700
  C      -2.218452      0.977688      5.946172
  H      -2.286101      2.088619      5.884126
  H      -2.971553      0.632109      6.693964
  O      -2.515960      0.389118      4.640882
  C      -3.609357      0.879378      3.964200
  O      -4.352635      1.745878      4.402459
  C      -3.744423      0.179003      2.601605
  H      -2.759248      0.248039      2.087159
  H      -3.886550     -0.912506      2.795110
  C       1.688999      0.528381      2.175460
  H       0.666669      0.753660      1.783055
  H       1.777167     -0.582450      2.183981
  C       2.754676      1.116933      1.212499
  H       2.657813      0.588986      0.236674
  H       3.775798      0.872895      1.601090
  C       2.650593      2.648247      0.983748
  H       2.759960      3.181341      1.958032
  H       1.622488      2.893037      0.617114
  C       3.695871      3.229185     -0.009694
  H       4.726759      2.991061      0.354371
  H       3.621908      4.344360      0.010064
  C       3.540978      2.746139     -1.474904
  H       2.488211      2.904234     -1.808635
  H       3.714009      1.646874     -1.543416
  C       4.496474      3.477196     -2.469856
  H       5.547629      3.347558     -2.112247
  H       4.287927      4.571753     -2.427449
  C       4.385903      2.953829     -3.893804
  H       4.925235      2.004435     -4.092528
  C       3.674031      3.492629     -4.916273
  H       3.687829      2.952430     -5.884467
  C       2.818835      4.750362     -4.868370
  H       2.972756      5.338677     -5.806573
  H       3.142494      5.410547     -4.031470
  C       1.288270      4.468778     -4.710483
  H       0.763810      5.442784     -4.550352
  H       1.125323      3.875219     -3.779089
  C       0.634810      3.737323     -5.910574
  H       1.148523      2.761249     -6.088812
  H       0.796824      4.339349     -6.839345
  C      -0.883116      3.479902     -5.720656
  H      -1.401366      4.449118     -5.511193
  H      -1.028956      2.855755     -4.807154
  C      -1.552216      2.794876     -6.941021
  H      -1.062976      1.805481     -7.121182
  H      -1.341292      3.403724     -7.853897
  C      -3.089026      2.593898     -6.820490
  H      -3.469719      2.169610     -7.782001
  H      -3.583570      3.591760     -6.712263
  C      -3.542770      1.676411     -5.653182
  H      -3.245881      2.131161     -4.679426
  H      -2.995547      0.704121     -5.712540
  C      -5.068042      1.411125     -5.640335
  H      -5.364258      0.767178     -4.779798
  H      -5.401459      0.899882     -6.574363
  H      -5.645370      2.362575     -5.560799
  C      -4.902551      0.735146      1.735696
  H      -4.780830      1.837585      1.611744
  H      -5.848483      0.611149      2.311412
  C      -5.049893      0.060466      0.336115
  H      -6.127052      0.082765      0.046751
  H      -4.782529     -1.022944      0.410424
  C      -4.244662      0.719927     -0.820553
  H      -4.580983      1.781069     -0.931198
  H      -4.523786      0.215834     -1.779016
  C      -2.700527      0.694631     -0.680962
  H      -2.390308      1.271106      0.223320
  H      -2.363350     -0.356254     -0.510785
  C      -1.969623      1.288264     -1.913551
  H      -2.192760      0.669987     -2.815413
  H      -2.388167      2.302977     -2.123975
  C      -0.422995      1.423407     -1.744134
  H      -0.231850      2.083092     -0.860296
  H      -0.013331      1.963638     -2.624857
  C       0.300005      0.101150     -1.541466
  H       0.033834     -0.447225     -0.616280
  C       1.219292     -0.468737     -2.361486
  H       1.631422     -1.455167     -2.060824
  C       1.761780      0.069326     -3.675351
  H       2.876823      0.094561     -3.617085
  H       1.447220      1.122550     -3.842300
  C       1.357430     -0.794026     -4.910541
  H       1.721284     -1.838748     -4.757289
  H       1.902793     -0.410394     -5.807891
  C      -0.166011     -0.794602     -5.195083
  H      -0.707255     -1.226616     -4.321061
  H      -0.516698      0.262030     -5.266779
  C      -0.577535     -1.537348     -6.497881
  H      -1.682893     -1.437867     -6.632504
  H      -0.118258     -1.013248     -7.372050
  C      -0.196470     -3.043908     -6.564072
  H       0.913693     -3.154600     -6.510349
  H      -0.485023     -3.441022     -7.568048
  C      -0.851468     -3.924904     -5.469217
  H      -0.568175     -3.549406     -4.455760
  H      -1.964052     -3.820506     -5.528995
  C      -0.470495     -5.424522     -5.570662
  H      -0.748153     -5.809806     -6.582961
  H       0.641226     -5.524446     -5.504814
  C      -1.134954     -6.302377     -4.481811
  H      -0.845395     -5.966630     -3.457903
  H      -2.247743     -6.250788     -4.543312
  H      -0.842596     -7.373313     -4.579810
138
Coordinates from ORCA-job /wrk/rja7/qm_final_3_replicates/qm_final_1.1/qm/1/freq E -2722.586051487633
  N       1.995676     -4.589275      8.928301
  C       2.742327     -3.484994      8.096198
  H       3.476302     -4.028163      7.458879
  H       3.256041     -2.842484      8.839413
  C       0.920640     -5.279381      8.094115
  H       1.378855     -5.677316      7.165106
  H       0.493521     -6.110364      8.693239
  H       0.139102     -4.532504      7.856242
  C       1.337520     -4.010212     10.200237
  H       2.060435     -3.336175     10.698602
  H       0.446183     -3.416190      9.925890
  H       1.058469     -4.868211     10.848299
  C       3.040265     -5.609351      9.361496
  H       3.815716     -5.088222      9.959045
  H       3.501789     -6.068461      8.463222
  H       2.552786     -6.392107      9.978970
  C       1.828858     -2.600410      7.209856
  H       2.496116     -1.790982      6.817660
  H       1.469482     -3.161532      6.314987
  P       0.916646     -0.863085      9.142076
  O       2.355695     -0.995907      9.639996
  O      -0.342906     -1.014700      9.982541
  O       0.690239     -2.107216      7.898946
  O       0.867073      0.527260      8.174213
  C      -0.413563      1.034721      7.759107
  H      -0.337356      2.149194      7.732305
  H      -1.208590      0.751659      8.490681
  C      -0.811109      0.515890      6.355574
  H      -0.745300     -0.592257      6.326872
  O       0.134492      1.080788      5.372911
  C       0.873867      0.237699      4.587661
  O       0.823002     -0.986760      4.618946
  C       1.791475      1.033096      3.642500
  H       2.838039      0.885263      4.007509
  H       1.568398      2.117942      3.730032
  C      -2.219413      0.977026      5.947535
  H      -2.287513      2.087901      5.885368
  H      -2.972007      0.631188      6.695740
  O      -2.517446      0.388114      4.642524
  C      -3.609116      0.880437      3.964524
  O      -4.350778      1.748985      4.401455
  C      -3.744588      0.179391      2.602316
  H      -2.759354      0.247665      2.087841
  H      -3.887247     -0.911948      2.796322
  C       1.687668      0.528888      2.175646
  H       0.665532      0.754442      1.782864
  H       1.775440     -0.581979      2.183963
  C       2.753682      1.117127      1.212759
  H       2.656966      0.588958      0.237062
  H       3.774681      0.873180      1.601737
  C       2.649856      2.648448      0.983886
  H       2.759034      3.181506      1.958212
  H       1.621907      2.893391      0.616940
  C       3.695498      3.229139     -0.009286
  H       4.726254      2.990796      0.355012
  H       3.621809      4.344333      0.010298
  C       3.540794      2.746030     -1.474525
  H       2.488073      2.904317     -1.808346
  H       3.713612      1.646728     -1.542995
  C       4.496562      3.476869     -2.469370
  H       5.547625      3.347168     -2.111521
  H       4.288105      4.571448     -2.427180
  C       4.386164      2.953259     -3.893252
  H       4.925391      2.003754     -4.091726
  C       3.674476      3.491951     -4.915917
  H       3.688293      2.951569     -5.884007
  C       2.819448      4.749809     -4.868346
  H       2.973504      5.337876     -5.806683
  H       3.143133      5.410169     -4.031595
  C       1.288832      4.468468     -4.710447
  H       0.764541      5.442554     -4.550281
  H       1.125844      3.874899     -3.779071
  C       0.635270      3.737075     -5.910520
  H       1.148790      2.760878     -6.088620
  H       0.797474      4.338990     -6.839331
  C      -0.882723      3.479953     -5.720715
  H      -1.400770      4.449232     -5.511074
  H      -1.028740      2.855605     -4.807375
  C      -1.551867      2.795209     -6.941207
  H      -1.062647      1.805831     -7.121538
  H      -1.340977      3.404189     -7.854010
  C      -3.088692      2.594305     -6.820680
  H      -3.469490      2.170388     -7.782310
  H      -3.583073      3.592205     -6.712065
  C      -3.542520      1.676484     -5.653672
  H      -3.245520      2.130851     -4.679766
  H      -2.995470      0.704119     -5.713354
  C      -5.067834      1.411442     -5.640877
  H      -5.364118      0.767106     -4.780656
  H      -5.401363      0.900693     -6.575138
  H      -5.645035      2.362930     -5.560879
  C      -4.902330      0.735761      1.736048
  H      -4.780086      1.838100      1.611797
  H      -5.848433      0.612429      2.311639
  C      -5.049765      0.060637      0.336653
  H      -6.126970      0.082493      0.047459
  H      -4.782025     -1.022663      0.411180
  C      -4.244801      0.720041     -0.820234
  H      -4.581103      1.781187     -0.930895
  H      -4.524080      0.215957     -1.778658
  C      -2.700660      0.694677     -0.680762
  H      -2.390399      1.270871      0.223679
  H      -2.363536     -0.356270     -0.510876
  C      -1.969765      1.288557     -1.913236
  H      -2.193178      0.670574     -2.815236
  H      -2.388103      2.303422     -2.123354
  C      -0.423109      1.423378     -1.743916
  H      -0.231777      2.082902     -0.860007
  H      -0.013419      1.963685     -2.624584
  C       0.299659      0.100947     -1.541664
  H       0.033538     -0.447638     -0.616585
  C       1.218679     -0.468929     -2.361991
  H       1.630618     -1.455541     -2.061659
  C       1.761238      0.069439     -3.675698
  H       2.876256      0.095068     -3.617183
  H       1.446322      1.122570     -3.842612
  C       1.357398     -0.793803     -4.911132
  H       1.721706     -1.838413     -4.758179
  H       1.902656     -0.409641     -5.808315
  C      -0.166024     -0.794960     -5.195749
  H      -0.707072     -1.227042     -4.321640
  H      -0.517156      0.261518     -5.267639
  C      -0.577155     -1.538048     -6.498472
  H      -1.682441     -1.438517     -6.633617
  H      -0.117453     -1.014189     -7.372566
  C      -0.196056     -3.044630     -6.564190
  H       0.914085     -3.155330     -6.509991
  H      -0.484209     -3.441938     -7.568201
  C      -0.851408     -3.925440     -5.469375
  H      -0.568492     -3.549712     -4.455900
  H      -1.963981     -3.821122     -5.529549
  C      -0.470304     -5.425056     -5.570408
  H      -0.747751     -5.810578     -6.582674
  H       0.641414     -5.524866     -5.504327
  C      -1.134912     -6.302740     -4.481511
  H      -0.845565     -5.966849     -3.457593
  H      -2.247691     -6.251209     -4.543253
  H      -0.842497     -7.373680     -4.579316
138
Coordinates from ORCA-job /wrk/rja7/qm_final_3_replicates/qm_final_1.1/qm/1/freq E -2722.586051642611
  N       1.996088     -4.589412      8.927851
  C       2.742716     -3.485069      8.095784
  H       3.476698     -4.028197      7.458444
  H       3.256418     -2.842550      8.839001
  C       0.920940     -5.279371      8.093651
  H       1.379059     -5.677042      7.164489
  H       0.493954     -6.110507      8.692654
  H       0.139372     -4.532428      7.856089
  C       1.338082     -4.010416     10.199882
  H       2.061043     -3.336386     10.698187
  H       0.446712     -3.416379      9.925677
  H       1.059115     -4.868419     10.847974
  C       3.040650     -5.609586      9.360859
  H       3.816184     -5.088560      9.958389
  H       3.502068     -6.068652      8.462509
  H       2.553176     -6.392361      9.978313
  C       1.829191     -2.600415      7.209541
  H       2.496459     -1.790956      6.817421
  H       1.469759     -3.161464      6.314650
  P       0.917047     -0.863243      9.142004
  O       2.356194     -0.995951      9.639646
  O      -0.342332     -1.015165      9.982688
  O       0.690637     -2.107300      7.898765
  O       0.866982      0.527179      8.174364
  C      -0.413872      1.034354      7.759513
  H      -0.337933      2.148848      7.732812
  H      -1.208676      0.751023      8.491217
  C      -0.811490      0.515550      6.355984
  H      -0.745434     -0.592580      6.327219
  O       0.133809      1.080759      5.373255
  C       0.873204      0.237923      4.587731
  O       0.822597     -0.986547      4.618818
  C       1.790563      1.033650      3.642581
  H       2.837160      0.885962      4.007564
  H       1.567325      2.118450      3.730315
  C      -2.220006      0.976366      5.948278
  H      -2.288440      2.087194      5.886001
  H      -2.972193      0.630328      6.696818
  O      -2.518468      0.387154      4.643506
  C      -3.608528      0.881386      3.964269
  O      -4.348654      1.751877      4.399926
  C      -3.744330      0.179773      2.602386
  H      -2.759028      0.247417      2.087911
  H      -3.887443     -0.911421      2.796798
  C       1.686825      0.529605      2.175680
  H       0.664806      0.755466      1.782780
  H       1.774390     -0.581275      2.183874
  C       2.753043      1.117768      1.212927
  H       2.656533      0.589456      0.237293
  H       3.773960      0.873882      1.602163
  C       2.649254      2.649078      0.984048
  H       2.758174      3.182063      1.958447
  H       1.621380      2.894039      0.616899
  C       3.695119      3.229810     -0.008827
  H       4.725788      2.991495      0.355736
  H       3.621400      4.345001      0.010632
  C       3.540785      2.746631     -1.474102
  H       2.488077      2.904732     -1.808073
  H       3.713806      1.647358     -1.542525
  C       4.496603      3.477605     -2.468793
  H       5.547632      3.348066     -2.110792
  H       4.287971      4.572148     -2.426656
  C       4.386418      2.953941     -3.892683
  H       4.925782      2.004508     -4.091113
  C       3.674646      3.492515     -4.915358
  H       3.688516      2.952137     -5.883449
  C       2.819474      4.750275     -4.867796
  H       2.973512      5.338370     -5.806121
  H       3.143029      5.410681     -4.031036
  C       1.288876      4.468731     -4.709966
  H       0.764462      5.442726     -4.549674
  H       1.125987      3.875007     -3.778678
  C       0.635477      3.737360     -5.910131
  H       1.149093      2.761207     -6.088185
  H       0.797707      4.339310     -6.838912
  C      -0.882492      3.480020     -5.720475
  H      -1.400700      4.449184     -5.510727
  H      -1.028497      2.855449     -4.807282
  C      -1.551408      2.795283     -6.941101
  H      -1.061929      1.806033     -7.121436
  H      -1.340597      3.404375     -7.853848
  C      -3.088213      2.594063     -6.820745
  H      -3.468854      2.170298     -7.782504
  H      -3.582750      3.591866     -6.711944
  C      -3.542061      1.675940     -5.653982
  H      -3.245137      2.130087     -4.679948
  H      -2.995004      0.703590     -5.713838
  C      -5.067378      1.410881     -5.641366
  H      -5.363740      0.766292     -4.781363
  H      -5.400815      0.900385     -6.575801
  H      -5.644586      2.362347     -5.561189
  C      -4.901714      0.736378      1.735794
  H      -4.778909      1.838607      1.611184
  H      -5.847953      0.613757      2.311319
  C      -5.049315      0.060806      0.336609
  H      -6.126569      0.082347      0.047592
  H      -4.781364     -1.022423      0.411421
  C      -4.244548      0.720011     -0.820516
  H      -4.580810      1.781157     -0.931292
  H      -4.523939      0.215848     -1.778865
  C      -2.700406      0.694625     -0.681067
  H      -2.390224      1.270651      0.223505
  H      -2.363291     -0.356352     -0.511348
  C      -1.969465      1.288679     -1.913419
  H      -2.192946      0.670850     -2.815509
  H      -2.387722      2.303609     -2.123404
  C      -0.422820      1.423428     -1.744046
  H      -0.231469      2.082924     -0.860128
  H      -0.013090      1.963773     -2.624679
  C       0.299946      0.100992     -1.541896
  H       0.034025     -0.447581     -0.616752
  C       1.218732     -0.468946     -2.362444
  H       1.630682     -1.455579     -2.062196
  C       1.761117      0.069415     -3.676224
  H       2.876123      0.095497     -3.617659
  H       1.445820      1.122414     -3.843288
  C       1.357559     -0.794099     -4.911550
  H       1.721995     -1.838637     -4.758409
  H       1.902846     -0.410016     -5.808750
  C      -0.165831     -0.795516     -5.196340
  H      -0.706924     -1.227294     -4.322103
  H      -0.517071      0.260894     -5.268702
  C      -0.576701     -1.539056     -6.498883
  H      -1.681889     -1.439231     -6.634580
  H      -0.116443     -1.015661     -7.372965
  C      -0.195981     -3.045767     -6.563917
  H       0.914097     -3.156781     -6.509017
  H      -0.483620     -3.443244     -7.568007
  C      -0.852240     -3.926120     -5.469272
  H      -0.569851     -3.550221     -4.455716
  H      -1.964751     -3.821571     -5.530178
  C      -0.471455     -5.425870     -5.569720
  H      -0.748298     -5.811512     -6.582101
  H       0.640190     -5.525944     -5.502824
  C      -1.137098     -6.303154     -4.481130
  H      -0.848419     -5.967178     -3.457053
  H      -2.249816     -6.251319     -4.543727
  H      -0.844929     -7.374197     -4.578546
138
Coordinates from ORCA-job /wrk/rja7/qm_final_3_replicates/qm_final_1.1/qm/1/freq E -2722.586051749179
  N       1.996683     -4.589350      8.927784
  C       2.743108     -3.484990      8.095546
  H       3.477094     -4.028093      7.458193
  H       3.256792     -2.842316      8.838645
  C       0.921411     -5.279380      8.093765
  H       1.379394     -5.676932      7.164488
  H       0.494668     -6.110597      8.692825
  H       0.139735     -4.532483      7.856419
  C       1.338866     -4.010348     10.199892
  H       2.061896     -3.336316     10.698097
  H       0.447454     -3.416306      9.925825
  H       1.059996     -4.868330     10.848055
  C       3.041354     -5.609475      9.360634
  H       3.816986     -5.088410      9.958005
  H       3.502617     -6.068565      8.462216
  H       2.554018     -6.392238      9.978214
  C       1.829376     -2.600495      7.209350
  H       2.496517     -1.791021      6.817046
  H       1.469855     -3.161668      6.314567
  P       0.917314     -0.863271      9.141850
  O       2.356558     -0.995752      9.639244
  O      -0.341897     -1.015368      9.982766
  O       0.690880     -2.107441      7.898698
  O       0.866804      0.527100      8.174237
  C      -0.414248      1.033993      7.759608
  H      -0.338578      2.148505      7.732947
  H      -1.208838      0.750431      8.491450
  C      -0.811981      0.515144      6.356128
  H      -0.745691     -0.592969      6.327329
  O       0.132977      1.080594      5.373238
  C       0.872630      0.237987      4.587719
  O       0.822387     -0.986502      4.618800
  C       1.789777      1.033987      3.642598
  H       2.836433      0.886516      4.007484
  H       1.566266      2.118727      3.730386
  C      -2.220715      0.975641      5.948760
  H      -2.289424      2.086426      5.886315
  H      -2.972523      0.629487      6.697638
  O      -2.519604      0.386070      4.644251
  C      -3.608268      0.881946      3.963936
  O      -4.347055      1.754126      4.398472
  C      -3.744401      0.179763      2.602377
  H      -2.759058      0.246902      2.087874
  H      -3.887837     -0.911308      2.797168
  C       1.686106      0.529978      2.175631
  H       0.664184      0.756138      1.782702
  H       1.773549     -0.580902      2.183898
  C       2.752506      1.118031      1.213025
  H       2.656079      0.589678      0.237398
  H       3.773342      0.873970      1.602370
  C       2.648919      2.649339      0.984153
  H       2.757751      3.182263      1.958601
  H       1.621092      2.894446      0.616942
  C       3.694946      3.230004     -0.008561
  H       4.725549      2.991654      0.356164
  H       3.621265      4.345197      0.010816
  C       3.540792      2.746775     -1.473850
  H       2.488098      2.904788     -1.807915
  H       3.713902      1.647511     -1.542213
  C       4.496688      3.477772     -2.468455
  H       5.547694      3.348236     -2.110387
  H       4.288052      4.572313     -2.426314
  C       4.386579      2.954133     -3.892371
  H       4.925909      2.004681     -4.090802
  C       3.674849      3.492777     -4.915039
  H       3.688699      2.952441     -5.883154
  C       2.819745      4.750582     -4.867450
  H       2.973825      5.338684     -5.805764
  H       3.143313      5.410966     -4.030682
  C       1.289127      4.469087     -4.709645
  H       0.764756      5.443091     -4.549267
  H       1.126264      3.875284     -3.778409
  C       0.635747      3.737802     -5.909859
  H       1.149296      2.761600     -6.087852
  H       0.798073      4.339727     -6.838635
  C      -0.882244      3.480495     -5.720313
  H      -1.400453      4.449645     -5.510507
  H      -1.028343      2.855796     -4.807231
  C      -1.551047      2.795832     -6.941057
  H      -1.061398      1.806671     -7.121433
  H      -1.340269      3.405039     -7.853726
  C      -3.087827      2.594399     -6.820837
  H      -3.468328      2.170759     -7.782706
  H      -3.582504      3.592116     -6.711883
  C      -3.541670      1.676028     -5.654269
  H      -3.244895      2.130060     -4.680137
  H      -2.994504      0.703743     -5.714212
  C      -5.066966      1.410815     -5.641849
  H      -5.363370      0.766070     -4.781980
  H      -5.400233      0.900420     -6.576401
  H      -5.644264      2.362221     -5.561626
  C      -4.901506      0.736527      1.735511
  H      -4.778276      1.838669      1.610603
  H      -5.847854      0.614452      2.310981
  C      -5.049192      0.060603      0.336485
  H      -6.126474      0.081941      0.047562
  H      -4.781149     -1.022585      0.411557
  C      -4.244533      0.719622     -0.820804
  H      -4.580799      1.780753     -0.931718
  H      -4.523939      0.215329     -1.779078
  C      -2.700395      0.694322     -0.681289
  H      -2.390396      1.270315      0.223360
  H      -2.363225     -0.356642     -0.511597
  C      -1.969376      1.288476     -1.913533
  H      -2.192844      0.670757     -2.815702
  H      -2.387589      2.303446     -2.123423
  C      -0.422736      1.423198     -1.744083
  H      -0.231397      2.082593     -0.860091
  H      -0.012964      1.963667     -2.624624
  C       0.300077      0.100771     -1.542086
  H       0.034317     -0.447881     -0.616943
  C       1.218726     -0.469092     -2.362837
  H       1.630765     -1.455734     -2.062731
  C       1.760934      0.069405     -3.676631
  H       2.875932      0.095892     -3.618044
  H       1.445313      1.122307     -3.843702
  C       1.357608     -0.794287     -4.911884
  H       1.721953     -1.838823     -4.758482
  H       1.903088     -0.410444     -5.809072
  C      -0.165726     -0.795716     -5.196990
  H      -0.707055     -1.227042     -4.322669
  H      -0.516874      0.260694     -5.269913
  C      -0.576340     -1.539707     -6.499345
  H      -1.681455     -1.439660     -6.635495
  H      -0.115635     -1.016754     -7.373454
  C      -0.195919     -3.046519     -6.563712
  H       0.914115     -3.157755     -6.508282
  H      -0.483162     -3.444227     -7.567826
  C      -0.852864     -3.926396     -5.469112
  H      -0.570929     -3.550215     -4.455534
  H      -1.965330     -3.821746     -5.530643
  C      -0.472224     -5.426237     -5.568873
  H      -0.748429     -5.812119     -6.581335
  H       0.639358     -5.526447     -5.501165
  C      -1.138775     -6.303093     -4.480493
  H      -0.850809     -5.966844     -3.456306
  H      -2.251440     -6.251137     -4.543938
  H      -0.846688     -7.374208     -4.577367
138
Coordinates from ORCA-job /wrk/rja7/qm_final_3_replicates/qm_final_1.1/qm/1/freq E -2722.586051817261
  N       1.997020     -4.589391      8.927676
  C       2.743296     -3.485013      8.095334
  H       3.477313     -4.028085      7.457993
  H       3.256927     -2.842219      8.838369
  C       0.921744     -5.279571      8.093762
  H       1.379700     -5.677089      7.164458
  H       0.495176     -6.110826      8.692891
  H       0.139966     -4.532768      7.856456
  C       1.339224     -4.010390     10.199782
  H       2.062276     -3.336400     10.698012
  H       0.447827     -3.416318      9.925730
  H       1.060330     -4.868370     10.847939
  C       3.041796     -5.609414      9.360510
  H       3.817426     -5.088269      9.957813
  H       3.503036     -6.068510      8.462084
  H       2.554558     -6.392185      9.978158
  C       1.829433     -2.600662      7.209142
  H       2.496463     -1.791192      6.816650
  H       1.469849     -3.161950      6.314452
  P       0.917459     -0.863371      9.141631
  O       2.356751     -0.995734      9.638895
  O      -0.341662     -1.015512      9.982675
  O       0.690963     -2.107617      7.898551
  O       0.866771      0.526957      8.174006
  C      -0.414352      1.033822      7.759548
  H      -0.338717      2.148333      7.732868
  H      -1.208820      0.750237      8.491513
  C      -0.812308      0.514944      6.356145
  H      -0.745915     -0.593162      6.327314
  O       0.132364      1.080500      5.373049
  C       0.872298      0.238017      4.587687
  O       0.822276     -0.986487      4.618815
  C       1.789319      1.034154      3.642589
  H       2.836031      0.886834      4.007351
  H       1.565587      2.118851      3.730343
  C      -2.221175      0.975312      5.949073
  H      -2.289955      2.086068      5.886399
  H      -2.972725      0.629238      6.698252
  O      -2.520487      0.385370      4.644825
  C      -3.608006      0.882580      3.963632
  O      -4.345663      1.756183      4.397220
  C      -3.744449      0.179887      2.602364
  H      -2.759110      0.246657      2.087775
  H      -3.888066     -0.911087      2.797499
  C       1.685659      0.530136      2.175559
  H       0.663760      0.756462      1.782690
  H       1.773093     -0.580737      2.183936
  C       2.752146      1.118152      1.213071
  H       2.655684      0.589899      0.237382
  H       3.772938      0.873818      1.602364
  C       2.648788      2.649477      0.984317
  H       2.757656      3.182313      1.958813
  H       1.620987      2.894768      0.617148
  C       3.694885      3.230112     -0.008333
  H       4.725460      2.991778      0.356474
  H       3.621181      4.345303      0.011028
  C       3.540836      2.746858     -1.473626
  H       2.488141      2.904730     -1.807750
  H       3.714091      1.647614     -1.541956
  C       4.496711      3.477953     -2.468182
  H       5.547720      3.348458     -2.110110
  H       4.288023      4.572481     -2.425979
  C       4.386665      2.954414     -3.892143
  H       4.926044      2.005005     -4.090641
  C       3.674942      3.493138     -4.914774
  H       3.688835      2.952902     -5.882944
  C       2.819797      4.750913     -4.867084
  H       2.973880      5.339116     -5.805334
  H       3.143325      5.411220     -4.030242
  C       1.289179      4.469341     -4.709357
  H       0.764762      5.443310     -4.548921
  H       1.126324      3.875459     -3.778169
  C       0.635884      3.738139     -5.909662
  H       1.149458      2.761955     -6.087687
  H       0.798233      4.340125     -6.838391
  C      -0.882102      3.480749     -5.720181
  H      -1.400373      4.449853     -5.510309
  H      -1.028198      2.855954     -4.807171
  C      -1.550850      2.796160     -6.941012
  H      -1.061106      1.807059     -7.121455
  H      -1.340085      3.405478     -7.853610
  C      -3.087610      2.594590     -6.820848
  H      -3.468031      2.171011     -7.782776
  H      -3.582399      3.592242     -6.711812
  C      -3.541407      1.676080     -5.654369
  H      -3.244711      2.130072     -4.680194
  H      -2.994152      0.703847     -5.714364
  C      -5.066685      1.410740     -5.642016
  H      -5.363079      0.765961     -4.782170
  H      -5.399864      0.900339     -6.576597
  H      -5.644044      2.362109     -5.561809
  C      -4.901397      0.736703      1.735327
  H      -4.777917      1.838786      1.610188
  H      -5.847802      0.614966      2.310779
  C      -5.049122      0.060510      0.336430
  H      -6.126416      0.081749      0.047541
  H      -4.781061     -1.022660      0.411716
  C      -4.244512      0.719353     -0.820987
  H      -4.580822      1.780453     -0.932053
  H      -4.523896      0.214881     -1.779172
  C      -2.700368      0.694182     -0.681454
  H      -2.390466      1.270282      0.223162
  H      -2.363109     -0.356739     -0.511669
  C      -1.969385      1.288298     -1.913732
  H      -2.192789      0.670515     -2.815873
  H      -2.387670      2.303229     -2.123669
  C      -0.422749      1.423148     -1.744304
  H      -0.231436      2.082541     -0.860305
  H      -0.013026      1.963673     -2.624833
  C       0.300198      0.100793     -1.542309
  H       0.034568     -0.447862     -0.617131
  C       1.218808     -0.469006     -2.363145
  H       1.630993     -1.455595     -2.063064
  C       1.760820      0.069516     -3.677011
  H       2.875814      0.096369     -3.618462
  H       1.444892      1.122318     -3.844149
  C       1.357670     -0.794446     -4.912109
  H       1.721962     -1.838955     -4.758383
  H       1.903278     -0.410890     -5.809341
  C      -0.165621     -0.795932     -5.197454
  H      -0.707148     -1.226905     -4.323075
  H      -0.516699      0.260474     -5.270816
  C      -0.576050     -1.540297     -6.499644
  H      -1.681133     -1.440184     -6.636020
  H      -0.115146     -1.017648     -7.373827
  C      -0.195787     -3.047166     -6.563508
  H       0.914223     -3.158519     -6.507789
  H      -0.482815     -3.445088     -7.567601
  C      -0.853149     -3.926669     -5.468872
  H      -0.571434     -3.550289     -4.455307
  H      -1.965583     -3.821904     -5.530754
  C      -0.472683     -5.426594     -5.568146
  H      -0.748501     -5.812649     -6.580647
  H       0.638852     -5.526956     -5.499918
  C      -1.139860     -6.303093     -4.479860
  H      -0.852343     -5.966605     -3.455625
  H      -2.252488     -6.251024     -4.543850
  H      -0.847861     -7.374271     -4.576307
138
Coordinates from ORCA-job /wrk/rja7/qm_final_3_replicates/qm_final_1.1/qm/1/freq E -2722.586051854679
  N       1.997247     -4.589421      8.927680
  C       2.743380     -3.485040      8.095223
  H       3.477398     -4.028097      7.457870
  H       3.256996     -2.842158      8.838194
  C       0.921986     -5.279760      8.093881
  H       1.379925     -5.677337      7.164591
  H       0.495518     -6.110997      8.693105
  H       0.140133     -4.533050      7.856527
  C       1.339454     -4.010409     10.199776
  H       2.062535     -3.336477     10.698041
  H       0.448086     -3.416293      9.925719
  H       1.060508     -4.868395     10.847904
  C       3.042136     -5.609324      9.360529
  H       3.817762     -5.088071      9.957743
  H       3.503358     -6.068449      8.462108
  H       2.555004     -6.392090      9.978266
  C       1.829398     -2.600833      7.209029
  H       2.496327     -1.791365      6.816361
  H       1.469766     -3.162232      6.314425
  P       0.917499     -0.863439      9.141453
  O       2.356819     -0.995713      9.638661
  O      -0.341579     -1.015556      9.982567
  O       0.690945     -2.107779      7.898473
  O       0.866758      0.526830      8.173746
  C      -0.414388      1.033736      7.759412
  H      -0.338707      2.148240      7.732650
  H      -1.208778      0.750226      8.491494
  C      -0.812577      0.514797      6.356101
  H      -0.746123     -0.593306      6.327268
  O       0.131870      1.080388      5.372797
  C       0.872067      0.237959      4.587641
  O       0.822230     -0.986554      4.618892
  C       1.789043      1.034154      3.642571
  H       2.835775      0.886950      4.007304
  H       1.565157      2.118823      3.730240
  C      -2.221528      0.975092      5.949247
  H      -2.290321      2.085831      5.886386
  H      -2.972928      0.629129      6.698630
  O      -2.521129      0.384883      4.645181
  C      -3.607957      0.882892      3.963464
  O      -4.344947      1.757332      4.396498
  C      -3.744585      0.179903      2.602368
  H      -2.759267      0.246523      2.087695
  H      -3.888231     -0.911026      2.797690
  C       1.685445      0.530074      2.175522
  H       0.663546      0.756378      1.782655
  H       1.772937     -0.580793      2.183999
  C       2.751957      1.118081      1.213094
  H       2.655406      0.589970      0.237330
  H       3.772732      0.873527      1.602290
  C       2.648795      2.649433      0.984450
  H       2.757813      3.182216      1.958958
  H       1.620996      2.894900      0.617381
  C       3.694894      3.229981     -0.008258
  H       4.725469      2.991625      0.356531
  H       3.621220      4.345175      0.011117
  C       3.540794      2.746721     -1.473536
  H       2.488081      2.904526     -1.807631
  H       3.714102      1.647484     -1.541872
  C       4.496625      3.477860     -2.468105
  H       5.547645      3.348368     -2.110056
  H       4.287931      4.572386     -2.425859
  C       4.386602      2.954388     -3.892087
  H       4.925943      2.004960     -4.090599
  C       3.674996      3.493212     -4.914743
  H       3.688933      2.953017     -5.882936
  C       2.819904      4.751022     -4.867052
  H       2.974042      5.339250     -5.805276
  H       3.143432      5.411280     -4.030169
  C       1.289275      4.469500     -4.709389
  H       0.764882      5.443490     -4.548987
  H       1.126363      3.875637     -3.778200
  C       0.635996      3.738327     -5.909719
  H       1.149555      2.762136     -6.087756
  H       0.798365      4.340328     -6.838433
  C      -0.882000      3.480972     -5.720246
  H      -1.400252      4.450091     -5.510391
  H      -1.028111      2.856207     -4.807221
  C      -1.550777      2.796407     -6.941080
  H      -1.061053      1.807302     -7.121555
  H      -1.339990      3.405748     -7.853654
  C      -3.087532      2.594853     -6.820906
  H      -3.467942      2.171234     -7.782822
  H      -3.582344      3.592500     -6.711917
  C      -3.541312      1.676387     -5.654385
  H      -3.244676      2.130464     -4.680233
  H      -2.993985      0.704189     -5.714304
  C      -5.066573      1.410947     -5.642044
  H      -5.362937      0.766245     -4.782131
  H      -5.399701      0.900434     -6.576580
  H      -5.643991      2.362290     -5.561930
  C      -4.901502      0.736695      1.735275
  H      -4.778003      1.838768      1.610098
  H      -5.847928      0.614987      2.310706
  C      -5.049180      0.060424      0.336413
  H      -6.126462      0.081661      0.047477
  H      -4.781140     -1.022745      0.411781
  C      -4.244544      0.719201     -0.821022
  H      -4.580907      1.780276     -0.932171
  H      -4.523870      0.214612     -1.779161
  C      -2.700397      0.694146     -0.681468
  H      -2.390533      1.270380      0.223077
  H      -2.363061     -0.356732     -0.511561
  C      -1.969479      1.288168     -1.913828
  H      -2.192843      0.670278     -2.815907
  H      -2.387842      2.303050     -2.123843
  C      -0.422835      1.423113     -1.744481
  H      -0.231507      2.082524     -0.860499
  H      -0.013181      1.963646     -2.625032
  C       0.300189      0.100797     -1.542466
  H       0.034595     -0.447861     -0.617280
  C       1.218826     -0.468945     -2.363310
  H       1.631110     -1.455494     -2.063235
  C       1.760732      0.069607     -3.677209
  H       2.875726      0.096637     -3.618706
  H       1.444644      1.122358     -3.844366
  C       1.357662     -0.794501     -4.912217
  H       1.721864     -1.839012     -4.758273
  H       1.903390     -0.411160     -5.809470
  C      -0.165596     -0.795941     -5.197733
  H      -0.707292     -1.226678     -4.323340
  H      -0.516566      0.260485     -5.271363
  C      -0.575940     -1.540533     -6.499817
  H      -1.681025     -1.440463     -6.636228
  H      -0.115029     -1.018038     -7.374086
  C      -0.195689     -3.047414     -6.563396
  H       0.914320     -3.158767     -6.507639
  H      -0.482699     -3.445518     -7.567423
  C      -0.853111     -3.926684     -5.468620
  H      -0.571417     -3.550128     -4.455114
  H      -1.965539     -3.821896     -5.530565
  C      -0.472685     -5.426638     -5.567579
  H      -0.748407     -5.812874     -6.580039
  H       0.638838     -5.527033     -5.499212
  C      -1.140003     -6.302897     -4.479187
  H      -0.852628     -5.966150     -3.454996
  H      -2.252624     -6.250862     -4.543330
  H      -0.847971     -7.374094     -4.575322
138
Coordinates from ORCA-job /wrk/rja7/qm_final_3_replicates/qm_final_1.1/qm/1/freq E -2722.586051874423
  N       1.997310     -4.589503      8.927693
  C       2.743376     -3.485104      8.095206
  H       3.477406     -4.028142      7.457850
  H       3.256975     -2.842197      8.838166
  C       0.922128     -5.279971      8.093916
  H       1.380112     -5.677599      7.164668
  H       0.495685     -6.111191      8.693183
  H       0.140224     -4.533344      7.856466
  C       1.339440     -4.010500     10.199753
  H       2.062517     -3.336620     10.698094
  H       0.448110     -3.416351      9.925645
  H       1.060416     -4.868503     10.847826
  C       3.042276     -5.609299      9.360612
  H       3.817855     -5.087952      9.957806
  H       3.503546     -6.068436      8.462221
  H       2.555200     -6.392072      9.978385
  C       1.829360     -2.600961      7.208999
  H       2.496253     -1.791498      6.816264
  H       1.469719     -3.162404      6.314425
  P       0.917488     -0.863526      9.141384
  O       2.356805     -0.995785      9.638607
  O      -0.341596     -1.015604      9.982491
  O       0.690904     -2.107889      7.898438
  O       0.866799      0.526727      8.173621
  C      -0.414327      1.033732      7.759363
  H      -0.338544      2.148227      7.732528
  H      -1.208693      0.750336      8.491518
  C      -0.812690      0.514764      6.356113
  H      -0.746230     -0.593339      6.327278
  O       0.131643      1.080352      5.372677
  C       0.872003      0.237924      4.587676
  O       0.822262     -0.986589      4.619022
  C       1.788963      1.034124      3.642602
  H       2.835697      0.886932      4.007329
  H       1.565051      2.118789      3.730230
  C      -2.221667      0.975066      5.949375
  H      -2.290423      2.085796      5.886391
  H      -2.973012      0.629217      6.698867
  O      -2.521439      0.384698      4.645413
  C      -3.607886      0.883145      3.963411
  O      -4.344523      1.758026      4.396153
  C      -3.744595      0.180019      2.602394
  H      -2.759308      0.246620      2.087657
  H      -3.888193     -0.910897      2.797805
  C       1.685369      0.530017      2.175562
  H       0.663446      0.756238      1.782690
  H       1.772893     -0.580851      2.184048
  C       2.751854      1.118028      1.213123
  H       2.655201      0.590035      0.237305
  H       3.772640      0.873366      1.602222
  C       2.648804      2.649409      0.984583
  H       2.757952      3.182145      1.959100
  H       1.621011      2.894982      0.617581
  C       3.694886      3.229916     -0.008179
  H       4.725470      2.991580      0.356598
  H       3.621204      4.345112      0.011205
  C       3.540765      2.746649     -1.473445
  H       2.488020      2.904338     -1.807501
  H       3.714179      1.647429     -1.541810
  C       4.496494      3.477904     -2.468024
  H       5.547532      3.348488     -2.109998
  H       4.287708      4.572411     -2.425732
  C       4.386523      2.954492     -3.892026
  H       4.925894      2.005083     -4.090549
  C       3.674979      3.493343     -4.914710
  H       3.688996      2.953177     -5.882918
  C       2.819853      4.751132     -4.867027
  H       2.974020      5.339399     -5.805222
  H       3.143330      5.411357     -4.030098
  C       1.289227      4.469577     -4.709445
  H       0.764804      5.443554     -4.549056
  H       1.126267      3.875696     -3.778273
  C       0.635998      3.738435     -5.909828
  H       1.149602      2.762280     -6.087930
  H       0.798349      4.340510     -6.838499
  C      -0.881992      3.481037     -5.720365
  H      -1.400267      4.450143     -5.510507
  H      -1.028074      2.856283     -4.807328
  C      -1.550782      2.796487     -6.941198
  H      -1.061073      1.807384     -7.121719
  H      -1.339997      3.405858     -7.853757
  C      -3.087533      2.594933     -6.820994
  H      -3.467951      2.171254     -7.782882
  H      -3.582364      3.592576     -6.712064
  C      -3.541281      1.676521     -5.654416
  H      -3.244678      2.130683     -4.680292
  H      -2.993895      0.704353     -5.714266
  C      -5.066524      1.410997     -5.642056
  H      -5.362844      0.766358     -4.782078
  H      -5.399633      0.900386     -6.576544
  H      -5.643999      2.362312     -5.562008
  C      -4.901552      0.736738      1.735310
  H      -4.778151      1.838824      1.610173
  H      -5.847974      0.614917      2.310727
  C      -5.049165      0.060464      0.336450
  H      -6.126431      0.081745      0.047451
  H      -4.781163     -1.022712      0.411841
  C      -4.244483      0.719208     -0.820978
  H      -4.580859      1.780275     -0.932160
  H      -4.523796      0.214566     -1.779093
  C      -2.700329      0.694178     -0.681466
  H      -2.390396      1.270509      0.222997
  H      -2.362969     -0.356681     -0.511478
  C      -1.969511      1.288083     -1.913950
  H      -2.192884      0.670060     -2.815935
  H      -2.387946      2.302912     -2.124064
  C      -0.422858      1.423109     -1.744739
  H      -0.231476      2.082605     -0.860832
  H      -0.013301      1.963574     -2.625375
  C       0.300228      0.100836     -1.542641
  H       0.034634     -0.447778     -0.617428
  C       1.218922     -0.468893     -2.363431
  H       1.631277     -1.455394     -2.063301
  C       1.760776      0.069621     -3.677370
  H       2.875772      0.096699     -3.618920
  H       1.444629      1.122348     -3.844572
  C       1.357704     -0.794598     -4.912301
  H       1.721839     -1.839111     -4.758213
  H       1.903489     -0.411406     -5.809583
  C      -0.165539     -0.795971     -5.197889
  H      -0.707334     -1.226582     -4.323495
  H      -0.516412      0.260477     -5.271645
  C      -0.575881     -1.540668     -6.499915
  H      -1.680975     -1.440643     -6.636282
  H      -0.115025     -1.018242     -7.374252
  C      -0.195630     -3.047555     -6.563358
  H       0.914377     -3.158910     -6.507594
  H      -0.482652     -3.445756     -7.567344
  C      -0.853076     -3.926700     -5.468496
  H      -0.571374     -3.550057     -4.455023
  H      -1.965500     -3.821874     -5.530450
  C      -0.472702     -5.426674     -5.567297
  H      -0.748416     -5.813005     -6.579722
  H       0.638817     -5.527108     -5.498902
  C      -1.140062     -6.302790     -4.478816
  H      -0.852731     -5.965885     -3.454663
  H      -2.252681     -6.250773     -4.543004
  H      -0.848010     -7.373997     -4.574771
138
Coordinates from ORCA-job /wrk/rja7/qm_final_3_replicates/qm_final_1.1/qm/1/freq E -2722.586051882616
  N       1.997370     -4.589535      8.927791
  C       2.743384     -3.485132      8.095260
  H       3.477407     -4.028167      7.457893
  H       3.256992     -2.842205      8.838196
  C       0.922234     -5.280086      8.094043
  H       1.380237     -5.677756      7.164821
  H       0.495799     -6.111288      8.693342
  H       0.140297     -4.533511      7.856533
  C       1.339465     -4.010518     10.199829
  H       2.062539     -3.336650     10.698188
  H       0.448147     -3.416365      9.925690
  H       1.060414     -4.868523     10.847888
  C       3.042394     -5.609254      9.360758
  H       3.817952     -5.087834      9.957912
  H       3.503677     -6.068419      8.462388
  H       2.555361     -6.392018      9.978577
  C       1.829332     -2.601037      7.209046
  H       2.496205     -1.791576      6.816274
  H       1.469682     -3.162514      6.314498
  P       0.917475     -0.863557      9.141393
  O       2.356795     -0.995790      9.638623
  O      -0.341607     -1.015608      9.982503
  O       0.690884     -2.107954      7.898491
  O       0.866795      0.526679      8.173571
  C      -0.414338      1.033690      7.759348
  H      -0.338537      2.148183      7.732465
  H      -1.208683      0.750336      8.491541
  C      -0.812762      0.514694      6.356123
  H      -0.746280     -0.593409      6.327300
  O       0.131519      1.080291      5.372633
  C       0.871966      0.237867      4.587704
  O       0.822317     -0.986645      4.619121
  C       1.788917      1.034078      3.642624
  H       2.835641      0.886879      4.007383
  H       1.565019      2.118746      3.730256
  C      -2.221753      0.974973      5.949424
  H      -2.290519      2.085699      5.886396
  H      -2.973078      0.629154      6.698949
  O      -2.521572      0.384548      4.645495
  C      -3.607865      0.883160      3.963375
  O      -4.344391      1.758184      4.396018
  C      -3.744560      0.180030      2.602361
  H      -2.759289      0.246703      2.087598
  H      -3.888072     -0.910898      2.797765
  C       1.685341      0.529972      2.175603
  H       0.663408      0.756109      1.782694
  H       1.772880     -0.580899      2.184050
  C       2.751802      1.117997      1.213139
  H       2.655098      0.590059      0.237301
  H       3.772600      0.873333      1.602205
  C       2.648781      2.649396      0.984649
  H       2.758011      3.182111      1.959166
  H       1.620988      2.895014      0.617680
  C       3.694851      3.229874     -0.008148
  H       4.725439      2.991540      0.356620
  H       3.621179      4.345071      0.011232
  C       3.540716      2.746597     -1.473408
  H       2.487946      2.904203     -1.807425
  H       3.714201      1.647390     -1.541800
  C       4.496371      3.477943     -2.467989
  H       5.547421      3.348592     -2.109968
  H       4.287506      4.572433     -2.425672
  C       4.386446      2.954556     -3.891999
  H       4.925807      2.005137     -4.090503
  C       3.674973      3.493422     -4.914723
  H       3.689039      2.953253     -5.882928
  C       2.819859      4.751219     -4.867080
  H       2.974061      5.339477     -5.805274
  H       3.143313      5.411444     -4.030142
  C       1.289230      4.469682     -4.709539
  H       0.764808      5.443664     -4.549176
  H       1.126234      3.875807     -3.778369
  C       0.636021      3.738534     -5.909933
  H       1.149650      2.762395     -6.088053
  H       0.798363      4.340633     -6.838591
  C      -0.881968      3.481123     -5.720477
  H      -1.400251      4.450234     -5.510660
  H      -1.028044      2.856413     -4.807408
  C      -1.550745      2.796530     -6.941286
  H      -1.061040      1.807422     -7.121791
  H      -1.339962      3.405878     -7.853860
  C      -3.087498      2.594973     -6.821078
  H      -3.467906      2.171210     -7.782932
  H      -3.582339      3.592621     -6.712237
  C      -3.541248      1.676642     -5.654436
  H      -3.244680      2.130887     -4.680341
  H      -2.993830      0.704487     -5.714197
  C      -5.066481      1.411071     -5.642082
  H      -5.362787      0.766484     -4.782060
  H      -5.399568      0.900384     -6.576536
  H      -5.643996      2.362367     -5.562101
  C      -4.901581      0.736670      1.735312
  H      -4.778324      1.838781      1.610265
  H      -5.847992      0.614679      2.310715
  C      -5.049135      0.060456      0.336424
  H      -6.126386      0.081776      0.047375
  H      -4.781150     -1.022726      0.411786
  C      -4.244415      0.719220     -0.820971
  H      -4.580794      1.780287     -0.932143
  H      -4.523724      0.214586     -1.779092
  C      -2.700259      0.694188     -0.681485
  H      -2.390277      1.270561      0.222935
  H      -2.362896     -0.356663     -0.511463
  C      -1.969499      1.288026     -1.914040
  H      -2.192901      0.669925     -2.815966
  H      -2.387965      2.302829     -2.124212
  C      -0.422839      1.423076     -1.744924
  H      -0.231401      2.082649     -0.861086
  H      -0.013344      1.963469     -2.625630
  C       0.300268      0.100824     -1.542760
  H       0.034654     -0.447753     -0.617529
  C       1.219001     -0.468912     -2.363499
  H       1.631382     -1.455388     -2.063325
  C       1.760847      0.069563     -3.677460
  H       2.875846      0.096594     -3.619048
  H       1.444725      1.122293     -3.844690
  C       1.357717     -0.794693     -4.912356
  H       1.721764     -1.839225     -4.758198
  H       1.903547     -0.411598     -5.809651
  C      -0.165521     -0.795941     -5.197966
  H      -0.707378     -1.226470     -4.323570
  H      -0.516286      0.260539     -5.271775
  C      -0.575917     -1.540669     -6.499961
  H      -1.681017     -1.440643     -6.636283
  H      -0.115096     -1.018283     -7.374340
  C      -0.195695     -3.047567     -6.563354
  H       0.914309     -3.158944     -6.507603
  H      -0.482751     -3.445808     -7.567313
  C      -0.853137     -3.926647     -5.468433
  H      -0.571418     -3.549955     -4.454983
  H      -1.965560     -3.821799     -5.530371
  C      -0.472790     -5.426630     -5.567160
  H      -0.748540     -5.813015     -6.579555
  H       0.638729     -5.527080     -5.498795
  C      -1.140125     -6.302673     -4.478606
  H      -0.852790     -5.965678     -3.454483
  H      -2.252746     -6.250681     -4.542781
  H      -0.848049     -7.373881     -4.574472
138
Coordinates from ORCA-job /wrk/rja7/qm_final_3_replicates/qm_final_1.1/qm/1/freq E -2722.586051885524
  N       1.997400     -4.589526      8.927862
  C       2.743403     -3.485112      8.095335
  H       3.477435     -4.028139      7.457970
  H       3.257004     -2.842182      8.838273
  C       0.922308     -5.280114      8.094098
  H       1.380339     -5.677781      7.164889
  H       0.495873     -6.111321      8.693391
  H       0.140350     -4.533569      7.856561
  C       1.339454     -4.010512     10.199883
  H       2.062508     -3.336630     10.698252
  H       0.448131     -3.416381      9.925718
  H       1.060404     -4.868520     10.847939
  C       3.042445     -5.609209      9.360864
  H       3.817980     -5.087756      9.958021
  H       3.503755     -6.068377      8.462510
  H       2.555422     -6.391974      9.978689
  C       1.829349     -2.601025      7.209114
  H       2.496225     -1.791561      6.816355
  H       1.469709     -3.162505      6.314565
  P       0.917467     -0.863554      9.141453
  O       2.356780     -0.995783      9.638704
  O      -0.341626     -1.015601      9.982546
  O       0.690896     -2.107946      7.898552
  O       0.866795      0.526687      8.173616
  C      -0.414341      1.033689      7.759396
  H      -0.338544      2.148184      7.732502
  H      -1.208683      0.750342      8.491594
  C      -0.812763      0.514686      6.356172
  H      -0.746276     -0.593417      6.327359
  O       0.131523      1.080283      5.372683
  C       0.871971      0.237854      4.587757
  O       0.822341     -0.986657      4.619188
  C       1.788906      1.034061      3.642650
  H       2.835627      0.886836      4.007413
  H       1.565045      2.118735      3.730303
  C      -2.221752      0.974959      5.949468
  H      -2.290526      2.085684      5.886433
  H      -2.973077      0.629145      6.698996
  O      -2.521575      0.384523      4.645543
  C      -3.607820      0.883181      3.963386
  O      -4.344328      1.758234      4.396005
  C      -3.744493      0.180064      2.602363
  H      -2.759237      0.246801      2.087588
  H      -3.887939     -0.910875      2.797756
  C       1.685308      0.529965      2.175642
  H       0.663370      0.756083      1.782725
  H       1.772829     -0.580909      2.184052
  C       2.751757      1.117984      1.213151
  H       2.655032      0.590047      0.237318
  H       3.772561      0.873344      1.602215
  C       2.648739      2.649390      0.984674
  H       2.757982      3.182092      1.959196
  H       1.620953      2.895015      0.617700
  C       3.694816      3.229869     -0.008112
  H       4.725401      2.991546      0.356675
  H       3.621138      4.345065      0.011251
  C       3.540713      2.746582     -1.473374
  H       2.487928      2.904120     -1.807388
  H       3.714266      1.647386     -1.541778
  C       4.496324      3.478002     -2.467942
  H       5.547380      3.348703     -2.109921
  H       4.287392      4.572478     -2.425600
  C       4.386430      2.954641     -3.891962
  H       4.925809      2.005231     -4.090469
  C       3.674962      3.493501     -4.914695
  H       3.689053      2.953339     -5.882902
  C       2.819829      4.751286     -4.867052
  H       2.974037      5.339554     -5.805239
  H       3.143262      5.411508     -4.030104
  C       1.289202      4.469730     -4.709531
  H       0.764767      5.443700     -4.549146
  H       1.126202      3.875823     -3.778382
  C       0.636014      3.738604     -5.909953
  H       1.149666      2.762484     -6.088103
  H       0.798348      4.340740     -6.838588
  C      -0.881971      3.481158     -5.720517
  H      -1.400274      4.450258     -5.510695
  H      -1.028041      2.856436     -4.807455
  C      -1.550719      2.796558     -6.941333
  H      -1.060989      1.807463     -7.121844
  H      -1.339954      3.405917     -7.853905
  C      -3.087470      2.594961     -6.821135
  H      -3.467861      2.171177     -7.782987
  H      -3.582334      3.592599     -6.712309
  C      -3.541211      1.676625     -5.654493
  H      -3.244661      2.130878     -4.680396
  H      -2.993772      0.704482     -5.714245
  C      -5.066437      1.411023     -5.642154
  H      -5.362738      0.766426     -4.782138
  H      -5.399506      0.900331     -6.576612
  H      -5.643977      2.362305     -5.562178
  C      -4.901565      0.736642      1.735342
  H      -4.778403      1.838768      1.610337
  H      -5.847962      0.614550      2.310749
  C      -5.049100      0.060459      0.336442
  H      -6.126347      0.081802      0.047382
  H      -4.781128     -1.022727      0.411786
  C      -4.244370      0.719229     -0.820944
  H      -4.580730      1.780303     -0.932100
  H      -4.523703      0.214619     -1.779071
  C      -2.700210      0.694160     -0.681499
  H      -2.390176      1.270535      0.222901
  H      -2.362866     -0.356697     -0.511476
  C      -1.969481      1.287962     -1.914094
  H      -2.192925      0.669828     -2.815988
  H      -2.387949      2.302759     -2.124289
  C      -0.422818      1.423011     -1.745043
  H      -0.231330      2.082641     -0.861258
  H      -0.013359      1.963346     -2.625803
  C       0.300297      0.100770     -1.542833
  H       0.034668     -0.447780     -0.617591
  C       1.219058     -0.468974     -2.363535
  H       1.631448     -1.455436     -2.063326
  C       1.760923      0.069473     -3.677500
  H       2.875923      0.096449     -3.619092
  H       1.444846      1.122214     -3.844747
  C       1.357751     -0.794783     -4.912389
  H       1.721744     -1.839331     -4.758214
  H       1.903604     -0.411728     -5.809687
  C      -0.165485     -0.795945     -5.198006
  H      -0.707373     -1.226453     -4.323619
  H      -0.516186      0.260556     -5.271812
  C      -0.575917     -1.540646     -6.500009
  H      -1.681014     -1.440587     -6.636328
  H      -0.115084     -1.018266     -7.374386
  C      -0.195740     -3.047556     -6.563412
  H       0.914258     -3.158970     -6.507622
  H      -0.482778     -3.445775     -7.567383
  C      -0.853241     -3.926627     -5.468517
  H      -0.571558     -3.549943     -4.455054
  H      -1.965660     -3.821758     -5.530500
  C      -0.472920     -5.426617     -5.567235
  H      -0.748639     -5.812992     -6.579642
  H       0.638595     -5.527088     -5.498830
  C      -1.140315     -6.302651     -4.478711
  H      -0.853032     -5.965655     -3.454574
  H      -2.252932     -6.250652     -4.542944
  H      -0.848237     -7.373860     -4.574558
