138
Coordinates from ORCA-job /wrk/rja7/qm_final_3_replicates/qm_final_1.1/qm/4/freq E -2722.585051161791
  N          -2.46919219331016     -4.34799186307981     13.55719229047394
  C          -1.82670518915898     -5.21152934375120     12.39627895904964
  H          -1.80705658790326     -6.25737360090207     12.77240886758763
  H          -0.78122112249837     -4.86611060610626     12.27227205627727
  C          -3.19991955386274     -5.27731979293788     14.51232993407427
  H          -3.64678294939231     -4.67901338058759     15.33317043602886
  H          -4.00201536335896     -5.80791183824952     13.95814254654302
  H          -2.48389936474186     -6.01248367286927     14.93447788241828
  C          -3.46175445825711     -3.27140692931394     13.07552768324286
  H          -2.91040573733679     -2.55361047373503     12.43276992756055
  H          -4.28478157628568     -3.76082449536749     12.52097814655921
  H          -3.86152469608739     -2.77607419697623     13.98616344466040
  C          -1.32964773612379     -3.63208702669779     14.29393498642860
  H          -0.86476200750588     -2.92816339654458     13.56794115982049
  H          -0.60367153823257     -4.39365441447002     14.64724395764607
  H          -1.75787175554421     -3.08641796533351     15.16150335180571
  C          -2.50868048499968     -5.16966488431720     11.00334812253971
  H          -1.93177530591964     -5.93530400050987     10.41604978795350
  H          -3.56495824556375     -5.53669498417806     11.06571541350862
  P          -0.98996182301010     -3.00947296063076     10.36633475661327
  O           0.11899545543173     -4.04502096238030     10.19266290823135
  O          -1.07813763215063     -2.04982800472322     11.55960118381516
  O          -2.51690956920127     -3.90433993481815     10.37527931484191
  O          -1.28080037957550     -2.11837360128389      8.98210841550941
  C          -1.19842828406742     -2.79771737788374      7.71333243162409
  H          -2.09732931361924     -3.44896581639145      7.56313205595978
  H          -0.29287197724723     -3.45133201697793      7.67226198628557
  C          -1.11056640068461     -1.74732093229684      6.59406513288437
  H          -0.27801086979625     -1.04114383090140      6.80411465473846
  O          -2.37846399744582     -0.99973041232470      6.56765342292858
  C          -2.32854671594088      0.35624225588273      6.34608001371849
  O          -1.29804683686616      1.00256260438870      6.20119906220023
  C          -3.74062917675533      0.96030141836097      6.25052845206848
  H          -3.82655962358519      1.72734596928382      7.05574976094483
  H          -4.50893001722599      0.17897093461159      6.44189620238925
  C          -0.90517490221648     -2.41304873118421      5.20991015352143
  H          -1.74381229066252     -3.10979089892707      4.98554123188627
  H           0.05886286456736     -2.96933265170297      5.19726216075353
  O          -0.93243741664811     -1.41732473836272      4.14498892617795
  C           0.26441799493829     -0.79643071015296      3.81577994710712
  O           1.35431109363271     -1.17294335990639      4.21772400307836
  C           0.00457555437473      0.43116002136446      2.93489179974118
  H          -0.93179564259540      0.28364237863262      2.35187450983399
  H          -0.20523420316109      1.25962238875854      3.65477077881687
  C          -3.95649431169479      1.63646721149648      4.86221372737462
  H          -3.12924153562415      2.36676027270653      4.69901255904287
  H          -4.90123643489343      2.23056277232577      4.88803983551829
  C          -3.99898799416942      0.62077303347143      3.68911143578920
  H          -4.92641548733612      0.00057190619795      3.76783608326733
  H          -3.14969745185603     -0.09267538575121      3.78710631216769
  C          -3.92735146737818      1.27501347190200      2.28579719752875
  H          -3.00655768559947      1.90676263416663      2.22676391248095
  H          -4.78607786207832      1.97700624452679      2.14105848066280
  C          -3.90066502060666      0.23410429209581      1.13613276305151
  H          -4.84985342639819     -0.35789553746530      1.14951776012273
  H          -3.08491787061346     -0.49978846199130      1.34010759812913
  C          -3.70347281969117      0.85721877750206     -0.26952290175776
  H          -2.74461839779936      1.43091397482644     -0.29093034837345
  H          -4.51552399495370      1.60209693387207     -0.45600719838223
  C          -3.70031202632098     -0.17754752773464     -1.44171314360621
  H          -3.67973744529828      0.37330424682820     -2.40876288867651
  H          -4.67417804589561     -0.72952529888874     -1.42110228861391
  C          -2.56388255580931     -1.18675624315202     -1.37379095076655
  H          -2.59570479040815     -1.87795950362405     -0.50806948505985
  C          -1.52303697926233     -1.31900228472022     -2.23499479727566
  H          -0.78408989138946     -2.11989380916407     -2.02361825612963
  C          -1.25719837612775     -0.54128051017609     -3.51421605104274
  H          -0.19357049098239     -0.20125729337459     -3.51719377147510
  H          -1.87929491432895      0.38188782223048     -3.56486918626802
  C          -1.50105342564270     -1.40417200778932     -4.79098224412210
  H          -2.59159278344424     -1.63456022191312     -4.87079131923415
  H          -0.99571051612274     -2.39373512691116     -4.66437301926633
  C          -0.99942136855884     -0.74631718692363     -6.10150316785803
  H           0.10018862747296     -0.57776020661442     -6.01739226871039
  H          -1.45371430999379      0.27073481294559     -6.21160827323466
  C          -1.32117832001203     -1.58500957797952     -7.36668797624726
  H          -2.42921807735180     -1.70912926896303     -7.43956915091340
  H          -0.91028097268879     -2.61787208456181     -7.23913848424055
  C          -0.79215368200642     -0.98862579930383     -8.70059954633789
  H          -1.13606448504182      0.07195571043874     -8.79534465709628
  H          -1.26463321681342     -1.53510544488973     -9.55312586157271
  C           0.74838306304406     -1.04738167819450     -8.87096934038041
  H           1.08447491286855     -2.11127231890833     -8.78454359595462
  H           1.24776560807889     -0.50569782529912     -8.03208332318159
  C           1.24845574353088     -0.45897572857383    -10.21543232667962
  H           0.93038136259455      0.61091581338520    -10.28860573457494
  H           0.73762946412152     -0.98331191616306    -11.06053113574988
  C           2.78321659102705     -0.55659632783866    -10.39710080952597
  H           3.11177500620343     -0.11497832750122    -11.36608865730086
  H           3.12707969994578     -1.61761108518721    -10.37675090816994
  H           3.32336591948942     -0.01898949789787     -9.58316728268594
  C           1.18756350335742      0.80290539822076      2.00763404925739
  H           2.12518568743018      0.85038575864505      2.60875069065797
  H           1.01057181464690      1.83196447096583      1.61226784116672
  C           1.37311594772835     -0.17352352685494      0.81659204109196
  H           0.40698004678987     -0.26543564102592      0.26171603250012
  H           1.60759031229127     -1.19477913224859      1.20421209569090
  C           2.48374608863272      0.27149136096369     -0.16848817906331
  H           3.46142941909677      0.32904904167919      0.37181825436843
  H           2.26269237632321      1.31325497450133     -0.50569368923959
  C           2.62508605716890     -0.65982963364306     -1.40059185872792
  H           2.80441607989450     -1.70425849336359     -1.04663905739254
  H           1.65283674411917     -0.69159382360905     -1.94770411828702
  C           3.76391744758402     -0.27408493917591     -2.38523526690694
  H           4.74938625950514     -0.38623377544986     -1.87028278221721
  H           3.76785018147658     -1.00312419701174     -3.23104677757510
  C           3.68708017503366      1.17140828589947     -2.98062583281072
  H           4.53332444337326      1.30393442850829     -3.69235743294108
  H           3.86425360995518      1.91075064474889     -2.16219268394397
  C           2.36174016137155      1.50160242348713     -3.65047293617536
  H           1.50575301481899      1.65618427141655     -2.96413489905340
  C           2.12176877042302      1.61574639912758     -4.98116648454941
  H           1.09188233342264      1.88068310118773     -5.29772483635755
  C           3.12674817407766      1.47043443145164     -6.11279549957371
  H           2.66576159176837      0.86269331930213     -6.92893826709035
  H           4.02726778403726      0.90398589201753     -5.78125803372802
  C           3.57074424891222      2.84012373044247     -6.71170507754281
  H           4.09789476398097      3.42795484863437     -5.92096174422553
  H           2.66162952616893      3.43070190191226     -6.97650468764120
  C           4.48822299579777      2.69324099659804     -7.95515216913430
  H           5.33221177259198      2.00644493892866     -7.70094782775282
  H           3.91813607803558      2.18499193069163     -8.77204089360869
  C           5.07171173146031      4.02783932387215     -8.49404195350402
  H           5.69083122018875      4.51025920427527     -7.69687345459400
  H           5.77895412997746      3.80065205799652     -9.32899998687863
  C           4.01269891783644      5.04366622175135     -8.99888549782660
  H           3.34402930873221      5.34265266358605     -8.15629665819812
  H           3.35070424711219      4.54313153053794     -9.74978619556078
  C           4.62997077140020      6.31863728657677     -9.62716241288555
  H           5.31106486933560      6.80492118013210     -8.88452303132566
  H           5.28142024833097      6.02935185834529    -10.48952970694949
  C           3.57660963547498      7.35162856079424    -10.10482841958476
  H           2.89084969294118      6.86315726898188    -10.84049019695434
  H           2.93254359977695      7.64426829487147     -9.23908942064286
  C           4.20130972815475      8.61861507686053    -10.73905476385326
  H           3.42079450135575      9.34328343032344    -11.06658191702355
  H           4.86858294526182      9.14603504644078    -10.01694993283630
  H           4.81866945425529      8.36137099973672    -11.63194595509617
